% Copyright 2026 Siemens AG Österreich and Benedetta Strizzolo and Francesco Zuccato and Thomas Sergeys
%Permission is hereby granted, free of charge, to any person obtaining a copy of this software and associated documentation files (the “Software”), to deal in the Software without restriction, including without limitation the rights to use, copy, modify, merge, publish, distribute, sublicense, and/or sell copies of the Software, and to permit persons to whom the Software is furnished to do so, subject to the following conditions:
%The above copyright notice and this permission notice shall be included in all copies or substantial portions of the Software.
%THE SOFTWARE IS PROVIDED “AS IS”, WITHOUT WARRANTY OF ANY KIND, EXPRESS OR IMPLIED, INCLUDING BUT NOT LIMITED TO THE WARRANTIES OF MERCHANTABILITY, FITNESS FOR A PARTICULAR PURPOSE AND NONINFRINGEMENT. IN NO EVENT SHALL THE AUTHORS OR COPYRIGHT HOLDERS BE LIABLE FOR ANY CLAIM, DAMAGES OR OTHER LIABILITY, WHETHER IN AN ACTION OF CONTRACT, TORT OR OTHERWISE, ARISING FROM, OUT OF OR IN CONNECTION WITH THE SOFTWARE OR THE USE OR OTHER DEALINGS IN THE SOFTWARE.

% --- generation parameters
% instance_seed = 21;
% num_jobs = 10;
% num_machines = 8;
% num_modes_per_cut = (2, 2);
% num_workers = 2;
% num_workers_per_machine = 1;

% --- statistics
num_cuts = 21;
num_modes = 336;
num_operations = 63;
num_st = 42;
num_tt = 11;

% --- parameters
instance_seed = 21;
num_jobs = 10;
num_machines = 8;
num_workers = 2;
num_workers_per_machine = 1;

% --- domains
max_auxiliar_energy_Wh = 13117;
max_horizon = 787;
max_idle_energy_Wh = 56192;
max_processing_energy_Wh = 1631;
max_total_energy_Wh = 70940;
max_total_tardiness = 2781;
min_auxiliar_energy_Wh = 916;
min_horizon = 55;
min_idle_energy_Wh = 0;
min_processing_energy_Wh = 716;
min_total_energy_Wh = 1632;
min_total_tardiness = 0;

% --- solving_constants
factory_power_auxiliar_equipments_W = 1000;

% --- cuts
% fields: ('cut_id', 'cut_depth_mm', 'cut_channel_mm', 'in_weight_kg')
cuts = [
  (cut_id: 1, cut_depth_mm: 219.6000, cut_channel_mm: 98.8100, in_weight_kg: 141.5500),
  (cut_id: 2, cut_depth_mm: 774.6400, cut_channel_mm: 98.8100, in_weight_kg: 131.9400),
  (cut_id: 3, cut_depth_mm: 98.8100, cut_channel_mm: 65.8900, in_weight_kg: 39.5900),
  (cut_id: 4, cut_depth_mm: 568.6700, cut_channel_mm: 217.6600, in_weight_kg: 108.0500),
  (cut_id: 5, cut_depth_mm: 217.6600, cut_channel_mm: 64.1000, in_weight_kg: 62.2800),
  (cut_id: 6, cut_depth_mm: 78.8300, cut_channel_mm: 273.6100, in_weight_kg: 201.2000),
  (cut_id: 7, cut_depth_mm: 663.7700, cut_channel_mm: 273.6100, in_weight_kg: 112.3900),
  (cut_id: 8, cut_depth_mm: 663.7700, cut_channel_mm: 53.7400, in_weight_kg: 76.6200),
  (cut_id: 9, cut_depth_mm: 116.7000, cut_channel_mm: 72.1000, in_weight_kg: 22.1900),
  (cut_id: 10, cut_depth_mm: 20, cut_channel_mm: 124.0200, in_weight_kg: 3.3800),
  (cut_id: 11, cut_depth_mm: 20, cut_channel_mm: 154.0200, in_weight_kg: 3.0000),
  (cut_id: 12, cut_depth_mm: 674.0900, cut_channel_mm: 245.9000, in_weight_kg: 178.7400),
  (cut_id: 13, cut_depth_mm: 115.1900, cut_channel_mm: 674.0900, in_weight_kg: 149.8800),
  (cut_id: 14, cut_depth_mm: 189.2500, cut_channel_mm: 40.9600, in_weight_kg: 45.9900),
  (cut_id: 15, cut_depth_mm: 166.2300, cut_channel_mm: 334.3600, in_weight_kg: 148.1000),
  (cut_id: 16, cut_depth_mm: 334.3600, cut_channel_mm: 125.5100, in_weight_kg: 54.7600),
  (cut_id: 17, cut_depth_mm: 120.7600, cut_channel_mm: 749.0700, in_weight_kg: 119.7200),
  (cut_id: 18, cut_depth_mm: 22.3500, cut_channel_mm: 120.7600, in_weight_kg: 15.8700),
  (cut_id: 19, cut_depth_mm: 22.3500, cut_channel_mm: 120.7600, in_weight_kg: 2.9400),
  (cut_id: 20, cut_depth_mm: 79.6800, cut_channel_mm: 280.0700, in_weight_kg: 51.8000),
  (cut_id: 21, cut_depth_mm: 140.2000, cut_channel_mm: 280.0700, in_weight_kg: 24.5600)
];

% --- jobs
% fields: ('job_id', 'deadline')
jobs = [
  (job_id: 1, deadline: 240),
  (job_id: 2, deadline: 240),
  (job_id: 3, deadline: 360),
  (job_id: 4, deadline: 120),
  (job_id: 5, deadline: 120),
  (job_id: 6, deadline: 120),
  (job_id: 7, deadline: 120),
  (job_id: 8, deadline: 480),
  (job_id: 9, deadline: 360),
  (job_id: 10, deadline: 120)
];

% --- machines
% fields: ('mch_id', 'mch_type', 'idle_power_W')
machines = [
  (mch_id: 1, mch_type: "with-feeder", idle_power_W: 524),
  (mch_id: 2, mch_type: "basic", idle_power_W: 562),
  (mch_id: 3, mch_type: "basic", idle_power_W: 530),
  (mch_id: 4, mch_type: "with-feeder", idle_power_W: 532),
  (mch_id: 5, mch_type: "with-feeder", idle_power_W: 547),
  (mch_id: 6, mch_type: "basic", idle_power_W: 504),
  (mch_id: 7, mch_type: "basic", idle_power_W: 519),
  (mch_id: 8, mch_type: "basic", idle_power_W: 566)
];

% --- modes
% fields: ('cut_id', 'mch_id', 'mode_id', 'feed_rate', 'blade_speed', 'time', 'energy_Wh')
modes = [
  (cut_id: 1, mch_id: 5, mode_id: 1, feed_rate: 19.6900, blade_speed: 11.6900, time: 12, energy_Wh: 27),
  (cut_id: 1, mch_id: 6, mode_id: 1, feed_rate: 19.6900, blade_speed: 11.6900, time: 12, energy_Wh: 27),
  (cut_id: 1, mch_id: 3, mode_id: 1, feed_rate: 19.6900, blade_speed: 11.6900, time: 12, energy_Wh: 27),
  (cut_id: 1, mch_id: 1, mode_id: 1, feed_rate: 19.6900, blade_speed: 11.6900, time: 12, energy_Wh: 27),
  (cut_id: 1, mch_id: 5, mode_id: 2, feed_rate: 19.6900, blade_speed: 35.0600, time: 12, energy_Wh: 29),
  (cut_id: 1, mch_id: 6, mode_id: 2, feed_rate: 19.6900, blade_speed: 35.0600, time: 12, energy_Wh: 29),
  (cut_id: 1, mch_id: 3, mode_id: 2, feed_rate: 19.6900, blade_speed: 35.0600, time: 12, energy_Wh: 29),
  (cut_id: 1, mch_id: 1, mode_id: 2, feed_rate: 19.6900, blade_speed: 35.0600, time: 12, energy_Wh: 29),
  (cut_id: 1, mch_id: 5, mode_id: 3, feed_rate: 59.0600, blade_speed: 11.6900, time: 4, energy_Wh: 55),
  (cut_id: 1, mch_id: 6, mode_id: 3, feed_rate: 59.0600, blade_speed: 11.6900, time: 4, energy_Wh: 55),
  (cut_id: 1, mch_id: 3, mode_id: 3, feed_rate: 59.0600, blade_speed: 11.6900, time: 4, energy_Wh: 55),
  (cut_id: 1, mch_id: 1, mode_id: 3, feed_rate: 59.0600, blade_speed: 11.6900, time: 4, energy_Wh: 55),
  (cut_id: 1, mch_id: 5, mode_id: 4, feed_rate: 59.0600, blade_speed: 35.0600, time: 4, energy_Wh: 76),
  (cut_id: 1, mch_id: 6, mode_id: 4, feed_rate: 59.0600, blade_speed: 35.0600, time: 4, energy_Wh: 76),
  (cut_id: 1, mch_id: 3, mode_id: 4, feed_rate: 59.0600, blade_speed: 35.0600, time: 4, energy_Wh: 76),
  (cut_id: 1, mch_id: 1, mode_id: 4, feed_rate: 59.0600, blade_speed: 35.0600, time: 4, energy_Wh: 76),
  (cut_id: 2, mch_id: 3, mode_id: 1, feed_rate: 11.5000, blade_speed: 3.7500, time: 68, energy_Wh: 43),
  (cut_id: 2, mch_id: 6, mode_id: 1, feed_rate: 11.5000, blade_speed: 3.7500, time: 68, energy_Wh: 43),
  (cut_id: 2, mch_id: 7, mode_id: 1, feed_rate: 11.5000, blade_speed: 3.7500, time: 68, energy_Wh: 43),
  (cut_id: 2, mch_id: 4, mode_id: 1, feed_rate: 11.5000, blade_speed: 3.7500, time: 68, energy_Wh: 43),
  (cut_id: 2, mch_id: 3, mode_id: 2, feed_rate: 11.5000, blade_speed: 11.2500, time: 68, energy_Wh: 45),
  (cut_id: 2, mch_id: 6, mode_id: 2, feed_rate: 11.5000, blade_speed: 11.2500, time: 68, energy_Wh: 45),
  (cut_id: 2, mch_id: 7, mode_id: 2, feed_rate: 11.5000, blade_speed: 11.2500, time: 68, energy_Wh: 45),
  (cut_id: 2, mch_id: 4, mode_id: 2, feed_rate: 11.5000, blade_speed: 11.2500, time: 68, energy_Wh: 45),
  (cut_id: 2, mch_id: 3, mode_id: 3, feed_rate: 34.5000, blade_speed: 3.7500, time: 23, energy_Wh: 94),
  (cut_id: 2, mch_id: 6, mode_id: 3, feed_rate: 34.5000, blade_speed: 3.7500, time: 23, energy_Wh: 94),
  (cut_id: 2, mch_id: 7, mode_id: 3, feed_rate: 34.5000, blade_speed: 3.7500, time: 23, energy_Wh: 94),
  (cut_id: 2, mch_id: 4, mode_id: 3, feed_rate: 34.5000, blade_speed: 3.7500, time: 23, energy_Wh: 94),
  (cut_id: 2, mch_id: 3, mode_id: 4, feed_rate: 34.5000, blade_speed: 11.2500, time: 23, energy_Wh: 69),
  (cut_id: 2, mch_id: 6, mode_id: 4, feed_rate: 34.5000, blade_speed: 11.2500, time: 23, energy_Wh: 69),
  (cut_id: 2, mch_id: 7, mode_id: 4, feed_rate: 34.5000, blade_speed: 11.2500, time: 23, energy_Wh: 69),
  (cut_id: 2, mch_id: 4, mode_id: 4, feed_rate: 34.5000, blade_speed: 11.2500, time: 23, energy_Wh: 69),
  (cut_id: 3, mch_id: 4, mode_id: 1, feed_rate: 19.2400, blade_speed: 11.7400, time: 6, energy_Wh: 27),
  (cut_id: 3, mch_id: 7, mode_id: 1, feed_rate: 19.2400, blade_speed: 11.7400, time: 6, energy_Wh: 27),
  (cut_id: 3, mch_id: 3, mode_id: 1, feed_rate: 19.2400, blade_speed: 11.7400, time: 6, energy_Wh: 27),
  (cut_id: 3, mch_id: 2, mode_id: 1, feed_rate: 19.2400, blade_speed: 11.7400, time: 6, energy_Wh: 27),
  (cut_id: 3, mch_id: 4, mode_id: 2, feed_rate: 19.2400, blade_speed: 35.2100, time: 6, energy_Wh: 25),
  (cut_id: 3, mch_id: 7, mode_id: 2, feed_rate: 19.2400, blade_speed: 35.2100, time: 6, energy_Wh: 25),
  (cut_id: 3, mch_id: 3, mode_id: 2, feed_rate: 19.2400, blade_speed: 35.2100, time: 6, energy_Wh: 25),
  (cut_id: 3, mch_id: 2, mode_id: 2, feed_rate: 19.2400, blade_speed: 35.2100, time: 6, energy_Wh: 25),
  (cut_id: 3, mch_id: 4, mode_id: 3, feed_rate: 57.7100, blade_speed: 11.7400, time: 2, energy_Wh: 57),
  (cut_id: 3, mch_id: 7, mode_id: 3, feed_rate: 57.7100, blade_speed: 11.7400, time: 2, energy_Wh: 57),
  (cut_id: 3, mch_id: 3, mode_id: 3, feed_rate: 57.7100, blade_speed: 11.7400, time: 2, energy_Wh: 57),
  (cut_id: 3, mch_id: 2, mode_id: 3, feed_rate: 57.7100, blade_speed: 11.7400, time: 2, energy_Wh: 57),
  (cut_id: 3, mch_id: 4, mode_id: 4, feed_rate: 57.7100, blade_speed: 35.2100, time: 2, energy_Wh: 51),
  (cut_id: 3, mch_id: 7, mode_id: 4, feed_rate: 57.7100, blade_speed: 35.2100, time: 2, energy_Wh: 51),
  (cut_id: 3, mch_id: 3, mode_id: 4, feed_rate: 57.7100, blade_speed: 35.2100, time: 2, energy_Wh: 51),
  (cut_id: 3, mch_id: 2, mode_id: 4, feed_rate: 57.7100, blade_speed: 35.2100, time: 2, energy_Wh: 51),
  (cut_id: 4, mch_id: 3, mode_id: 1, feed_rate: 17.5300, blade_speed: 6.9100, time: 33, energy_Wh: 72),
  (cut_id: 4, mch_id: 5, mode_id: 1, feed_rate: 17.5300, blade_speed: 6.9100, time: 33, energy_Wh: 72),
  (cut_id: 4, mch_id: 7, mode_id: 1, feed_rate: 17.5300, blade_speed: 6.9100, time: 33, energy_Wh: 72),
  (cut_id: 4, mch_id: 8, mode_id: 1, feed_rate: 17.5300, blade_speed: 6.9100, time: 33, energy_Wh: 72),
  (cut_id: 4, mch_id: 3, mode_id: 2, feed_rate: 17.5300, blade_speed: 20.7400, time: 33, energy_Wh: 70),
  (cut_id: 4, mch_id: 5, mode_id: 2, feed_rate: 17.5300, blade_speed: 20.7400, time: 33, energy_Wh: 70),
  (cut_id: 4, mch_id: 7, mode_id: 2, feed_rate: 17.5300, blade_speed: 20.7400, time: 33, energy_Wh: 70),
  (cut_id: 4, mch_id: 8, mode_id: 2, feed_rate: 17.5300, blade_speed: 20.7400, time: 33, energy_Wh: 70),
  (cut_id: 4, mch_id: 3, mode_id: 3, feed_rate: 52.5900, blade_speed: 6.9100, time: 11, energy_Wh: 131),
  (cut_id: 4, mch_id: 5, mode_id: 3, feed_rate: 52.5900, blade_speed: 6.9100, time: 11, energy_Wh: 131),
  (cut_id: 4, mch_id: 7, mode_id: 3, feed_rate: 52.5900, blade_speed: 6.9100, time: 11, energy_Wh: 131),
  (cut_id: 4, mch_id: 8, mode_id: 3, feed_rate: 52.5900, blade_speed: 6.9100, time: 11, energy_Wh: 131),
  (cut_id: 4, mch_id: 3, mode_id: 4, feed_rate: 52.5900, blade_speed: 20.7400, time: 11, energy_Wh: 119),
  (cut_id: 4, mch_id: 5, mode_id: 4, feed_rate: 52.5900, blade_speed: 20.7400, time: 11, energy_Wh: 119),
  (cut_id: 4, mch_id: 7, mode_id: 4, feed_rate: 52.5900, blade_speed: 20.7400, time: 11, energy_Wh: 119),
  (cut_id: 4, mch_id: 8, mode_id: 4, feed_rate: 52.5900, blade_speed: 20.7400, time: 11, energy_Wh: 119),
  (cut_id: 5, mch_id: 6, mode_id: 1, feed_rate: 19.2600, blade_speed: 11.2600, time: 12, energy_Wh: 30),
  (cut_id: 5, mch_id: 8, mode_id: 1, feed_rate: 19.2600, blade_speed: 11.2600, time: 12, energy_Wh: 30),
  (cut_id: 5, mch_id: 2, mode_id: 1, feed_rate: 19.2600, blade_speed: 11.2600, time: 12, energy_Wh: 30),
  (cut_id: 5, mch_id: 5, mode_id: 1, feed_rate: 19.2600, blade_speed: 11.2600, time: 12, energy_Wh: 30),
  (cut_id: 5, mch_id: 6, mode_id: 2, feed_rate: 19.2600, blade_speed: 33.7900, time: 12, energy_Wh: 53),
  (cut_id: 5, mch_id: 8, mode_id: 2, feed_rate: 19.2600, blade_speed: 33.7900, time: 12, energy_Wh: 53),
  (cut_id: 5, mch_id: 2, mode_id: 2, feed_rate: 19.2600, blade_speed: 33.7900, time: 12, energy_Wh: 53),
  (cut_id: 5, mch_id: 5, mode_id: 2, feed_rate: 19.2600, blade_speed: 33.7900, time: 12, energy_Wh: 53),
  (cut_id: 5, mch_id: 6, mode_id: 3, feed_rate: 57.7900, blade_speed: 11.2600, time: 4, energy_Wh: 59),
  (cut_id: 5, mch_id: 8, mode_id: 3, feed_rate: 57.7900, blade_speed: 11.2600, time: 4, energy_Wh: 59),
  (cut_id: 5, mch_id: 2, mode_id: 3, feed_rate: 57.7900, blade_speed: 11.2600, time: 4, energy_Wh: 59),
  (cut_id: 5, mch_id: 5, mode_id: 3, feed_rate: 57.7900, blade_speed: 11.2600, time: 4, energy_Wh: 59),
  (cut_id: 5, mch_id: 6, mode_id: 4, feed_rate: 57.7900, blade_speed: 33.7900, time: 4, energy_Wh: 76),
  (cut_id: 5, mch_id: 8, mode_id: 4, feed_rate: 57.7900, blade_speed: 33.7900, time: 4, energy_Wh: 76),
  (cut_id: 5, mch_id: 2, mode_id: 4, feed_rate: 57.7900, blade_speed: 33.7900, time: 4, energy_Wh: 76),
  (cut_id: 5, mch_id: 5, mode_id: 4, feed_rate: 57.7900, blade_speed: 33.7900, time: 4, energy_Wh: 76),
  (cut_id: 6, mch_id: 3, mode_id: 1, feed_rate: 16.8300, blade_speed: 6.6300, time: 5, energy_Wh: 39),
  (cut_id: 6, mch_id: 1, mode_id: 1, feed_rate: 16.8300, blade_speed: 6.6300, time: 5, energy_Wh: 39),
  (cut_id: 6, mch_id: 4, mode_id: 1, feed_rate: 16.8300, blade_speed: 6.6300, time: 5, energy_Wh: 39),
  (cut_id: 6, mch_id: 7, mode_id: 1, feed_rate: 16.8300, blade_speed: 6.6300, time: 5, energy_Wh: 39),
  (cut_id: 6, mch_id: 3, mode_id: 2, feed_rate: 16.8300, blade_speed: 19.9000, time: 5, energy_Wh: 47),
  (cut_id: 6, mch_id: 1, mode_id: 2, feed_rate: 16.8300, blade_speed: 19.9000, time: 5, energy_Wh: 47),
  (cut_id: 6, mch_id: 4, mode_id: 2, feed_rate: 16.8300, blade_speed: 19.9000, time: 5, energy_Wh: 47),
  (cut_id: 6, mch_id: 7, mode_id: 2, feed_rate: 16.8300, blade_speed: 19.9000, time: 5, energy_Wh: 47),
  (cut_id: 6, mch_id: 3, mode_id: 3, feed_rate: 50.4900, blade_speed: 6.6300, time: 2, energy_Wh: 53),
  (cut_id: 6, mch_id: 1, mode_id: 3, feed_rate: 50.4900, blade_speed: 6.6300, time: 2, energy_Wh: 53),
  (cut_id: 6, mch_id: 4, mode_id: 3, feed_rate: 50.4900, blade_speed: 6.6300, time: 2, energy_Wh: 53),
  (cut_id: 6, mch_id: 7, mode_id: 3, feed_rate: 50.4900, blade_speed: 6.6300, time: 2, energy_Wh: 53),
  (cut_id: 6, mch_id: 3, mode_id: 4, feed_rate: 50.4900, blade_speed: 19.9000, time: 2, energy_Wh: 62),
  (cut_id: 6, mch_id: 1, mode_id: 4, feed_rate: 50.4900, blade_speed: 19.9000, time: 2, energy_Wh: 62),
  (cut_id: 6, mch_id: 4, mode_id: 4, feed_rate: 50.4900, blade_speed: 19.9000, time: 2, energy_Wh: 62),
  (cut_id: 6, mch_id: 7, mode_id: 4, feed_rate: 50.4900, blade_speed: 19.9000, time: 2, energy_Wh: 62),
  (cut_id: 7, mch_id: 5, mode_id: 1, feed_rate: 13.0000, blade_speed: 3.5000, time: 52, energy_Wh: 56),
  (cut_id: 7, mch_id: 2, mode_id: 1, feed_rate: 13.0000, blade_speed: 3.5000, time: 52, energy_Wh: 56),
  (cut_id: 7, mch_id: 3, mode_id: 1, feed_rate: 13.0000, blade_speed: 3.5000, time: 52, energy_Wh: 56),
  (cut_id: 7, mch_id: 8, mode_id: 1, feed_rate: 13.0000, blade_speed: 3.5000, time: 52, energy_Wh: 56),
  (cut_id: 7, mch_id: 5, mode_id: 2, feed_rate: 13.0000, blade_speed: 10.5000, time: 52, energy_Wh: 41),
  (cut_id: 7, mch_id: 2, mode_id: 2, feed_rate: 13.0000, blade_speed: 10.5000, time: 52, energy_Wh: 41),
  (cut_id: 7, mch_id: 3, mode_id: 2, feed_rate: 13.0000, blade_speed: 10.5000, time: 52, energy_Wh: 41),
  (cut_id: 7, mch_id: 8, mode_id: 2, feed_rate: 13.0000, blade_speed: 10.5000, time: 52, energy_Wh: 41),
  (cut_id: 7, mch_id: 5, mode_id: 3, feed_rate: 39.0000, blade_speed: 3.5000, time: 18, energy_Wh: 75),
  (cut_id: 7, mch_id: 2, mode_id: 3, feed_rate: 39.0000, blade_speed: 3.5000, time: 18, energy_Wh: 75),
  (cut_id: 7, mch_id: 3, mode_id: 3, feed_rate: 39.0000, blade_speed: 3.5000, time: 18, energy_Wh: 75),
  (cut_id: 7, mch_id: 8, mode_id: 3, feed_rate: 39.0000, blade_speed: 3.5000, time: 18, energy_Wh: 75),
  (cut_id: 7, mch_id: 5, mode_id: 4, feed_rate: 39.0000, blade_speed: 10.5000, time: 18, energy_Wh: 62),
  (cut_id: 7, mch_id: 2, mode_id: 4, feed_rate: 39.0000, blade_speed: 10.5000, time: 18, energy_Wh: 62),
  (cut_id: 7, mch_id: 3, mode_id: 4, feed_rate: 39.0000, blade_speed: 10.5000, time: 18, energy_Wh: 62),
  (cut_id: 7, mch_id: 8, mode_id: 4, feed_rate: 39.0000, blade_speed: 10.5000, time: 18, energy_Wh: 62),
  (cut_id: 8, mch_id: 7, mode_id: 1, feed_rate: 31.5000, blade_speed: 22.5000, time: 22, energy_Wh: 83),
  (cut_id: 8, mch_id: 2, mode_id: 1, feed_rate: 31.5000, blade_speed: 22.5000, time: 22, energy_Wh: 83),
  (cut_id: 8, mch_id: 6, mode_id: 1, feed_rate: 31.5000, blade_speed: 22.5000, time: 22, energy_Wh: 83),
  (cut_id: 8, mch_id: 5, mode_id: 1, feed_rate: 31.5000, blade_speed: 22.5000, time: 22, energy_Wh: 83),
  (cut_id: 8, mch_id: 7, mode_id: 2, feed_rate: 31.5000, blade_speed: 67.5000, time: 22, energy_Wh: 65),
  (cut_id: 8, mch_id: 2, mode_id: 2, feed_rate: 31.5000, blade_speed: 67.5000, time: 22, energy_Wh: 65),
  (cut_id: 8, mch_id: 6, mode_id: 2, feed_rate: 31.5000, blade_speed: 67.5000, time: 22, energy_Wh: 65),
  (cut_id: 8, mch_id: 5, mode_id: 2, feed_rate: 31.5000, blade_speed: 67.5000, time: 22, energy_Wh: 65),
  (cut_id: 8, mch_id: 7, mode_id: 3, feed_rate: 94.5000, blade_speed: 22.5000, time: 8, energy_Wh: 164),
  (cut_id: 8, mch_id: 2, mode_id: 3, feed_rate: 94.5000, blade_speed: 22.5000, time: 8, energy_Wh: 164),
  (cut_id: 8, mch_id: 6, mode_id: 3, feed_rate: 94.5000, blade_speed: 22.5000, time: 8, energy_Wh: 164),
  (cut_id: 8, mch_id: 5, mode_id: 3, feed_rate: 94.5000, blade_speed: 22.5000, time: 8, energy_Wh: 164),
  (cut_id: 8, mch_id: 7, mode_id: 4, feed_rate: 94.5000, blade_speed: 67.5000, time: 8, energy_Wh: 97),
  (cut_id: 8, mch_id: 2, mode_id: 4, feed_rate: 94.5000, blade_speed: 67.5000, time: 8, energy_Wh: 97),
  (cut_id: 8, mch_id: 6, mode_id: 4, feed_rate: 94.5000, blade_speed: 67.5000, time: 8, energy_Wh: 97),
  (cut_id: 8, mch_id: 5, mode_id: 4, feed_rate: 94.5000, blade_speed: 67.5000, time: 8, energy_Wh: 97),
  (cut_id: 9, mch_id: 8, mode_id: 1, feed_rate: 20.0000, blade_speed: 35.0500, time: 6, energy_Wh: 33),
  (cut_id: 9, mch_id: 7, mode_id: 1, feed_rate: 20.0000, blade_speed: 35.0500, time: 6, energy_Wh: 33),
  (cut_id: 9, mch_id: 1, mode_id: 1, feed_rate: 20.0000, blade_speed: 35.0500, time: 6, energy_Wh: 33),
  (cut_id: 9, mch_id: 4, mode_id: 1, feed_rate: 20.0000, blade_speed: 35.0500, time: 6, energy_Wh: 33),
  (cut_id: 9, mch_id: 8, mode_id: 2, feed_rate: 20.0000, blade_speed: 105.1600, time: 6, energy_Wh: 21),
  (cut_id: 9, mch_id: 7, mode_id: 2, feed_rate: 20.0000, blade_speed: 105.1600, time: 6, energy_Wh: 21),
  (cut_id: 9, mch_id: 1, mode_id: 2, feed_rate: 20.0000, blade_speed: 105.1600, time: 6, energy_Wh: 21),
  (cut_id: 9, mch_id: 4, mode_id: 2, feed_rate: 20.0000, blade_speed: 105.1600, time: 6, energy_Wh: 21),
  (cut_id: 9, mch_id: 8, mode_id: 3, feed_rate: 60.0000, blade_speed: 35.0500, time: 2, energy_Wh: 69),
  (cut_id: 9, mch_id: 7, mode_id: 3, feed_rate: 60.0000, blade_speed: 35.0500, time: 2, energy_Wh: 69),
  (cut_id: 9, mch_id: 1, mode_id: 3, feed_rate: 60.0000, blade_speed: 35.0500, time: 2, energy_Wh: 69),
  (cut_id: 9, mch_id: 4, mode_id: 3, feed_rate: 60.0000, blade_speed: 35.0500, time: 2, energy_Wh: 69),
  (cut_id: 9, mch_id: 8, mode_id: 4, feed_rate: 60.0000, blade_speed: 105.1600, time: 2, energy_Wh: 50),
  (cut_id: 9, mch_id: 7, mode_id: 4, feed_rate: 60.0000, blade_speed: 105.1600, time: 2, energy_Wh: 50),
  (cut_id: 9, mch_id: 1, mode_id: 4, feed_rate: 60.0000, blade_speed: 105.1600, time: 2, energy_Wh: 50),
  (cut_id: 9, mch_id: 4, mode_id: 4, feed_rate: 60.0000, blade_speed: 105.1600, time: 2, energy_Wh: 50),
  (cut_id: 10, mch_id: 1, mode_id: 1, feed_rate: 17.2700, blade_speed: 9.7700, time: 2, energy_Wh: 27),
  (cut_id: 10, mch_id: 2, mode_id: 1, feed_rate: 17.2700, blade_speed: 9.7700, time: 2, energy_Wh: 27),
  (cut_id: 10, mch_id: 4, mode_id: 1, feed_rate: 17.2700, blade_speed: 9.7700, time: 2, energy_Wh: 27),
  (cut_id: 10, mch_id: 7, mode_id: 1, feed_rate: 17.2700, blade_speed: 9.7700, time: 2, energy_Wh: 27),
  (cut_id: 10, mch_id: 1, mode_id: 2, feed_rate: 17.2700, blade_speed: 29.3000, time: 2, energy_Wh: 18),
  (cut_id: 10, mch_id: 2, mode_id: 2, feed_rate: 17.2700, blade_speed: 29.3000, time: 2, energy_Wh: 18),
  (cut_id: 10, mch_id: 4, mode_id: 2, feed_rate: 17.2700, blade_speed: 29.3000, time: 2, energy_Wh: 18),
  (cut_id: 10, mch_id: 7, mode_id: 2, feed_rate: 17.2700, blade_speed: 29.3000, time: 2, energy_Wh: 18),
  (cut_id: 10, mch_id: 1, mode_id: 3, feed_rate: 51.8000, blade_speed: 9.7700, time: 1, energy_Wh: 46),
  (cut_id: 10, mch_id: 2, mode_id: 3, feed_rate: 51.8000, blade_speed: 9.7700, time: 1, energy_Wh: 46),
  (cut_id: 10, mch_id: 4, mode_id: 3, feed_rate: 51.8000, blade_speed: 9.7700, time: 1, energy_Wh: 46),
  (cut_id: 10, mch_id: 7, mode_id: 3, feed_rate: 51.8000, blade_speed: 9.7700, time: 1, energy_Wh: 46),
  (cut_id: 10, mch_id: 1, mode_id: 4, feed_rate: 51.8000, blade_speed: 29.3000, time: 1, energy_Wh: 38),
  (cut_id: 10, mch_id: 2, mode_id: 4, feed_rate: 51.8000, blade_speed: 29.3000, time: 1, energy_Wh: 38),
  (cut_id: 10, mch_id: 4, mode_id: 4, feed_rate: 51.8000, blade_speed: 29.3000, time: 1, energy_Wh: 38),
  (cut_id: 10, mch_id: 7, mode_id: 4, feed_rate: 51.8000, blade_speed: 29.3000, time: 1, energy_Wh: 38),
  (cut_id: 11, mch_id: 2, mode_id: 1, feed_rate: 12.5000, blade_speed: 4.8000, time: 2, energy_Wh: 20),
  (cut_id: 11, mch_id: 5, mode_id: 1, feed_rate: 12.5000, blade_speed: 4.8000, time: 2, energy_Wh: 20),
  (cut_id: 11, mch_id: 7, mode_id: 1, feed_rate: 12.5000, blade_speed: 4.8000, time: 2, energy_Wh: 20),
  (cut_id: 11, mch_id: 1, mode_id: 1, feed_rate: 12.5000, blade_speed: 4.8000, time: 2, energy_Wh: 20),
  (cut_id: 11, mch_id: 2, mode_id: 2, feed_rate: 12.5000, blade_speed: 14.4000, time: 2, energy_Wh: 39),
  (cut_id: 11, mch_id: 5, mode_id: 2, feed_rate: 12.5000, blade_speed: 14.4000, time: 2, energy_Wh: 39),
  (cut_id: 11, mch_id: 7, mode_id: 2, feed_rate: 12.5000, blade_speed: 14.4000, time: 2, energy_Wh: 39),
  (cut_id: 11, mch_id: 1, mode_id: 2, feed_rate: 12.5000, blade_speed: 14.4000, time: 2, energy_Wh: 39),
  (cut_id: 11, mch_id: 2, mode_id: 3, feed_rate: 37.5000, blade_speed: 4.8000, time: 1, energy_Wh: 25),
  (cut_id: 11, mch_id: 5, mode_id: 3, feed_rate: 37.5000, blade_speed: 4.8000, time: 1, energy_Wh: 25),
  (cut_id: 11, mch_id: 7, mode_id: 3, feed_rate: 37.5000, blade_speed: 4.8000, time: 1, energy_Wh: 25),
  (cut_id: 11, mch_id: 1, mode_id: 3, feed_rate: 37.5000, blade_speed: 4.8000, time: 1, energy_Wh: 25),
  (cut_id: 11, mch_id: 2, mode_id: 4, feed_rate: 37.5000, blade_speed: 14.4000, time: 1, energy_Wh: 54),
  (cut_id: 11, mch_id: 5, mode_id: 4, feed_rate: 37.5000, blade_speed: 14.4000, time: 1, energy_Wh: 54),
  (cut_id: 11, mch_id: 7, mode_id: 4, feed_rate: 37.5000, blade_speed: 14.4000, time: 1, energy_Wh: 54),
  (cut_id: 11, mch_id: 1, mode_id: 4, feed_rate: 37.5000, blade_speed: 14.4000, time: 1, energy_Wh: 54),
  (cut_id: 12, mch_id: 4, mode_id: 1, feed_rate: 9.7700, blade_speed: 2.4500, time: 69, energy_Wh: 51),
  (cut_id: 12, mch_id: 1, mode_id: 1, feed_rate: 9.7700, blade_speed: 2.4500, time: 69, energy_Wh: 51),
  (cut_id: 12, mch_id: 5, mode_id: 1, feed_rate: 9.7700, blade_speed: 2.4500, time: 69, energy_Wh: 51),
  (cut_id: 12, mch_id: 3, mode_id: 1, feed_rate: 9.7700, blade_speed: 2.4500, time: 69, energy_Wh: 51),
  (cut_id: 12, mch_id: 4, mode_id: 2, feed_rate: 9.7700, blade_speed: 7.3600, time: 69, energy_Wh: 70),
  (cut_id: 12, mch_id: 1, mode_id: 2, feed_rate: 9.7700, blade_speed: 7.3600, time: 69, energy_Wh: 70),
  (cut_id: 12, mch_id: 5, mode_id: 2, feed_rate: 9.7700, blade_speed: 7.3600, time: 69, energy_Wh: 70),
  (cut_id: 12, mch_id: 3, mode_id: 2, feed_rate: 9.7700, blade_speed: 7.3600, time: 69, energy_Wh: 70),
  (cut_id: 12, mch_id: 4, mode_id: 3, feed_rate: 29.3100, blade_speed: 2.4500, time: 23, energy_Wh: 100),
  (cut_id: 12, mch_id: 1, mode_id: 3, feed_rate: 29.3100, blade_speed: 2.4500, time: 23, energy_Wh: 100),
  (cut_id: 12, mch_id: 5, mode_id: 3, feed_rate: 29.3100, blade_speed: 2.4500, time: 23, energy_Wh: 100),
  (cut_id: 12, mch_id: 3, mode_id: 3, feed_rate: 29.3100, blade_speed: 2.4500, time: 23, energy_Wh: 100),
  (cut_id: 12, mch_id: 4, mode_id: 4, feed_rate: 29.3100, blade_speed: 7.3600, time: 23, energy_Wh: 126),
  (cut_id: 12, mch_id: 1, mode_id: 4, feed_rate: 29.3100, blade_speed: 7.3600, time: 23, energy_Wh: 126),
  (cut_id: 12, mch_id: 5, mode_id: 4, feed_rate: 29.3100, blade_speed: 7.3600, time: 23, energy_Wh: 126),
  (cut_id: 12, mch_id: 3, mode_id: 4, feed_rate: 29.3100, blade_speed: 7.3600, time: 23, energy_Wh: 126),
  (cut_id: 13, mch_id: 2, mode_id: 1, feed_rate: 35.0000, blade_speed: 12.0000, time: 4, energy_Wh: 49),
  (cut_id: 13, mch_id: 6, mode_id: 1, feed_rate: 35.0000, blade_speed: 12.0000, time: 4, energy_Wh: 49),
  (cut_id: 13, mch_id: 4, mode_id: 1, feed_rate: 35.0000, blade_speed: 12.0000, time: 4, energy_Wh: 49),
  (cut_id: 13, mch_id: 5, mode_id: 1, feed_rate: 35.0000, blade_speed: 12.0000, time: 4, energy_Wh: 49),
  (cut_id: 13, mch_id: 2, mode_id: 2, feed_rate: 35.0000, blade_speed: 36.0000, time: 4, energy_Wh: 42),
  (cut_id: 13, mch_id: 6, mode_id: 2, feed_rate: 35.0000, blade_speed: 36.0000, time: 4, energy_Wh: 42),
  (cut_id: 13, mch_id: 4, mode_id: 2, feed_rate: 35.0000, blade_speed: 36.0000, time: 4, energy_Wh: 42),
  (cut_id: 13, mch_id: 5, mode_id: 2, feed_rate: 35.0000, blade_speed: 36.0000, time: 4, energy_Wh: 42),
  (cut_id: 13, mch_id: 2, mode_id: 3, feed_rate: 105.0000, blade_speed: 12.0000, time: 2, energy_Wh: 128),
  (cut_id: 13, mch_id: 6, mode_id: 3, feed_rate: 105.0000, blade_speed: 12.0000, time: 2, energy_Wh: 128),
  (cut_id: 13, mch_id: 4, mode_id: 3, feed_rate: 105.0000, blade_speed: 12.0000, time: 2, energy_Wh: 128),
  (cut_id: 13, mch_id: 5, mode_id: 3, feed_rate: 105.0000, blade_speed: 12.0000, time: 2, energy_Wh: 128),
  (cut_id: 13, mch_id: 2, mode_id: 4, feed_rate: 105.0000, blade_speed: 36.0000, time: 2, energy_Wh: 109),
  (cut_id: 13, mch_id: 6, mode_id: 4, feed_rate: 105.0000, blade_speed: 36.0000, time: 2, energy_Wh: 109),
  (cut_id: 13, mch_id: 4, mode_id: 4, feed_rate: 105.0000, blade_speed: 36.0000, time: 2, energy_Wh: 109),
  (cut_id: 13, mch_id: 5, mode_id: 4, feed_rate: 105.0000, blade_speed: 36.0000, time: 2, energy_Wh: 109),
  (cut_id: 14, mch_id: 7, mode_id: 1, feed_rate: 10.5000, blade_speed: 3.0000, time: 19, energy_Wh: 25),
  (cut_id: 14, mch_id: 1, mode_id: 1, feed_rate: 10.5000, blade_speed: 3.0000, time: 19, energy_Wh: 25),
  (cut_id: 14, mch_id: 2, mode_id: 1, feed_rate: 10.5000, blade_speed: 3.0000, time: 19, energy_Wh: 25),
  (cut_id: 14, mch_id: 8, mode_id: 1, feed_rate: 10.5000, blade_speed: 3.0000, time: 19, energy_Wh: 25),
  (cut_id: 14, mch_id: 7, mode_id: 2, feed_rate: 10.5000, blade_speed: 9.0000, time: 19, energy_Wh: 30),
  (cut_id: 14, mch_id: 1, mode_id: 2, feed_rate: 10.5000, blade_speed: 9.0000, time: 19, energy_Wh: 30),
  (cut_id: 14, mch_id: 2, mode_id: 2, feed_rate: 10.5000, blade_speed: 9.0000, time: 19, energy_Wh: 30),
  (cut_id: 14, mch_id: 8, mode_id: 2, feed_rate: 10.5000, blade_speed: 9.0000, time: 19, energy_Wh: 30),
  (cut_id: 14, mch_id: 7, mode_id: 3, feed_rate: 31.5000, blade_speed: 3.0000, time: 7, energy_Wh: 49),
  (cut_id: 14, mch_id: 1, mode_id: 3, feed_rate: 31.5000, blade_speed: 3.0000, time: 7, energy_Wh: 49),
  (cut_id: 14, mch_id: 2, mode_id: 3, feed_rate: 31.5000, blade_speed: 3.0000, time: 7, energy_Wh: 49),
  (cut_id: 14, mch_id: 8, mode_id: 3, feed_rate: 31.5000, blade_speed: 3.0000, time: 7, energy_Wh: 49),
  (cut_id: 14, mch_id: 7, mode_id: 4, feed_rate: 31.5000, blade_speed: 9.0000, time: 7, energy_Wh: 49),
  (cut_id: 14, mch_id: 1, mode_id: 4, feed_rate: 31.5000, blade_speed: 9.0000, time: 7, energy_Wh: 49),
  (cut_id: 14, mch_id: 2, mode_id: 4, feed_rate: 31.5000, blade_speed: 9.0000, time: 7, energy_Wh: 49),
  (cut_id: 14, mch_id: 8, mode_id: 4, feed_rate: 31.5000, blade_speed: 9.0000, time: 7, energy_Wh: 49),
  (cut_id: 15, mch_id: 7, mode_id: 1, feed_rate: 15.5000, blade_speed: 6.0000, time: 11, energy_Wh: 36),
  (cut_id: 15, mch_id: 4, mode_id: 1, feed_rate: 15.5000, blade_speed: 6.0000, time: 11, energy_Wh: 36),
  (cut_id: 15, mch_id: 2, mode_id: 1, feed_rate: 15.5000, blade_speed: 6.0000, time: 11, energy_Wh: 36),
  (cut_id: 15, mch_id: 8, mode_id: 1, feed_rate: 15.5000, blade_speed: 6.0000, time: 11, energy_Wh: 36),
  (cut_id: 15, mch_id: 7, mode_id: 2, feed_rate: 15.5000, blade_speed: 18.0000, time: 11, energy_Wh: 32),
  (cut_id: 15, mch_id: 4, mode_id: 2, feed_rate: 15.5000, blade_speed: 18.0000, time: 11, energy_Wh: 32),
  (cut_id: 15, mch_id: 2, mode_id: 2, feed_rate: 15.5000, blade_speed: 18.0000, time: 11, energy_Wh: 32),
  (cut_id: 15, mch_id: 8, mode_id: 2, feed_rate: 15.5000, blade_speed: 18.0000, time: 11, energy_Wh: 32),
  (cut_id: 15, mch_id: 7, mode_id: 3, feed_rate: 46.5000, blade_speed: 6.0000, time: 4, energy_Wh: 68),
  (cut_id: 15, mch_id: 4, mode_id: 3, feed_rate: 46.5000, blade_speed: 6.0000, time: 4, energy_Wh: 68),
  (cut_id: 15, mch_id: 2, mode_id: 3, feed_rate: 46.5000, blade_speed: 6.0000, time: 4, energy_Wh: 68),
  (cut_id: 15, mch_id: 8, mode_id: 3, feed_rate: 46.5000, blade_speed: 6.0000, time: 4, energy_Wh: 68),
  (cut_id: 15, mch_id: 7, mode_id: 4, feed_rate: 46.5000, blade_speed: 18.0000, time: 4, energy_Wh: 40),
  (cut_id: 15, mch_id: 4, mode_id: 4, feed_rate: 46.5000, blade_speed: 18.0000, time: 4, energy_Wh: 40),
  (cut_id: 15, mch_id: 2, mode_id: 4, feed_rate: 46.5000, blade_speed: 18.0000, time: 4, energy_Wh: 40),
  (cut_id: 15, mch_id: 8, mode_id: 4, feed_rate: 46.5000, blade_speed: 18.0000, time: 4, energy_Wh: 40),
  (cut_id: 16, mch_id: 8, mode_id: 1, feed_rate: 12.5000, blade_speed: 5.7200, time: 27, energy_Wh: 40),
  (cut_id: 16, mch_id: 2, mode_id: 1, feed_rate: 12.5000, blade_speed: 5.7200, time: 27, energy_Wh: 40),
  (cut_id: 16, mch_id: 4, mode_id: 1, feed_rate: 12.5000, blade_speed: 5.7200, time: 27, energy_Wh: 40),
  (cut_id: 16, mch_id: 3, mode_id: 1, feed_rate: 12.5000, blade_speed: 5.7200, time: 27, energy_Wh: 40),
  (cut_id: 16, mch_id: 8, mode_id: 2, feed_rate: 12.5000, blade_speed: 17.1700, time: 27, energy_Wh: 32),
  (cut_id: 16, mch_id: 2, mode_id: 2, feed_rate: 12.5000, blade_speed: 17.1700, time: 27, energy_Wh: 32),
  (cut_id: 16, mch_id: 4, mode_id: 2, feed_rate: 12.5000, blade_speed: 17.1700, time: 27, energy_Wh: 32),
  (cut_id: 16, mch_id: 3, mode_id: 2, feed_rate: 12.5000, blade_speed: 17.1700, time: 27, energy_Wh: 32),
  (cut_id: 16, mch_id: 8, mode_id: 3, feed_rate: 37.5000, blade_speed: 5.7200, time: 9, energy_Wh: 57),
  (cut_id: 16, mch_id: 2, mode_id: 3, feed_rate: 37.5000, blade_speed: 5.7200, time: 9, energy_Wh: 57),
  (cut_id: 16, mch_id: 4, mode_id: 3, feed_rate: 37.5000, blade_speed: 5.7200, time: 9, energy_Wh: 57),
  (cut_id: 16, mch_id: 3, mode_id: 3, feed_rate: 37.5000, blade_speed: 5.7200, time: 9, energy_Wh: 57),
  (cut_id: 16, mch_id: 8, mode_id: 4, feed_rate: 37.5000, blade_speed: 17.1700, time: 9, energy_Wh: 50),
  (cut_id: 16, mch_id: 2, mode_id: 4, feed_rate: 37.5000, blade_speed: 17.1700, time: 9, energy_Wh: 50),
  (cut_id: 16, mch_id: 4, mode_id: 4, feed_rate: 37.5000, blade_speed: 17.1700, time: 9, energy_Wh: 50),
  (cut_id: 16, mch_id: 3, mode_id: 4, feed_rate: 37.5000, blade_speed: 17.1700, time: 9, energy_Wh: 50),
  (cut_id: 17, mch_id: 5, mode_id: 1, feed_rate: 15.5000, blade_speed: 6.0000, time: 8, energy_Wh: 43),
  (cut_id: 17, mch_id: 2, mode_id: 1, feed_rate: 15.5000, blade_speed: 6.0000, time: 8, energy_Wh: 43),
  (cut_id: 17, mch_id: 4, mode_id: 1, feed_rate: 15.5000, blade_speed: 6.0000, time: 8, energy_Wh: 43),
  (cut_id: 17, mch_id: 6, mode_id: 1, feed_rate: 15.5000, blade_speed: 6.0000, time: 8, energy_Wh: 43),
  (cut_id: 17, mch_id: 5, mode_id: 2, feed_rate: 15.5000, blade_speed: 18.0000, time: 8, energy_Wh: 39),
  (cut_id: 17, mch_id: 2, mode_id: 2, feed_rate: 15.5000, blade_speed: 18.0000, time: 8, energy_Wh: 39),
  (cut_id: 17, mch_id: 4, mode_id: 2, feed_rate: 15.5000, blade_speed: 18.0000, time: 8, energy_Wh: 39),
  (cut_id: 17, mch_id: 6, mode_id: 2, feed_rate: 15.5000, blade_speed: 18.0000, time: 8, energy_Wh: 39),
  (cut_id: 17, mch_id: 5, mode_id: 3, feed_rate: 46.5000, blade_speed: 6.0000, time: 3, energy_Wh: 73),
  (cut_id: 17, mch_id: 2, mode_id: 3, feed_rate: 46.5000, blade_speed: 6.0000, time: 3, energy_Wh: 73),
  (cut_id: 17, mch_id: 4, mode_id: 3, feed_rate: 46.5000, blade_speed: 6.0000, time: 3, energy_Wh: 73),
  (cut_id: 17, mch_id: 6, mode_id: 3, feed_rate: 46.5000, blade_speed: 6.0000, time: 3, energy_Wh: 73),
  (cut_id: 17, mch_id: 5, mode_id: 4, feed_rate: 46.5000, blade_speed: 18.0000, time: 3, energy_Wh: 62),
  (cut_id: 17, mch_id: 2, mode_id: 4, feed_rate: 46.5000, blade_speed: 18.0000, time: 3, energy_Wh: 62),
  (cut_id: 17, mch_id: 4, mode_id: 4, feed_rate: 46.5000, blade_speed: 18.0000, time: 3, energy_Wh: 62),
  (cut_id: 17, mch_id: 6, mode_id: 4, feed_rate: 46.5000, blade_speed: 18.0000, time: 3, energy_Wh: 62),
  (cut_id: 18, mch_id: 1, mode_id: 1, feed_rate: 15.3200, blade_speed: 6.8200, time: 2, energy_Wh: 32),
  (cut_id: 18, mch_id: 2, mode_id: 1, feed_rate: 15.3200, blade_speed: 6.8200, time: 2, energy_Wh: 32),
  (cut_id: 18, mch_id: 3, mode_id: 1, feed_rate: 15.3200, blade_speed: 6.8200, time: 2, energy_Wh: 32),
  (cut_id: 18, mch_id: 7, mode_id: 1, feed_rate: 15.3200, blade_speed: 6.8200, time: 2, energy_Wh: 32),
  (cut_id: 18, mch_id: 1, mode_id: 2, feed_rate: 15.3200, blade_speed: 20.4600, time: 2, energy_Wh: 28),
  (cut_id: 18, mch_id: 2, mode_id: 2, feed_rate: 15.3200, blade_speed: 20.4600, time: 2, energy_Wh: 28),
  (cut_id: 18, mch_id: 3, mode_id: 2, feed_rate: 15.3200, blade_speed: 20.4600, time: 2, energy_Wh: 28),
  (cut_id: 18, mch_id: 7, mode_id: 2, feed_rate: 15.3200, blade_speed: 20.4600, time: 2, energy_Wh: 28),
  (cut_id: 18, mch_id: 1, mode_id: 3, feed_rate: 45.9600, blade_speed: 6.8200, time: 1, energy_Wh: 45),
  (cut_id: 18, mch_id: 2, mode_id: 3, feed_rate: 45.9600, blade_speed: 6.8200, time: 1, energy_Wh: 45),
  (cut_id: 18, mch_id: 3, mode_id: 3, feed_rate: 45.9600, blade_speed: 6.8200, time: 1, energy_Wh: 45),
  (cut_id: 18, mch_id: 7, mode_id: 3, feed_rate: 45.9600, blade_speed: 6.8200, time: 1, energy_Wh: 45),
  (cut_id: 18, mch_id: 1, mode_id: 4, feed_rate: 45.9600, blade_speed: 20.4600, time: 1, energy_Wh: 59),
  (cut_id: 18, mch_id: 2, mode_id: 4, feed_rate: 45.9600, blade_speed: 20.4600, time: 1, energy_Wh: 59),
  (cut_id: 18, mch_id: 3, mode_id: 4, feed_rate: 45.9600, blade_speed: 20.4600, time: 1, energy_Wh: 59),
  (cut_id: 18, mch_id: 7, mode_id: 4, feed_rate: 45.9600, blade_speed: 20.4600, time: 1, energy_Wh: 59),
  (cut_id: 19, mch_id: 7, mode_id: 1, feed_rate: 15.7900, blade_speed: 6.2700, time: 2, energy_Wh: 28),
  (cut_id: 19, mch_id: 6, mode_id: 1, feed_rate: 15.7900, blade_speed: 6.2700, time: 2, energy_Wh: 28),
  (cut_id: 19, mch_id: 8, mode_id: 1, feed_rate: 15.7900, blade_speed: 6.2700, time: 2, energy_Wh: 28),
  (cut_id: 19, mch_id: 4, mode_id: 1, feed_rate: 15.7900, blade_speed: 6.2700, time: 2, energy_Wh: 28),
  (cut_id: 19, mch_id: 7, mode_id: 2, feed_rate: 15.7900, blade_speed: 18.8000, time: 2, energy_Wh: 23),
  (cut_id: 19, mch_id: 6, mode_id: 2, feed_rate: 15.7900, blade_speed: 18.8000, time: 2, energy_Wh: 23),
  (cut_id: 19, mch_id: 8, mode_id: 2, feed_rate: 15.7900, blade_speed: 18.8000, time: 2, energy_Wh: 23),
  (cut_id: 19, mch_id: 4, mode_id: 2, feed_rate: 15.7900, blade_speed: 18.8000, time: 2, energy_Wh: 23),
  (cut_id: 19, mch_id: 7, mode_id: 3, feed_rate: 47.3800, blade_speed: 6.2700, time: 1, energy_Wh: 43),
  (cut_id: 19, mch_id: 6, mode_id: 3, feed_rate: 47.3800, blade_speed: 6.2700, time: 1, energy_Wh: 43),
  (cut_id: 19, mch_id: 8, mode_id: 3, feed_rate: 47.3800, blade_speed: 6.2700, time: 1, energy_Wh: 43),
  (cut_id: 19, mch_id: 4, mode_id: 3, feed_rate: 47.3800, blade_speed: 6.2700, time: 1, energy_Wh: 43),
  (cut_id: 19, mch_id: 7, mode_id: 4, feed_rate: 47.3800, blade_speed: 18.8000, time: 1, energy_Wh: 48),
  (cut_id: 19, mch_id: 6, mode_id: 4, feed_rate: 47.3800, blade_speed: 18.8000, time: 1, energy_Wh: 48),
  (cut_id: 19, mch_id: 8, mode_id: 4, feed_rate: 47.3800, blade_speed: 18.8000, time: 1, energy_Wh: 48),
  (cut_id: 19, mch_id: 4, mode_id: 4, feed_rate: 47.3800, blade_speed: 18.8000, time: 1, energy_Wh: 48),
  (cut_id: 20, mch_id: 4, mode_id: 1, feed_rate: 15.5000, blade_speed: 5.5000, time: 6, energy_Wh: 23),
  (cut_id: 20, mch_id: 3, mode_id: 1, feed_rate: 15.5000, blade_speed: 5.5000, time: 6, energy_Wh: 23),
  (cut_id: 20, mch_id: 1, mode_id: 1, feed_rate: 15.5000, blade_speed: 5.5000, time: 6, energy_Wh: 23),
  (cut_id: 20, mch_id: 6, mode_id: 1, feed_rate: 15.5000, blade_speed: 5.5000, time: 6, energy_Wh: 23),
  (cut_id: 20, mch_id: 4, mode_id: 2, feed_rate: 15.5000, blade_speed: 16.5000, time: 6, energy_Wh: 29),
  (cut_id: 20, mch_id: 3, mode_id: 2, feed_rate: 15.5000, blade_speed: 16.5000, time: 6, energy_Wh: 29),
  (cut_id: 20, mch_id: 1, mode_id: 2, feed_rate: 15.5000, blade_speed: 16.5000, time: 6, energy_Wh: 29),
  (cut_id: 20, mch_id: 6, mode_id: 2, feed_rate: 15.5000, blade_speed: 16.5000, time: 6, energy_Wh: 29),
  (cut_id: 20, mch_id: 4, mode_id: 3, feed_rate: 46.5000, blade_speed: 5.5000, time: 2, energy_Wh: 37),
  (cut_id: 20, mch_id: 3, mode_id: 3, feed_rate: 46.5000, blade_speed: 5.5000, time: 2, energy_Wh: 37),
  (cut_id: 20, mch_id: 1, mode_id: 3, feed_rate: 46.5000, blade_speed: 5.5000, time: 2, energy_Wh: 37),
  (cut_id: 20, mch_id: 6, mode_id: 3, feed_rate: 46.5000, blade_speed: 5.5000, time: 2, energy_Wh: 37),
  (cut_id: 20, mch_id: 4, mode_id: 4, feed_rate: 46.5000, blade_speed: 16.5000, time: 2, energy_Wh: 46),
  (cut_id: 20, mch_id: 3, mode_id: 4, feed_rate: 46.5000, blade_speed: 16.5000, time: 2, energy_Wh: 46),
  (cut_id: 20, mch_id: 1, mode_id: 4, feed_rate: 46.5000, blade_speed: 16.5000, time: 2, energy_Wh: 46),
  (cut_id: 20, mch_id: 6, mode_id: 4, feed_rate: 46.5000, blade_speed: 16.5000, time: 2, energy_Wh: 46),
  (cut_id: 21, mch_id: 4, mode_id: 1, feed_rate: 15.0000, blade_speed: 4.7500, time: 10, energy_Wh: 22),
  (cut_id: 21, mch_id: 2, mode_id: 1, feed_rate: 15.0000, blade_speed: 4.7500, time: 10, energy_Wh: 22),
  (cut_id: 21, mch_id: 5, mode_id: 1, feed_rate: 15.0000, blade_speed: 4.7500, time: 10, energy_Wh: 22),
  (cut_id: 21, mch_id: 3, mode_id: 1, feed_rate: 15.0000, blade_speed: 4.7500, time: 10, energy_Wh: 22),
  (cut_id: 21, mch_id: 4, mode_id: 2, feed_rate: 15.0000, blade_speed: 14.2500, time: 10, energy_Wh: 45),
  (cut_id: 21, mch_id: 2, mode_id: 2, feed_rate: 15.0000, blade_speed: 14.2500, time: 10, energy_Wh: 45),
  (cut_id: 21, mch_id: 5, mode_id: 2, feed_rate: 15.0000, blade_speed: 14.2500, time: 10, energy_Wh: 45),
  (cut_id: 21, mch_id: 3, mode_id: 2, feed_rate: 15.0000, blade_speed: 14.2500, time: 10, energy_Wh: 45),
  (cut_id: 21, mch_id: 4, mode_id: 3, feed_rate: 45.0000, blade_speed: 4.7500, time: 4, energy_Wh: 39),
  (cut_id: 21, mch_id: 2, mode_id: 3, feed_rate: 45.0000, blade_speed: 4.7500, time: 4, energy_Wh: 39),
  (cut_id: 21, mch_id: 5, mode_id: 3, feed_rate: 45.0000, blade_speed: 4.7500, time: 4, energy_Wh: 39),
  (cut_id: 21, mch_id: 3, mode_id: 3, feed_rate: 45.0000, blade_speed: 4.7500, time: 4, energy_Wh: 39),
  (cut_id: 21, mch_id: 4, mode_id: 4, feed_rate: 45.0000, blade_speed: 14.2500, time: 4, energy_Wh: 73),
  (cut_id: 21, mch_id: 2, mode_id: 4, feed_rate: 45.0000, blade_speed: 14.2500, time: 4, energy_Wh: 73),
  (cut_id: 21, mch_id: 5, mode_id: 4, feed_rate: 45.0000, blade_speed: 14.2500, time: 4, energy_Wh: 73),
  (cut_id: 21, mch_id: 3, mode_id: 4, feed_rate: 45.0000, blade_speed: 14.2500, time: 4, energy_Wh: 73)
];

% --- operations
% fields: ('op_id', 'cut_id', 'job_id', 'pos_in_job', 'op_type')
operations = [
  (op_id: 1, cut_id: 1, job_id: 1, pos_in_job: 1, op_type: 0),
  (op_id: 2, cut_id: 1, job_id: 1, pos_in_job: 2, op_type: 1),
  (op_id: 3, cut_id: 1, job_id: 1, pos_in_job: 3, op_type: 2),
  (op_id: 4, cut_id: 2, job_id: 1, pos_in_job: 4, op_type: 0),
  (op_id: 5, cut_id: 2, job_id: 1, pos_in_job: 5, op_type: 1),
  (op_id: 6, cut_id: 2, job_id: 1, pos_in_job: 6, op_type: 2),
  (op_id: 7, cut_id: 3, job_id: 1, pos_in_job: 7, op_type: 0),
  (op_id: 8, cut_id: 3, job_id: 1, pos_in_job: 8, op_type: 1),
  (op_id: 9, cut_id: 3, job_id: 1, pos_in_job: 9, op_type: 2),
  (op_id: 10, cut_id: 4, job_id: 2, pos_in_job: 1, op_type: 0),
  (op_id: 11, cut_id: 4, job_id: 2, pos_in_job: 2, op_type: 1),
  (op_id: 12, cut_id: 4, job_id: 2, pos_in_job: 3, op_type: 2),
  (op_id: 13, cut_id: 5, job_id: 2, pos_in_job: 4, op_type: 0),
  (op_id: 14, cut_id: 5, job_id: 2, pos_in_job: 5, op_type: 1),
  (op_id: 15, cut_id: 5, job_id: 2, pos_in_job: 6, op_type: 2),
  (op_id: 16, cut_id: 6, job_id: 3, pos_in_job: 1, op_type: 0),
  (op_id: 17, cut_id: 6, job_id: 3, pos_in_job: 2, op_type: 1),
  (op_id: 18, cut_id: 6, job_id: 3, pos_in_job: 3, op_type: 2),
  (op_id: 19, cut_id: 7, job_id: 3, pos_in_job: 4, op_type: 0),
  (op_id: 20, cut_id: 7, job_id: 3, pos_in_job: 5, op_type: 1),
  (op_id: 21, cut_id: 7, job_id: 3, pos_in_job: 6, op_type: 2),
  (op_id: 22, cut_id: 8, job_id: 3, pos_in_job: 7, op_type: 0),
  (op_id: 23, cut_id: 8, job_id: 3, pos_in_job: 8, op_type: 1),
  (op_id: 24, cut_id: 8, job_id: 3, pos_in_job: 9, op_type: 2),
  (op_id: 25, cut_id: 9, job_id: 4, pos_in_job: 1, op_type: 0),
  (op_id: 26, cut_id: 9, job_id: 4, pos_in_job: 2, op_type: 1),
  (op_id: 27, cut_id: 9, job_id: 4, pos_in_job: 3, op_type: 2),
  (op_id: 28, cut_id: 10, job_id: 5, pos_in_job: 1, op_type: 0),
  (op_id: 29, cut_id: 10, job_id: 5, pos_in_job: 2, op_type: 1),
  (op_id: 30, cut_id: 10, job_id: 5, pos_in_job: 3, op_type: 2),
  (op_id: 31, cut_id: 11, job_id: 5, pos_in_job: 4, op_type: 0),
  (op_id: 32, cut_id: 11, job_id: 5, pos_in_job: 5, op_type: 1),
  (op_id: 33, cut_id: 11, job_id: 5, pos_in_job: 6, op_type: 2),
  (op_id: 34, cut_id: 12, job_id: 6, pos_in_job: 1, op_type: 0),
  (op_id: 35, cut_id: 12, job_id: 6, pos_in_job: 2, op_type: 1),
  (op_id: 36, cut_id: 12, job_id: 6, pos_in_job: 3, op_type: 2),
  (op_id: 37, cut_id: 13, job_id: 6, pos_in_job: 4, op_type: 0),
  (op_id: 38, cut_id: 13, job_id: 6, pos_in_job: 5, op_type: 1),
  (op_id: 39, cut_id: 13, job_id: 6, pos_in_job: 6, op_type: 2),
  (op_id: 40, cut_id: 14, job_id: 7, pos_in_job: 1, op_type: 0),
  (op_id: 41, cut_id: 14, job_id: 7, pos_in_job: 2, op_type: 1),
  (op_id: 42, cut_id: 14, job_id: 7, pos_in_job: 3, op_type: 2),
  (op_id: 43, cut_id: 15, job_id: 8, pos_in_job: 1, op_type: 0),
  (op_id: 44, cut_id: 15, job_id: 8, pos_in_job: 2, op_type: 1),
  (op_id: 45, cut_id: 15, job_id: 8, pos_in_job: 3, op_type: 2),
  (op_id: 46, cut_id: 16, job_id: 8, pos_in_job: 4, op_type: 0),
  (op_id: 47, cut_id: 16, job_id: 8, pos_in_job: 5, op_type: 1),
  (op_id: 48, cut_id: 16, job_id: 8, pos_in_job: 6, op_type: 2),
  (op_id: 49, cut_id: 17, job_id: 9, pos_in_job: 1, op_type: 0),
  (op_id: 50, cut_id: 17, job_id: 9, pos_in_job: 2, op_type: 1),
  (op_id: 51, cut_id: 17, job_id: 9, pos_in_job: 3, op_type: 2),
  (op_id: 52, cut_id: 18, job_id: 9, pos_in_job: 4, op_type: 0),
  (op_id: 53, cut_id: 18, job_id: 9, pos_in_job: 5, op_type: 1),
  (op_id: 54, cut_id: 18, job_id: 9, pos_in_job: 6, op_type: 2),
  (op_id: 55, cut_id: 19, job_id: 9, pos_in_job: 7, op_type: 0),
  (op_id: 56, cut_id: 19, job_id: 9, pos_in_job: 8, op_type: 1),
  (op_id: 57, cut_id: 19, job_id: 9, pos_in_job: 9, op_type: 2),
  (op_id: 58, cut_id: 20, job_id: 10, pos_in_job: 1, op_type: 0),
  (op_id: 59, cut_id: 20, job_id: 10, pos_in_job: 2, op_type: 1),
  (op_id: 60, cut_id: 20, job_id: 10, pos_in_job: 3, op_type: 2),
  (op_id: 61, cut_id: 21, job_id: 10, pos_in_job: 4, op_type: 0),
  (op_id: 62, cut_id: 21, job_id: 10, pos_in_job: 5, op_type: 1),
  (op_id: 63, cut_id: 21, job_id: 10, pos_in_job: 6, op_type: 2)
];

% --- setup_times
% fields: ('op_id', 'time')
setup_times = [
  (op_id: 1, time: 8),
  (op_id: 3, time: 8),
  (op_id: 4, time: 8),
  (op_id: 6, time: 8),
  (op_id: 7, time: 8),
  (op_id: 9, time: 8),
  (op_id: 10, time: 8),
  (op_id: 12, time: 8),
  (op_id: 13, time: 8),
  (op_id: 15, time: 8),
  (op_id: 16, time: 8),
  (op_id: 18, time: 8),
  (op_id: 19, time: 8),
  (op_id: 21, time: 8),
  (op_id: 22, time: 8),
  (op_id: 24, time: 8),
  (op_id: 25, time: 8),
  (op_id: 27, time: 8),
  (op_id: 28, time: 4),
  (op_id: 30, time: 4),
  (op_id: 31, time: 4),
  (op_id: 33, time: 4),
  (op_id: 34, time: 8),
  (op_id: 36, time: 8),
  (op_id: 37, time: 8),
  (op_id: 39, time: 8),
  (op_id: 40, time: 8),
  (op_id: 42, time: 8),
  (op_id: 43, time: 8),
  (op_id: 45, time: 8),
  (op_id: 46, time: 8),
  (op_id: 48, time: 8),
  (op_id: 49, time: 8),
  (op_id: 51, time: 8),
  (op_id: 52, time: 8),
  (op_id: 54, time: 8),
  (op_id: 55, time: 4),
  (op_id: 57, time: 4),
  (op_id: 58, time: 8),
  (op_id: 60, time: 8),
  (op_id: 61, time: 8),
  (op_id: 63, time: 8)
];

% --- transport_times
% fields: ('op_id_from', 'op_id_to', 'time')
transport_times = [
  (op_id_from: 3, op_id_to: 4, time: 10),
  (op_id_from: 6, op_id_to: 7, time: 10),
  (op_id_from: 12, op_id_to: 13, time: 10),
  (op_id_from: 18, op_id_to: 19, time: 10),
  (op_id_from: 21, op_id_to: 22, time: 10),
  (op_id_from: 30, op_id_to: 31, time: 2),
  (op_id_from: 36, op_id_to: 37, time: 10),
  (op_id_from: 45, op_id_to: 46, time: 10),
  (op_id_from: 51, op_id_to: 52, time: 10),
  (op_id_from: 54, op_id_to: 55, time: 5),
  (op_id_from: 60, op_id_to: 61, time: 10)
];

% --- workers_machines
% fields: ('worker_id', 'machine_id')
workers_machines = [
  (worker_id: 1, machine_id: 1),
  (worker_id: 2, machine_id: 2),
  (worker_id: 1, machine_id: 3),
  (worker_id: 2, machine_id: 4),
  (worker_id: 1, machine_id: 5),
  (worker_id: 2, machine_id: 6),
  (worker_id: 1, machine_id: 7),
  (worker_id: 2, machine_id: 8)
];
