% Copyright 2026 Siemens AG Österreich and Benedetta Strizzolo and Francesco Zuccato and Thomas Sergeys
%Permission is hereby granted, free of charge, to any person obtaining a copy of this software and associated documentation files (the “Software”), to deal in the Software without restriction, including without limitation the rights to use, copy, modify, merge, publish, distribute, sublicense, and/or sell copies of the Software, and to permit persons to whom the Software is furnished to do so, subject to the following conditions:
%The above copyright notice and this permission notice shall be included in all copies or substantial portions of the Software.
%THE SOFTWARE IS PROVIDED “AS IS”, WITHOUT WARRANTY OF ANY KIND, EXPRESS OR IMPLIED, INCLUDING BUT NOT LIMITED TO THE WARRANTIES OF MERCHANTABILITY, FITNESS FOR A PARTICULAR PURPOSE AND NONINFRINGEMENT. IN NO EVENT SHALL THE AUTHORS OR COPYRIGHT HOLDERS BE LIABLE FOR ANY CLAIM, DAMAGES OR OTHER LIABILITY, WHETHER IN AN ACTION OF CONTRACT, TORT OR OTHERWISE, ARISING FROM, OUT OF OR IN CONNECTION WITH THE SOFTWARE OR THE USE OR OTHER DEALINGS IN THE SOFTWARE.

% --- generation parameters
% instance_seed = 22;
% num_jobs = 50;
% num_machines = 3;
% num_modes_per_cut = (5, 5);
% num_workers = 1;
% num_workers_per_machine = 1;

% --- statistics
num_cuts = 100;
num_modes = 7500;
num_operations = 300;
num_st = 200;
num_tt = 50;

% --- parameters
instance_seed = 22;
num_jobs = 50;
num_machines = 3;
num_workers = 1;
num_workers_per_machine = 1;

% --- domains
max_auxiliar_energy_Wh = 50600;
max_horizon = 3036;
max_idle_energy_Wh = 84857;
max_processing_energy_Wh = 9778;
max_total_energy_Wh = 145235;
max_total_tardiness = 54379;
min_auxiliar_energy_Wh = 9783;
min_horizon = 587;
min_idle_energy_Wh = 0;
min_processing_energy_Wh = 2898;
min_total_energy_Wh = 12681;
min_total_tardiness = 0;

% --- solving_constants
factory_power_auxiliar_equipments_W = 1000;

% --- cuts
% fields: ('cut_id', 'cut_depth_mm', 'cut_channel_mm', 'in_weight_kg')
cuts = [
  (cut_id: 1, cut_depth_mm: 20, cut_channel_mm: 102.4100, in_weight_kg: 3.2200),
  (cut_id: 2, cut_depth_mm: 102.4100, cut_channel_mm: 176.5500, in_weight_kg: 2.8400),
  (cut_id: 3, cut_depth_mm: 176.5500, cut_channel_mm: 102.4100, in_weight_kg: 1.0100),
  (cut_id: 4, cut_depth_mm: 106.5100, cut_channel_mm: 26.0400, in_weight_kg: 3.4100),
  (cut_id: 5, cut_depth_mm: 106.5100, cut_channel_mm: 40.7300, in_weight_kg: 0.8900),
  (cut_id: 6, cut_depth_mm: 219.6300, cut_channel_mm: 291.7400, in_weight_kg: 52.0200),
  (cut_id: 7, cut_depth_mm: 291.7400, cut_channel_mm: 34.9900, in_weight_kg: 17.6000),
  (cut_id: 8, cut_depth_mm: 34.9900, cut_channel_mm: 125.1000, in_weight_kg: 10.0200),
  (cut_id: 9, cut_depth_mm: 20, cut_channel_mm: 152.8800, in_weight_kg: 2.3400),
  (cut_id: 10, cut_depth_mm: 214.5900, cut_channel_mm: 91.1100, in_weight_kg: 43.1600),
  (cut_id: 11, cut_depth_mm: 214.5900, cut_channel_mm: 165.5100, in_weight_kg: 25.4000),
  (cut_id: 12, cut_depth_mm: 143.2500, cut_channel_mm: 84.5100, in_weight_kg: 9.3500),
  (cut_id: 13, cut_depth_mm: 84.5100, cut_channel_mm: 14.8700, in_weight_kg: 1.4100),
  (cut_id: 14, cut_depth_mm: 149.8800, cut_channel_mm: 146.5400, in_weight_kg: 109.7000),
  (cut_id: 15, cut_depth_mm: 234.4600, cut_channel_mm: 146.5400, in_weight_kg: 40.4200),
  (cut_id: 16, cut_depth_mm: 178.6800, cut_channel_mm: 306.6200, in_weight_kg: 100.7400),
  (cut_id: 17, cut_depth_mm: 178.6800, cut_channel_mm: 107.1800, in_weight_kg: 46.1000),
  (cut_id: 18, cut_depth_mm: 221.3400, cut_channel_mm: 48.5100, in_weight_kg: 55.7800),
  (cut_id: 19, cut_depth_mm: 20, cut_channel_mm: 184.2000, in_weight_kg: 3.2900),
  (cut_id: 20, cut_depth_mm: 46.9500, cut_channel_mm: 20, in_weight_kg: 1.3600),
  (cut_id: 21, cut_depth_mm: 100.3100, cut_channel_mm: 46.9500, in_weight_kg: 0.7400),
  (cut_id: 22, cut_depth_mm: 149.9500, cut_channel_mm: 375.6100, in_weight_kg: 44.5500),
  (cut_id: 23, cut_depth_mm: 100.6300, cut_channel_mm: 584.2800, in_weight_kg: 94.1000),
  (cut_id: 24, cut_depth_mm: 584.2800, cut_channel_mm: 100.6300, in_weight_kg: 54.0900),
  (cut_id: 25, cut_depth_mm: 252.1600, cut_channel_mm: 961.7800, in_weight_kg: 226.1200),
  (cut_id: 26, cut_depth_mm: 114.3700, cut_channel_mm: 133.9700, in_weight_kg: 2.4100),
  (cut_id: 27, cut_depth_mm: 95.2900, cut_channel_mm: 60.8300, in_weight_kg: 25.1000),
  (cut_id: 28, cut_depth_mm: 279.5700, cut_channel_mm: 60.8300, in_weight_kg: 12.7200),
  (cut_id: 29, cut_depth_mm: 60.8300, cut_channel_mm: 30.3900, in_weight_kg: 4.0600),
  (cut_id: 30, cut_depth_mm: 30.3900, cut_channel_mm: 60.8300, in_weight_kg: 3.7700),
  (cut_id: 31, cut_depth_mm: 90.4400, cut_channel_mm: 194.2100, in_weight_kg: 93.8300),
  (cut_id: 32, cut_depth_mm: 490.2700, cut_channel_mm: 44.7600, in_weight_kg: 30.0000),
  (cut_id: 33, cut_depth_mm: 18.0500, cut_channel_mm: 490.2700, in_weight_kg: 3.1100),
  (cut_id: 34, cut_depth_mm: 974.8100, cut_channel_mm: 202.9400, in_weight_kg: 162.7500),
  (cut_id: 35, cut_depth_mm: 85.9700, cut_channel_mm: 974.8100, in_weight_kg: 133.5100),
  (cut_id: 36, cut_depth_mm: 217.4600, cut_channel_mm: 20, in_weight_kg: 1.3400),
  (cut_id: 37, cut_depth_mm: 21.0800, cut_channel_mm: 20, in_weight_kg: 0.7200),
  (cut_id: 38, cut_depth_mm: 208.5600, cut_channel_mm: 141.8500, in_weight_kg: 27.9600),
  (cut_id: 39, cut_depth_mm: 115.6000, cut_channel_mm: 141.8500, in_weight_kg: 26.8500),
  (cut_id: 40, cut_depth_mm: 59.8400, cut_channel_mm: 943.1100, in_weight_kg: 100.2700),
  (cut_id: 41, cut_depth_mm: 943.1100, cut_channel_mm: 37.5100, in_weight_kg: 16.6200),
  (cut_id: 42, cut_depth_mm: 33.1800, cut_channel_mm: 37.5100, in_weight_kg: 9.2100),
  (cut_id: 43, cut_depth_mm: 37.5100, cut_channel_mm: 571.1900, in_weight_kg: 5.5800),
  (cut_id: 44, cut_depth_mm: 150.8800, cut_channel_mm: 119.3800, in_weight_kg: 179.1900),
  (cut_id: 45, cut_depth_mm: 1167.3800, cut_channel_mm: 119.3800, in_weight_kg: 165.0600),
  (cut_id: 46, cut_depth_mm: 205.1400, cut_channel_mm: 58.8500, in_weight_kg: 8.0300),
  (cut_id: 47, cut_depth_mm: 219.0600, cut_channel_mm: 135.2800, in_weight_kg: 4.6500),
  (cut_id: 48, cut_depth_mm: 627.4400, cut_channel_mm: 315.1300, in_weight_kg: 60.0700),
  (cut_id: 49, cut_depth_mm: 627.4400, cut_channel_mm: 315.1300, in_weight_kg: 8.9300),
  (cut_id: 50, cut_depth_mm: 863.9500, cut_channel_mm: 261.1800, in_weight_kg: 214.1900),
  (cut_id: 51, cut_depth_mm: 863.9500, cut_channel_mm: 261.1800, in_weight_kg: 75.2600),
  (cut_id: 52, cut_depth_mm: 225.9100, cut_channel_mm: 51.5600, in_weight_kg: 49.4500),
  (cut_id: 53, cut_depth_mm: 260.8900, cut_channel_mm: 51.5600, in_weight_kg: 23.8500),
  (cut_id: 54, cut_depth_mm: 609.7400, cut_channel_mm: 106.0500, in_weight_kg: 84.6900),
  (cut_id: 55, cut_depth_mm: 106.0500, cut_channel_mm: 164.0100, in_weight_kg: 83.2500),
  (cut_id: 56, cut_depth_mm: 117.8300, cut_channel_mm: 106.0500, in_weight_kg: 16.0900),
  (cut_id: 57, cut_depth_mm: 269.6100, cut_channel_mm: 20, in_weight_kg: 5.9400),
  (cut_id: 58, cut_depth_mm: 269.6100, cut_channel_mm: 20, in_weight_kg: 0.8500),
  (cut_id: 59, cut_depth_mm: 20, cut_channel_mm: 77.9300, in_weight_kg: 0.2400),
  (cut_id: 60, cut_depth_mm: 20, cut_channel_mm: 77.9300, in_weight_kg: 0.1100),
  (cut_id: 61, cut_depth_mm: 77.9300, cut_channel_mm: 2.6200, in_weight_kg: 0.0300),
  (cut_id: 62, cut_depth_mm: 333.7700, cut_channel_mm: 143.5600, in_weight_kg: 70.1600),
  (cut_id: 63, cut_depth_mm: 333.7700, cut_channel_mm: 143.5600, in_weight_kg: 17.9300),
  (cut_id: 64, cut_depth_mm: 167.1900, cut_channel_mm: 123.5700, in_weight_kg: 63.6400),
  (cut_id: 65, cut_depth_mm: 123.5700, cut_channel_mm: 167.1900, in_weight_kg: 37.6600),
  (cut_id: 66, cut_depth_mm: 20, cut_channel_mm: 125.0300, in_weight_kg: 2.8600),
  (cut_id: 67, cut_depth_mm: 147.2700, cut_channel_mm: 91.0300, in_weight_kg: 57.2900),
  (cut_id: 68, cut_depth_mm: 147.2700, cut_channel_mm: 91.0300, in_weight_kg: 29.8100),
  (cut_id: 69, cut_depth_mm: 91.0300, cut_channel_mm: 152.9700, in_weight_kg: 16.1000),
  (cut_id: 70, cut_depth_mm: 139.6200, cut_channel_mm: 934.9300, in_weight_kg: 20.4900),
  (cut_id: 71, cut_depth_mm: 934.9300, cut_channel_mm: 9.0600, in_weight_kg: 9.2900),
  (cut_id: 72, cut_depth_mm: 112.5700, cut_channel_mm: 205.0900, in_weight_kg: 103.9200),
  (cut_id: 73, cut_depth_mm: 46.7500, cut_channel_mm: 201.4600, in_weight_kg: 25.2900),
  (cut_id: 74, cut_depth_mm: 250.4300, cut_channel_mm: 205.3800, in_weight_kg: 22.9100),
  (cut_id: 75, cut_depth_mm: 205.3800, cut_channel_mm: 42.1900, in_weight_kg: 17.0300),
  (cut_id: 76, cut_depth_mm: 205.3800, cut_channel_mm: 22.2800, in_weight_kg: 1.5200),
  (cut_id: 77, cut_depth_mm: 61.3700, cut_channel_mm: 155.2700, in_weight_kg: 39.1400),
  (cut_id: 78, cut_depth_mm: 244.0000, cut_channel_mm: 1040.9200, in_weight_kg: 115.2500),
  (cut_id: 79, cut_depth_mm: 1040.9200, cut_channel_mm: 22.1900, in_weight_kg: 44.2400),
  (cut_id: 80, cut_depth_mm: 150.4500, cut_channel_mm: 937.6100, in_weight_kg: 152.2000),
  (cut_id: 81, cut_depth_mm: 20, cut_channel_mm: 20, in_weight_kg: 0.9000),
  (cut_id: 82, cut_depth_mm: 20, cut_channel_mm: 20, in_weight_kg: 0.3900),
  (cut_id: 83, cut_depth_mm: 116.1500, cut_channel_mm: 121.8100, in_weight_kg: 66.8200),
  (cut_id: 84, cut_depth_mm: 116.1500, cut_channel_mm: 202.9000, in_weight_kg: 22.5300),
  (cut_id: 85, cut_depth_mm: 69.3000, cut_channel_mm: 230.9000, in_weight_kg: 2.5100),
  (cut_id: 86, cut_depth_mm: 111.3100, cut_channel_mm: 150.0600, in_weight_kg: 13.9300),
  (cut_id: 87, cut_depth_mm: 111.3100, cut_channel_mm: 150.0600, in_weight_kg: 5.7800),
  (cut_id: 88, cut_depth_mm: 22.0800, cut_channel_mm: 150.0600, in_weight_kg: 2.9000),
  (cut_id: 89, cut_depth_mm: 26.0400, cut_channel_mm: 150.0600, in_weight_kg: 0.6800),
  (cut_id: 90, cut_depth_mm: 248.9600, cut_channel_mm: 185.4900, in_weight_kg: 13.9700),
  (cut_id: 91, cut_depth_mm: 248.9600, cut_channel_mm: 8.7500, in_weight_kg: 3.1700),
  (cut_id: 92, cut_depth_mm: 20, cut_channel_mm: 152.4300, in_weight_kg: 8.9400),
  (cut_id: 93, cut_depth_mm: 20, cut_channel_mm: 152.4300, in_weight_kg: 8.5100),
  (cut_id: 94, cut_depth_mm: 324.2700, cut_channel_mm: 20, in_weight_kg: 7.7600),
  (cut_id: 95, cut_depth_mm: 132.4100, cut_channel_mm: 20, in_weight_kg: 6.7400),
  (cut_id: 96, cut_depth_mm: 132.4100, cut_channel_mm: 20, in_weight_kg: 2.2700),
  (cut_id: 97, cut_depth_mm: 124.7400, cut_channel_mm: 773.8500, in_weight_kg: 15.1600),
  (cut_id: 98, cut_depth_mm: 401.7500, cut_channel_mm: 112.1500, in_weight_kg: 7.0700),
  (cut_id: 99, cut_depth_mm: 112.1500, cut_channel_mm: 401.7500, in_weight_kg: 2.1400),
  (cut_id: 100, cut_depth_mm: 617.4500, cut_channel_mm: 143.8800, in_weight_kg: 136.0400)
];

% --- jobs
% fields: ('job_id', 'deadline')
jobs = [
  (job_id: 1, deadline: 240),
  (job_id: 2, deadline: 120),
  (job_id: 3, deadline: 120),
  (job_id: 4, deadline: 120),
  (job_id: 5, deadline: 360),
  (job_id: 6, deadline: 120),
  (job_id: 7, deadline: 360),
  (job_id: 8, deadline: 360),
  (job_id: 9, deadline: 120),
  (job_id: 10, deadline: 360),
  (job_id: 11, deadline: 600),
  (job_id: 12, deadline: 120),
  (job_id: 13, deadline: 120),
  (job_id: 14, deadline: 240),
  (job_id: 15, deadline: 360),
  (job_id: 16, deadline: 360),
  (job_id: 17, deadline: 240),
  (job_id: 18, deadline: 240),
  (job_id: 19, deadline: 840),
  (job_id: 20, deadline: 120),
  (job_id: 21, deadline: 120),
  (job_id: 22, deadline: 120),
  (job_id: 23, deadline: 240),
  (job_id: 24, deadline: 120),
  (job_id: 25, deadline: 120),
  (job_id: 26, deadline: 720),
  (job_id: 27, deadline: 120),
  (job_id: 28, deadline: 120),
  (job_id: 29, deadline: 120),
  (job_id: 30, deadline: 120),
  (job_id: 31, deadline: 120),
  (job_id: 32, deadline: 240),
  (job_id: 33, deadline: 240),
  (job_id: 34, deadline: 120),
  (job_id: 35, deadline: 120),
  (job_id: 36, deadline: 240),
  (job_id: 37, deadline: 240),
  (job_id: 38, deadline: 120),
  (job_id: 39, deadline: 240),
  (job_id: 40, deadline: 240),
  (job_id: 41, deadline: 360),
  (job_id: 42, deadline: 360),
  (job_id: 43, deadline: 240),
  (job_id: 44, deadline: 240),
  (job_id: 45, deadline: 240),
  (job_id: 46, deadline: 480),
  (job_id: 47, deadline: 120),
  (job_id: 48, deadline: 240),
  (job_id: 49, deadline: 360),
  (job_id: 50, deadline: 360)
];

% --- machines
% fields: ('mch_id', 'mch_type', 'idle_power_W')
machines = [
  (mch_id: 1, mch_type: "basic", idle_power_W: 582),
  (mch_id: 2, mch_type: "with-feeder", idle_power_W: 547),
  (mch_id: 3, mch_type: "with-feeder", idle_power_W: 548)
];

% --- modes
% fields: ('cut_id', 'mch_id', 'mode_id', 'feed_rate', 'blade_speed', 'time', 'energy_Wh')
modes = [
  (cut_id: 1, mch_id: 1, mode_id: 1, feed_rate: 15.6300, blade_speed: 7.1300, time: 2, energy_Wh: 31),
  (cut_id: 1, mch_id: 3, mode_id: 1, feed_rate: 15.6300, blade_speed: 7.1300, time: 2, energy_Wh: 31),
  (cut_id: 1, mch_id: 2, mode_id: 1, feed_rate: 15.6300, blade_speed: 7.1300, time: 2, energy_Wh: 31),
  (cut_id: 1, mch_id: 1, mode_id: 2, feed_rate: 15.6300, blade_speed: 10.6900, time: 2, energy_Wh: 15),
  (cut_id: 1, mch_id: 3, mode_id: 2, feed_rate: 15.6300, blade_speed: 10.6900, time: 2, energy_Wh: 15),
  (cut_id: 1, mch_id: 2, mode_id: 2, feed_rate: 15.6300, blade_speed: 10.6900, time: 2, energy_Wh: 15),
  (cut_id: 1, mch_id: 1, mode_id: 3, feed_rate: 15.6300, blade_speed: 14.2500, time: 2, energy_Wh: 33),
  (cut_id: 1, mch_id: 3, mode_id: 3, feed_rate: 15.6300, blade_speed: 14.2500, time: 2, energy_Wh: 33),
  (cut_id: 1, mch_id: 2, mode_id: 3, feed_rate: 15.6300, blade_speed: 14.2500, time: 2, energy_Wh: 33),
  (cut_id: 1, mch_id: 1, mode_id: 4, feed_rate: 15.6300, blade_speed: 17.8200, time: 2, energy_Wh: 17),
  (cut_id: 1, mch_id: 3, mode_id: 4, feed_rate: 15.6300, blade_speed: 17.8200, time: 2, energy_Wh: 17),
  (cut_id: 1, mch_id: 2, mode_id: 4, feed_rate: 15.6300, blade_speed: 17.8200, time: 2, energy_Wh: 17),
  (cut_id: 1, mch_id: 1, mode_id: 5, feed_rate: 15.6300, blade_speed: 21.3800, time: 2, energy_Wh: 28),
  (cut_id: 1, mch_id: 3, mode_id: 5, feed_rate: 15.6300, blade_speed: 21.3800, time: 2, energy_Wh: 28),
  (cut_id: 1, mch_id: 2, mode_id: 5, feed_rate: 15.6300, blade_speed: 21.3800, time: 2, energy_Wh: 28),
  (cut_id: 1, mch_id: 1, mode_id: 6, feed_rate: 23.4400, blade_speed: 7.1300, time: 1, energy_Wh: 29),
  (cut_id: 1, mch_id: 3, mode_id: 6, feed_rate: 23.4400, blade_speed: 7.1300, time: 1, energy_Wh: 29),
  (cut_id: 1, mch_id: 2, mode_id: 6, feed_rate: 23.4400, blade_speed: 7.1300, time: 1, energy_Wh: 29),
  (cut_id: 1, mch_id: 1, mode_id: 7, feed_rate: 23.4400, blade_speed: 10.6900, time: 1, energy_Wh: 18),
  (cut_id: 1, mch_id: 3, mode_id: 7, feed_rate: 23.4400, blade_speed: 10.6900, time: 1, energy_Wh: 18),
  (cut_id: 1, mch_id: 2, mode_id: 7, feed_rate: 23.4400, blade_speed: 10.6900, time: 1, energy_Wh: 18),
  (cut_id: 1, mch_id: 1, mode_id: 8, feed_rate: 23.4400, blade_speed: 14.2500, time: 1, energy_Wh: 31),
  (cut_id: 1, mch_id: 3, mode_id: 8, feed_rate: 23.4400, blade_speed: 14.2500, time: 1, energy_Wh: 31),
  (cut_id: 1, mch_id: 2, mode_id: 8, feed_rate: 23.4400, blade_speed: 14.2500, time: 1, energy_Wh: 31),
  (cut_id: 1, mch_id: 1, mode_id: 9, feed_rate: 23.4400, blade_speed: 17.8200, time: 1, energy_Wh: 22),
  (cut_id: 1, mch_id: 3, mode_id: 9, feed_rate: 23.4400, blade_speed: 17.8200, time: 1, energy_Wh: 22),
  (cut_id: 1, mch_id: 2, mode_id: 9, feed_rate: 23.4400, blade_speed: 17.8200, time: 1, energy_Wh: 22),
  (cut_id: 1, mch_id: 1, mode_id: 10, feed_rate: 23.4400, blade_speed: 21.3800, time: 1, energy_Wh: 30),
  (cut_id: 1, mch_id: 3, mode_id: 10, feed_rate: 23.4400, blade_speed: 21.3800, time: 1, energy_Wh: 30),
  (cut_id: 1, mch_id: 2, mode_id: 10, feed_rate: 23.4400, blade_speed: 21.3800, time: 1, energy_Wh: 30),
  (cut_id: 1, mch_id: 1, mode_id: 11, feed_rate: 31.2500, blade_speed: 7.1300, time: 1, energy_Wh: 42),
  (cut_id: 1, mch_id: 3, mode_id: 11, feed_rate: 31.2500, blade_speed: 7.1300, time: 1, energy_Wh: 42),
  (cut_id: 1, mch_id: 2, mode_id: 11, feed_rate: 31.2500, blade_speed: 7.1300, time: 1, energy_Wh: 42),
  (cut_id: 1, mch_id: 1, mode_id: 12, feed_rate: 31.2500, blade_speed: 10.6900, time: 1, energy_Wh: 24),
  (cut_id: 1, mch_id: 3, mode_id: 12, feed_rate: 31.2500, blade_speed: 10.6900, time: 1, energy_Wh: 24),
  (cut_id: 1, mch_id: 2, mode_id: 12, feed_rate: 31.2500, blade_speed: 10.6900, time: 1, energy_Wh: 24),
  (cut_id: 1, mch_id: 1, mode_id: 13, feed_rate: 31.2500, blade_speed: 14.2500, time: 1, energy_Wh: 39),
  (cut_id: 1, mch_id: 3, mode_id: 13, feed_rate: 31.2500, blade_speed: 14.2500, time: 1, energy_Wh: 39),
  (cut_id: 1, mch_id: 2, mode_id: 13, feed_rate: 31.2500, blade_speed: 14.2500, time: 1, energy_Wh: 39),
  (cut_id: 1, mch_id: 1, mode_id: 14, feed_rate: 31.2500, blade_speed: 17.8200, time: 1, energy_Wh: 21),
  (cut_id: 1, mch_id: 3, mode_id: 14, feed_rate: 31.2500, blade_speed: 17.8200, time: 1, energy_Wh: 21),
  (cut_id: 1, mch_id: 2, mode_id: 14, feed_rate: 31.2500, blade_speed: 17.8200, time: 1, energy_Wh: 21),
  (cut_id: 1, mch_id: 1, mode_id: 15, feed_rate: 31.2500, blade_speed: 21.3800, time: 1, energy_Wh: 40),
  (cut_id: 1, mch_id: 3, mode_id: 15, feed_rate: 31.2500, blade_speed: 21.3800, time: 1, energy_Wh: 40),
  (cut_id: 1, mch_id: 2, mode_id: 15, feed_rate: 31.2500, blade_speed: 21.3800, time: 1, energy_Wh: 40),
  (cut_id: 1, mch_id: 1, mode_id: 16, feed_rate: 39.0700, blade_speed: 7.1300, time: 1, energy_Wh: 51),
  (cut_id: 1, mch_id: 3, mode_id: 16, feed_rate: 39.0700, blade_speed: 7.1300, time: 1, energy_Wh: 51),
  (cut_id: 1, mch_id: 2, mode_id: 16, feed_rate: 39.0700, blade_speed: 7.1300, time: 1, energy_Wh: 51),
  (cut_id: 1, mch_id: 1, mode_id: 17, feed_rate: 39.0700, blade_speed: 10.6900, time: 1, energy_Wh: 30),
  (cut_id: 1, mch_id: 3, mode_id: 17, feed_rate: 39.0700, blade_speed: 10.6900, time: 1, energy_Wh: 30),
  (cut_id: 1, mch_id: 2, mode_id: 17, feed_rate: 39.0700, blade_speed: 10.6900, time: 1, energy_Wh: 30),
  (cut_id: 1, mch_id: 1, mode_id: 18, feed_rate: 39.0700, blade_speed: 14.2500, time: 1, energy_Wh: 50),
  (cut_id: 1, mch_id: 3, mode_id: 18, feed_rate: 39.0700, blade_speed: 14.2500, time: 1, energy_Wh: 50),
  (cut_id: 1, mch_id: 2, mode_id: 18, feed_rate: 39.0700, blade_speed: 14.2500, time: 1, energy_Wh: 50),
  (cut_id: 1, mch_id: 1, mode_id: 19, feed_rate: 39.0700, blade_speed: 17.8200, time: 1, energy_Wh: 30),
  (cut_id: 1, mch_id: 3, mode_id: 19, feed_rate: 39.0700, blade_speed: 17.8200, time: 1, energy_Wh: 30),
  (cut_id: 1, mch_id: 2, mode_id: 19, feed_rate: 39.0700, blade_speed: 17.8200, time: 1, energy_Wh: 30),
  (cut_id: 1, mch_id: 1, mode_id: 20, feed_rate: 39.0700, blade_speed: 21.3800, time: 1, energy_Wh: 37),
  (cut_id: 1, mch_id: 3, mode_id: 20, feed_rate: 39.0700, blade_speed: 21.3800, time: 1, energy_Wh: 37),
  (cut_id: 1, mch_id: 2, mode_id: 20, feed_rate: 39.0700, blade_speed: 21.3800, time: 1, energy_Wh: 37),
  (cut_id: 1, mch_id: 1, mode_id: 21, feed_rate: 46.8800, blade_speed: 7.1300, time: 1, energy_Wh: 51),
  (cut_id: 1, mch_id: 3, mode_id: 21, feed_rate: 46.8800, blade_speed: 7.1300, time: 1, energy_Wh: 51),
  (cut_id: 1, mch_id: 2, mode_id: 21, feed_rate: 46.8800, blade_speed: 7.1300, time: 1, energy_Wh: 51),
  (cut_id: 1, mch_id: 1, mode_id: 22, feed_rate: 46.8800, blade_speed: 10.6900, time: 1, energy_Wh: 36),
  (cut_id: 1, mch_id: 3, mode_id: 22, feed_rate: 46.8800, blade_speed: 10.6900, time: 1, energy_Wh: 36),
  (cut_id: 1, mch_id: 2, mode_id: 22, feed_rate: 46.8800, blade_speed: 10.6900, time: 1, energy_Wh: 36),
  (cut_id: 1, mch_id: 1, mode_id: 23, feed_rate: 46.8800, blade_speed: 14.2500, time: 1, energy_Wh: 56),
  (cut_id: 1, mch_id: 3, mode_id: 23, feed_rate: 46.8800, blade_speed: 14.2500, time: 1, energy_Wh: 56),
  (cut_id: 1, mch_id: 2, mode_id: 23, feed_rate: 46.8800, blade_speed: 14.2500, time: 1, energy_Wh: 56),
  (cut_id: 1, mch_id: 1, mode_id: 24, feed_rate: 46.8800, blade_speed: 17.8200, time: 1, energy_Wh: 28),
  (cut_id: 1, mch_id: 3, mode_id: 24, feed_rate: 46.8800, blade_speed: 17.8200, time: 1, energy_Wh: 28),
  (cut_id: 1, mch_id: 2, mode_id: 24, feed_rate: 46.8800, blade_speed: 17.8200, time: 1, energy_Wh: 28),
  (cut_id: 1, mch_id: 1, mode_id: 25, feed_rate: 46.8800, blade_speed: 21.3800, time: 1, energy_Wh: 52),
  (cut_id: 1, mch_id: 3, mode_id: 25, feed_rate: 46.8800, blade_speed: 21.3800, time: 1, energy_Wh: 52),
  (cut_id: 1, mch_id: 2, mode_id: 25, feed_rate: 46.8800, blade_speed: 21.3800, time: 1, energy_Wh: 52),
  (cut_id: 2, mch_id: 3, mode_id: 1, feed_rate: 8.6200, blade_speed: 2.0600, time: 12, energy_Wh: 36),
  (cut_id: 2, mch_id: 1, mode_id: 1, feed_rate: 8.6200, blade_speed: 2.0600, time: 12, energy_Wh: 36),
  (cut_id: 2, mch_id: 2, mode_id: 1, feed_rate: 8.6200, blade_speed: 2.0600, time: 12, energy_Wh: 36),
  (cut_id: 2, mch_id: 3, mode_id: 2, feed_rate: 8.6200, blade_speed: 3.0900, time: 12, energy_Wh: 26),
  (cut_id: 2, mch_id: 1, mode_id: 2, feed_rate: 8.6200, blade_speed: 3.0900, time: 12, energy_Wh: 26),
  (cut_id: 2, mch_id: 2, mode_id: 2, feed_rate: 8.6200, blade_speed: 3.0900, time: 12, energy_Wh: 26),
  (cut_id: 2, mch_id: 3, mode_id: 3, feed_rate: 8.6200, blade_speed: 4.1200, time: 12, energy_Wh: 18),
  (cut_id: 2, mch_id: 1, mode_id: 3, feed_rate: 8.6200, blade_speed: 4.1200, time: 12, energy_Wh: 18),
  (cut_id: 2, mch_id: 2, mode_id: 3, feed_rate: 8.6200, blade_speed: 4.1200, time: 12, energy_Wh: 18),
  (cut_id: 2, mch_id: 3, mode_id: 4, feed_rate: 8.6200, blade_speed: 5.1500, time: 12, energy_Wh: 21),
  (cut_id: 2, mch_id: 1, mode_id: 4, feed_rate: 8.6200, blade_speed: 5.1500, time: 12, energy_Wh: 21),
  (cut_id: 2, mch_id: 2, mode_id: 4, feed_rate: 8.6200, blade_speed: 5.1500, time: 12, energy_Wh: 21),
  (cut_id: 2, mch_id: 3, mode_id: 5, feed_rate: 8.6200, blade_speed: 6.1800, time: 12, energy_Wh: 23),
  (cut_id: 2, mch_id: 1, mode_id: 5, feed_rate: 8.6200, blade_speed: 6.1800, time: 12, energy_Wh: 23),
  (cut_id: 2, mch_id: 2, mode_id: 5, feed_rate: 8.6200, blade_speed: 6.1800, time: 12, energy_Wh: 23),
  (cut_id: 2, mch_id: 3, mode_id: 6, feed_rate: 12.9300, blade_speed: 2.0600, time: 8, energy_Wh: 46),
  (cut_id: 2, mch_id: 1, mode_id: 6, feed_rate: 12.9300, blade_speed: 2.0600, time: 8, energy_Wh: 46),
  (cut_id: 2, mch_id: 2, mode_id: 6, feed_rate: 12.9300, blade_speed: 2.0600, time: 8, energy_Wh: 46),
  (cut_id: 2, mch_id: 3, mode_id: 7, feed_rate: 12.9300, blade_speed: 3.0900, time: 8, energy_Wh: 26),
  (cut_id: 2, mch_id: 1, mode_id: 7, feed_rate: 12.9300, blade_speed: 3.0900, time: 8, energy_Wh: 26),
  (cut_id: 2, mch_id: 2, mode_id: 7, feed_rate: 12.9300, blade_speed: 3.0900, time: 8, energy_Wh: 26),
  (cut_id: 2, mch_id: 3, mode_id: 8, feed_rate: 12.9300, blade_speed: 4.1200, time: 8, energy_Wh: 25),
  (cut_id: 2, mch_id: 1, mode_id: 8, feed_rate: 12.9300, blade_speed: 4.1200, time: 8, energy_Wh: 25),
  (cut_id: 2, mch_id: 2, mode_id: 8, feed_rate: 12.9300, blade_speed: 4.1200, time: 8, energy_Wh: 25),
  (cut_id: 2, mch_id: 3, mode_id: 9, feed_rate: 12.9300, blade_speed: 5.1500, time: 8, energy_Wh: 25),
  (cut_id: 2, mch_id: 1, mode_id: 9, feed_rate: 12.9300, blade_speed: 5.1500, time: 8, energy_Wh: 25),
  (cut_id: 2, mch_id: 2, mode_id: 9, feed_rate: 12.9300, blade_speed: 5.1500, time: 8, energy_Wh: 25),
  (cut_id: 2, mch_id: 3, mode_id: 10, feed_rate: 12.9300, blade_speed: 6.1800, time: 8, energy_Wh: 28),
  (cut_id: 2, mch_id: 1, mode_id: 10, feed_rate: 12.9300, blade_speed: 6.1800, time: 8, energy_Wh: 28),
  (cut_id: 2, mch_id: 2, mode_id: 10, feed_rate: 12.9300, blade_speed: 6.1800, time: 8, energy_Wh: 28),
  (cut_id: 2, mch_id: 3, mode_id: 11, feed_rate: 17.2300, blade_speed: 2.0600, time: 6, energy_Wh: 47),
  (cut_id: 2, mch_id: 1, mode_id: 11, feed_rate: 17.2300, blade_speed: 2.0600, time: 6, energy_Wh: 47),
  (cut_id: 2, mch_id: 2, mode_id: 11, feed_rate: 17.2300, blade_speed: 2.0600, time: 6, energy_Wh: 47),
  (cut_id: 2, mch_id: 3, mode_id: 12, feed_rate: 17.2300, blade_speed: 3.0900, time: 6, energy_Wh: 38),
  (cut_id: 2, mch_id: 1, mode_id: 12, feed_rate: 17.2300, blade_speed: 3.0900, time: 6, energy_Wh: 38),
  (cut_id: 2, mch_id: 2, mode_id: 12, feed_rate: 17.2300, blade_speed: 3.0900, time: 6, energy_Wh: 38),
  (cut_id: 2, mch_id: 3, mode_id: 13, feed_rate: 17.2300, blade_speed: 4.1200, time: 6, energy_Wh: 27),
  (cut_id: 2, mch_id: 1, mode_id: 13, feed_rate: 17.2300, blade_speed: 4.1200, time: 6, energy_Wh: 27),
  (cut_id: 2, mch_id: 2, mode_id: 13, feed_rate: 17.2300, blade_speed: 4.1200, time: 6, energy_Wh: 27),
  (cut_id: 2, mch_id: 3, mode_id: 14, feed_rate: 17.2300, blade_speed: 5.1500, time: 6, energy_Wh: 29),
  (cut_id: 2, mch_id: 1, mode_id: 14, feed_rate: 17.2300, blade_speed: 5.1500, time: 6, energy_Wh: 29),
  (cut_id: 2, mch_id: 2, mode_id: 14, feed_rate: 17.2300, blade_speed: 5.1500, time: 6, energy_Wh: 29),
  (cut_id: 2, mch_id: 3, mode_id: 15, feed_rate: 17.2300, blade_speed: 6.1800, time: 6, energy_Wh: 30),
  (cut_id: 2, mch_id: 1, mode_id: 15, feed_rate: 17.2300, blade_speed: 6.1800, time: 6, energy_Wh: 30),
  (cut_id: 2, mch_id: 2, mode_id: 15, feed_rate: 17.2300, blade_speed: 6.1800, time: 6, energy_Wh: 30),
  (cut_id: 2, mch_id: 3, mode_id: 16, feed_rate: 21.5400, blade_speed: 2.0600, time: 5, energy_Wh: 52),
  (cut_id: 2, mch_id: 1, mode_id: 16, feed_rate: 21.5400, blade_speed: 2.0600, time: 5, energy_Wh: 52),
  (cut_id: 2, mch_id: 2, mode_id: 16, feed_rate: 21.5400, blade_speed: 2.0600, time: 5, energy_Wh: 52),
  (cut_id: 2, mch_id: 3, mode_id: 17, feed_rate: 21.5400, blade_speed: 3.0900, time: 5, energy_Wh: 34),
  (cut_id: 2, mch_id: 1, mode_id: 17, feed_rate: 21.5400, blade_speed: 3.0900, time: 5, energy_Wh: 34),
  (cut_id: 2, mch_id: 2, mode_id: 17, feed_rate: 21.5400, blade_speed: 3.0900, time: 5, energy_Wh: 34),
  (cut_id: 2, mch_id: 3, mode_id: 18, feed_rate: 21.5400, blade_speed: 4.1200, time: 5, energy_Wh: 30),
  (cut_id: 2, mch_id: 1, mode_id: 18, feed_rate: 21.5400, blade_speed: 4.1200, time: 5, energy_Wh: 30),
  (cut_id: 2, mch_id: 2, mode_id: 18, feed_rate: 21.5400, blade_speed: 4.1200, time: 5, energy_Wh: 30),
  (cut_id: 2, mch_id: 3, mode_id: 19, feed_rate: 21.5400, blade_speed: 5.1500, time: 5, energy_Wh: 24),
  (cut_id: 2, mch_id: 1, mode_id: 19, feed_rate: 21.5400, blade_speed: 5.1500, time: 5, energy_Wh: 24),
  (cut_id: 2, mch_id: 2, mode_id: 19, feed_rate: 21.5400, blade_speed: 5.1500, time: 5, energy_Wh: 24),
  (cut_id: 2, mch_id: 3, mode_id: 20, feed_rate: 21.5400, blade_speed: 6.1800, time: 5, energy_Wh: 32),
  (cut_id: 2, mch_id: 1, mode_id: 20, feed_rate: 21.5400, blade_speed: 6.1800, time: 5, energy_Wh: 32),
  (cut_id: 2, mch_id: 2, mode_id: 20, feed_rate: 21.5400, blade_speed: 6.1800, time: 5, energy_Wh: 32),
  (cut_id: 2, mch_id: 3, mode_id: 21, feed_rate: 25.8500, blade_speed: 2.0600, time: 4, energy_Wh: 45),
  (cut_id: 2, mch_id: 1, mode_id: 21, feed_rate: 25.8500, blade_speed: 2.0600, time: 4, energy_Wh: 45),
  (cut_id: 2, mch_id: 2, mode_id: 21, feed_rate: 25.8500, blade_speed: 2.0600, time: 4, energy_Wh: 45),
  (cut_id: 2, mch_id: 3, mode_id: 22, feed_rate: 25.8500, blade_speed: 3.0900, time: 4, energy_Wh: 35),
  (cut_id: 2, mch_id: 1, mode_id: 22, feed_rate: 25.8500, blade_speed: 3.0900, time: 4, energy_Wh: 35),
  (cut_id: 2, mch_id: 2, mode_id: 22, feed_rate: 25.8500, blade_speed: 3.0900, time: 4, energy_Wh: 35),
  (cut_id: 2, mch_id: 3, mode_id: 23, feed_rate: 25.8500, blade_speed: 4.1200, time: 4, energy_Wh: 29),
  (cut_id: 2, mch_id: 1, mode_id: 23, feed_rate: 25.8500, blade_speed: 4.1200, time: 4, energy_Wh: 29),
  (cut_id: 2, mch_id: 2, mode_id: 23, feed_rate: 25.8500, blade_speed: 4.1200, time: 4, energy_Wh: 29),
  (cut_id: 2, mch_id: 3, mode_id: 24, feed_rate: 25.8500, blade_speed: 5.1500, time: 4, energy_Wh: 24),
  (cut_id: 2, mch_id: 1, mode_id: 24, feed_rate: 25.8500, blade_speed: 5.1500, time: 4, energy_Wh: 24),
  (cut_id: 2, mch_id: 2, mode_id: 24, feed_rate: 25.8500, blade_speed: 5.1500, time: 4, energy_Wh: 24),
  (cut_id: 2, mch_id: 3, mode_id: 25, feed_rate: 25.8500, blade_speed: 6.1800, time: 4, energy_Wh: 41),
  (cut_id: 2, mch_id: 1, mode_id: 25, feed_rate: 25.8500, blade_speed: 6.1800, time: 4, energy_Wh: 41),
  (cut_id: 2, mch_id: 2, mode_id: 25, feed_rate: 25.8500, blade_speed: 6.1800, time: 4, energy_Wh: 41),
  (cut_id: 3, mch_id: 1, mode_id: 1, feed_rate: 15.9800, blade_speed: 6.4700, time: 12, energy_Wh: 33),
  (cut_id: 3, mch_id: 2, mode_id: 1, feed_rate: 15.9800, blade_speed: 6.4700, time: 12, energy_Wh: 33),
  (cut_id: 3, mch_id: 3, mode_id: 1, feed_rate: 15.9800, blade_speed: 6.4700, time: 12, energy_Wh: 33),
  (cut_id: 3, mch_id: 1, mode_id: 2, feed_rate: 15.9800, blade_speed: 9.7100, time: 12, energy_Wh: 31),
  (cut_id: 3, mch_id: 2, mode_id: 2, feed_rate: 15.9800, blade_speed: 9.7100, time: 12, energy_Wh: 31),
  (cut_id: 3, mch_id: 3, mode_id: 2, feed_rate: 15.9800, blade_speed: 9.7100, time: 12, energy_Wh: 31),
  (cut_id: 3, mch_id: 1, mode_id: 3, feed_rate: 15.9800, blade_speed: 12.9500, time: 12, energy_Wh: 33),
  (cut_id: 3, mch_id: 2, mode_id: 3, feed_rate: 15.9800, blade_speed: 12.9500, time: 12, energy_Wh: 33),
  (cut_id: 3, mch_id: 3, mode_id: 3, feed_rate: 15.9800, blade_speed: 12.9500, time: 12, energy_Wh: 33),
  (cut_id: 3, mch_id: 1, mode_id: 4, feed_rate: 15.9800, blade_speed: 16.1800, time: 12, energy_Wh: 29),
  (cut_id: 3, mch_id: 2, mode_id: 4, feed_rate: 15.9800, blade_speed: 16.1800, time: 12, energy_Wh: 29),
  (cut_id: 3, mch_id: 3, mode_id: 4, feed_rate: 15.9800, blade_speed: 16.1800, time: 12, energy_Wh: 29),
  (cut_id: 3, mch_id: 1, mode_id: 5, feed_rate: 15.9800, blade_speed: 19.4200, time: 12, energy_Wh: 46),
  (cut_id: 3, mch_id: 2, mode_id: 5, feed_rate: 15.9800, blade_speed: 19.4200, time: 12, energy_Wh: 46),
  (cut_id: 3, mch_id: 3, mode_id: 5, feed_rate: 15.9800, blade_speed: 19.4200, time: 12, energy_Wh: 46),
  (cut_id: 3, mch_id: 1, mode_id: 6, feed_rate: 23.9600, blade_speed: 6.4700, time: 8, energy_Wh: 43),
  (cut_id: 3, mch_id: 2, mode_id: 6, feed_rate: 23.9600, blade_speed: 6.4700, time: 8, energy_Wh: 43),
  (cut_id: 3, mch_id: 3, mode_id: 6, feed_rate: 23.9600, blade_speed: 6.4700, time: 8, energy_Wh: 43),
  (cut_id: 3, mch_id: 1, mode_id: 7, feed_rate: 23.9600, blade_speed: 9.7100, time: 8, energy_Wh: 38),
  (cut_id: 3, mch_id: 2, mode_id: 7, feed_rate: 23.9600, blade_speed: 9.7100, time: 8, energy_Wh: 38),
  (cut_id: 3, mch_id: 3, mode_id: 7, feed_rate: 23.9600, blade_speed: 9.7100, time: 8, energy_Wh: 38),
  (cut_id: 3, mch_id: 1, mode_id: 8, feed_rate: 23.9600, blade_speed: 12.9500, time: 8, energy_Wh: 50),
  (cut_id: 3, mch_id: 2, mode_id: 8, feed_rate: 23.9600, blade_speed: 12.9500, time: 8, energy_Wh: 50),
  (cut_id: 3, mch_id: 3, mode_id: 8, feed_rate: 23.9600, blade_speed: 12.9500, time: 8, energy_Wh: 50),
  (cut_id: 3, mch_id: 1, mode_id: 9, feed_rate: 23.9600, blade_speed: 16.1800, time: 8, energy_Wh: 29),
  (cut_id: 3, mch_id: 2, mode_id: 9, feed_rate: 23.9600, blade_speed: 16.1800, time: 8, energy_Wh: 29),
  (cut_id: 3, mch_id: 3, mode_id: 9, feed_rate: 23.9600, blade_speed: 16.1800, time: 8, energy_Wh: 29),
  (cut_id: 3, mch_id: 1, mode_id: 10, feed_rate: 23.9600, blade_speed: 19.4200, time: 8, energy_Wh: 44),
  (cut_id: 3, mch_id: 2, mode_id: 10, feed_rate: 23.9600, blade_speed: 19.4200, time: 8, energy_Wh: 44),
  (cut_id: 3, mch_id: 3, mode_id: 10, feed_rate: 23.9600, blade_speed: 19.4200, time: 8, energy_Wh: 44),
  (cut_id: 3, mch_id: 1, mode_id: 11, feed_rate: 31.9500, blade_speed: 6.4700, time: 6, energy_Wh: 49),
  (cut_id: 3, mch_id: 2, mode_id: 11, feed_rate: 31.9500, blade_speed: 6.4700, time: 6, energy_Wh: 49),
  (cut_id: 3, mch_id: 3, mode_id: 11, feed_rate: 31.9500, blade_speed: 6.4700, time: 6, energy_Wh: 49),
  (cut_id: 3, mch_id: 1, mode_id: 12, feed_rate: 31.9500, blade_speed: 9.7100, time: 6, energy_Wh: 42),
  (cut_id: 3, mch_id: 2, mode_id: 12, feed_rate: 31.9500, blade_speed: 9.7100, time: 6, energy_Wh: 42),
  (cut_id: 3, mch_id: 3, mode_id: 12, feed_rate: 31.9500, blade_speed: 9.7100, time: 6, energy_Wh: 42),
  (cut_id: 3, mch_id: 1, mode_id: 13, feed_rate: 31.9500, blade_speed: 12.9500, time: 6, energy_Wh: 55),
  (cut_id: 3, mch_id: 2, mode_id: 13, feed_rate: 31.9500, blade_speed: 12.9500, time: 6, energy_Wh: 55),
  (cut_id: 3, mch_id: 3, mode_id: 13, feed_rate: 31.9500, blade_speed: 12.9500, time: 6, energy_Wh: 55),
  (cut_id: 3, mch_id: 1, mode_id: 14, feed_rate: 31.9500, blade_speed: 16.1800, time: 6, energy_Wh: 47),
  (cut_id: 3, mch_id: 2, mode_id: 14, feed_rate: 31.9500, blade_speed: 16.1800, time: 6, energy_Wh: 47),
  (cut_id: 3, mch_id: 3, mode_id: 14, feed_rate: 31.9500, blade_speed: 16.1800, time: 6, energy_Wh: 47),
  (cut_id: 3, mch_id: 1, mode_id: 15, feed_rate: 31.9500, blade_speed: 19.4200, time: 6, energy_Wh: 60),
  (cut_id: 3, mch_id: 2, mode_id: 15, feed_rate: 31.9500, blade_speed: 19.4200, time: 6, energy_Wh: 60),
  (cut_id: 3, mch_id: 3, mode_id: 15, feed_rate: 31.9500, blade_speed: 19.4200, time: 6, energy_Wh: 60),
  (cut_id: 3, mch_id: 1, mode_id: 16, feed_rate: 39.9400, blade_speed: 6.4700, time: 5, energy_Wh: 57),
  (cut_id: 3, mch_id: 2, mode_id: 16, feed_rate: 39.9400, blade_speed: 6.4700, time: 5, energy_Wh: 57),
  (cut_id: 3, mch_id: 3, mode_id: 16, feed_rate: 39.9400, blade_speed: 6.4700, time: 5, energy_Wh: 57),
  (cut_id: 3, mch_id: 1, mode_id: 17, feed_rate: 39.9400, blade_speed: 9.7100, time: 5, energy_Wh: 52),
  (cut_id: 3, mch_id: 2, mode_id: 17, feed_rate: 39.9400, blade_speed: 9.7100, time: 5, energy_Wh: 52),
  (cut_id: 3, mch_id: 3, mode_id: 17, feed_rate: 39.9400, blade_speed: 9.7100, time: 5, energy_Wh: 52),
  (cut_id: 3, mch_id: 1, mode_id: 18, feed_rate: 39.9400, blade_speed: 12.9500, time: 5, energy_Wh: 59),
  (cut_id: 3, mch_id: 2, mode_id: 18, feed_rate: 39.9400, blade_speed: 12.9500, time: 5, energy_Wh: 59),
  (cut_id: 3, mch_id: 3, mode_id: 18, feed_rate: 39.9400, blade_speed: 12.9500, time: 5, energy_Wh: 59),
  (cut_id: 3, mch_id: 1, mode_id: 19, feed_rate: 39.9400, blade_speed: 16.1800, time: 5, energy_Wh: 54),
  (cut_id: 3, mch_id: 2, mode_id: 19, feed_rate: 39.9400, blade_speed: 16.1800, time: 5, energy_Wh: 54),
  (cut_id: 3, mch_id: 3, mode_id: 19, feed_rate: 39.9400, blade_speed: 16.1800, time: 5, energy_Wh: 54),
  (cut_id: 3, mch_id: 1, mode_id: 20, feed_rate: 39.9400, blade_speed: 19.4200, time: 5, energy_Wh: 64),
  (cut_id: 3, mch_id: 2, mode_id: 20, feed_rate: 39.9400, blade_speed: 19.4200, time: 5, energy_Wh: 64),
  (cut_id: 3, mch_id: 3, mode_id: 20, feed_rate: 39.9400, blade_speed: 19.4200, time: 5, energy_Wh: 64),
  (cut_id: 3, mch_id: 1, mode_id: 21, feed_rate: 47.9300, blade_speed: 6.4700, time: 4, energy_Wh: 66),
  (cut_id: 3, mch_id: 2, mode_id: 21, feed_rate: 47.9300, blade_speed: 6.4700, time: 4, energy_Wh: 66),
  (cut_id: 3, mch_id: 3, mode_id: 21, feed_rate: 47.9300, blade_speed: 6.4700, time: 4, energy_Wh: 66),
  (cut_id: 3, mch_id: 1, mode_id: 22, feed_rate: 47.9300, blade_speed: 9.7100, time: 4, energy_Wh: 53),
  (cut_id: 3, mch_id: 2, mode_id: 22, feed_rate: 47.9300, blade_speed: 9.7100, time: 4, energy_Wh: 53),
  (cut_id: 3, mch_id: 3, mode_id: 22, feed_rate: 47.9300, blade_speed: 9.7100, time: 4, energy_Wh: 53),
  (cut_id: 3, mch_id: 1, mode_id: 23, feed_rate: 47.9300, blade_speed: 12.9500, time: 4, energy_Wh: 65),
  (cut_id: 3, mch_id: 2, mode_id: 23, feed_rate: 47.9300, blade_speed: 12.9500, time: 4, energy_Wh: 65),
  (cut_id: 3, mch_id: 3, mode_id: 23, feed_rate: 47.9300, blade_speed: 12.9500, time: 4, energy_Wh: 65),
  (cut_id: 3, mch_id: 1, mode_id: 24, feed_rate: 47.9300, blade_speed: 16.1800, time: 4, energy_Wh: 58),
  (cut_id: 3, mch_id: 2, mode_id: 24, feed_rate: 47.9300, blade_speed: 16.1800, time: 4, energy_Wh: 58),
  (cut_id: 3, mch_id: 3, mode_id: 24, feed_rate: 47.9300, blade_speed: 16.1800, time: 4, energy_Wh: 58),
  (cut_id: 3, mch_id: 1, mode_id: 25, feed_rate: 47.9300, blade_speed: 19.4200, time: 4, energy_Wh: 66),
  (cut_id: 3, mch_id: 2, mode_id: 25, feed_rate: 47.9300, blade_speed: 19.4200, time: 4, energy_Wh: 66),
  (cut_id: 3, mch_id: 3, mode_id: 25, feed_rate: 47.9300, blade_speed: 19.4200, time: 4, energy_Wh: 66),
  (cut_id: 4, mch_id: 1, mode_id: 1, feed_rate: 12.5000, blade_speed: 15.0000, time: 9, energy_Wh: 28),
  (cut_id: 4, mch_id: 2, mode_id: 1, feed_rate: 12.5000, blade_speed: 15.0000, time: 9, energy_Wh: 28),
  (cut_id: 4, mch_id: 3, mode_id: 1, feed_rate: 12.5000, blade_speed: 15.0000, time: 9, energy_Wh: 28),
  (cut_id: 4, mch_id: 1, mode_id: 2, feed_rate: 12.5000, blade_speed: 22.5000, time: 9, energy_Wh: 28),
  (cut_id: 4, mch_id: 2, mode_id: 2, feed_rate: 12.5000, blade_speed: 22.5000, time: 9, energy_Wh: 28),
  (cut_id: 4, mch_id: 3, mode_id: 2, feed_rate: 12.5000, blade_speed: 22.5000, time: 9, energy_Wh: 28),
  (cut_id: 4, mch_id: 1, mode_id: 3, feed_rate: 12.5000, blade_speed: 30.0000, time: 9, energy_Wh: 21),
  (cut_id: 4, mch_id: 2, mode_id: 3, feed_rate: 12.5000, blade_speed: 30.0000, time: 9, energy_Wh: 21),
  (cut_id: 4, mch_id: 3, mode_id: 3, feed_rate: 12.5000, blade_speed: 30.0000, time: 9, energy_Wh: 21),
  (cut_id: 4, mch_id: 1, mode_id: 4, feed_rate: 12.5000, blade_speed: 37.5000, time: 9, energy_Wh: 24),
  (cut_id: 4, mch_id: 2, mode_id: 4, feed_rate: 12.5000, blade_speed: 37.5000, time: 9, energy_Wh: 24),
  (cut_id: 4, mch_id: 3, mode_id: 4, feed_rate: 12.5000, blade_speed: 37.5000, time: 9, energy_Wh: 24),
  (cut_id: 4, mch_id: 1, mode_id: 5, feed_rate: 12.5000, blade_speed: 45.0000, time: 9, energy_Wh: 38),
  (cut_id: 4, mch_id: 2, mode_id: 5, feed_rate: 12.5000, blade_speed: 45.0000, time: 9, energy_Wh: 38),
  (cut_id: 4, mch_id: 3, mode_id: 5, feed_rate: 12.5000, blade_speed: 45.0000, time: 9, energy_Wh: 38),
  (cut_id: 4, mch_id: 1, mode_id: 6, feed_rate: 18.7500, blade_speed: 15.0000, time: 6, energy_Wh: 42),
  (cut_id: 4, mch_id: 2, mode_id: 6, feed_rate: 18.7500, blade_speed: 15.0000, time: 6, energy_Wh: 42),
  (cut_id: 4, mch_id: 3, mode_id: 6, feed_rate: 18.7500, blade_speed: 15.0000, time: 6, energy_Wh: 42),
  (cut_id: 4, mch_id: 1, mode_id: 7, feed_rate: 18.7500, blade_speed: 22.5000, time: 6, energy_Wh: 31),
  (cut_id: 4, mch_id: 2, mode_id: 7, feed_rate: 18.7500, blade_speed: 22.5000, time: 6, energy_Wh: 31),
  (cut_id: 4, mch_id: 3, mode_id: 7, feed_rate: 18.7500, blade_speed: 22.5000, time: 6, energy_Wh: 31),
  (cut_id: 4, mch_id: 1, mode_id: 8, feed_rate: 18.7500, blade_speed: 30.0000, time: 6, energy_Wh: 22),
  (cut_id: 4, mch_id: 2, mode_id: 8, feed_rate: 18.7500, blade_speed: 30.0000, time: 6, energy_Wh: 22),
  (cut_id: 4, mch_id: 3, mode_id: 8, feed_rate: 18.7500, blade_speed: 30.0000, time: 6, energy_Wh: 22),
  (cut_id: 4, mch_id: 1, mode_id: 9, feed_rate: 18.7500, blade_speed: 37.5000, time: 6, energy_Wh: 34),
  (cut_id: 4, mch_id: 2, mode_id: 9, feed_rate: 18.7500, blade_speed: 37.5000, time: 6, energy_Wh: 34),
  (cut_id: 4, mch_id: 3, mode_id: 9, feed_rate: 18.7500, blade_speed: 37.5000, time: 6, energy_Wh: 34),
  (cut_id: 4, mch_id: 1, mode_id: 10, feed_rate: 18.7500, blade_speed: 45.0000, time: 6, energy_Wh: 43),
  (cut_id: 4, mch_id: 2, mode_id: 10, feed_rate: 18.7500, blade_speed: 45.0000, time: 6, energy_Wh: 43),
  (cut_id: 4, mch_id: 3, mode_id: 10, feed_rate: 18.7500, blade_speed: 45.0000, time: 6, energy_Wh: 43),
  (cut_id: 4, mch_id: 1, mode_id: 11, feed_rate: 25.0000, blade_speed: 15.0000, time: 5, energy_Wh: 33),
  (cut_id: 4, mch_id: 2, mode_id: 11, feed_rate: 25.0000, blade_speed: 15.0000, time: 5, energy_Wh: 33),
  (cut_id: 4, mch_id: 3, mode_id: 11, feed_rate: 25.0000, blade_speed: 15.0000, time: 5, energy_Wh: 33),
  (cut_id: 4, mch_id: 1, mode_id: 12, feed_rate: 25.0000, blade_speed: 22.5000, time: 5, energy_Wh: 26),
  (cut_id: 4, mch_id: 2, mode_id: 12, feed_rate: 25.0000, blade_speed: 22.5000, time: 5, energy_Wh: 26),
  (cut_id: 4, mch_id: 3, mode_id: 12, feed_rate: 25.0000, blade_speed: 22.5000, time: 5, energy_Wh: 26),
  (cut_id: 4, mch_id: 1, mode_id: 13, feed_rate: 25.0000, blade_speed: 30.0000, time: 5, energy_Wh: 23),
  (cut_id: 4, mch_id: 2, mode_id: 13, feed_rate: 25.0000, blade_speed: 30.0000, time: 5, energy_Wh: 23),
  (cut_id: 4, mch_id: 3, mode_id: 13, feed_rate: 25.0000, blade_speed: 30.0000, time: 5, energy_Wh: 23),
  (cut_id: 4, mch_id: 1, mode_id: 14, feed_rate: 25.0000, blade_speed: 37.5000, time: 5, energy_Wh: 29),
  (cut_id: 4, mch_id: 2, mode_id: 14, feed_rate: 25.0000, blade_speed: 37.5000, time: 5, energy_Wh: 29),
  (cut_id: 4, mch_id: 3, mode_id: 14, feed_rate: 25.0000, blade_speed: 37.5000, time: 5, energy_Wh: 29),
  (cut_id: 4, mch_id: 1, mode_id: 15, feed_rate: 25.0000, blade_speed: 45.0000, time: 5, energy_Wh: 41),
  (cut_id: 4, mch_id: 2, mode_id: 15, feed_rate: 25.0000, blade_speed: 45.0000, time: 5, energy_Wh: 41),
  (cut_id: 4, mch_id: 3, mode_id: 15, feed_rate: 25.0000, blade_speed: 45.0000, time: 5, energy_Wh: 41),
  (cut_id: 4, mch_id: 1, mode_id: 16, feed_rate: 31.2500, blade_speed: 15.0000, time: 4, energy_Wh: 55),
  (cut_id: 4, mch_id: 2, mode_id: 16, feed_rate: 31.2500, blade_speed: 15.0000, time: 4, energy_Wh: 55),
  (cut_id: 4, mch_id: 3, mode_id: 16, feed_rate: 31.2500, blade_speed: 15.0000, time: 4, energy_Wh: 55),
  (cut_id: 4, mch_id: 1, mode_id: 17, feed_rate: 31.2500, blade_speed: 22.5000, time: 4, energy_Wh: 31),
  (cut_id: 4, mch_id: 2, mode_id: 17, feed_rate: 31.2500, blade_speed: 22.5000, time: 4, energy_Wh: 31),
  (cut_id: 4, mch_id: 3, mode_id: 17, feed_rate: 31.2500, blade_speed: 22.5000, time: 4, energy_Wh: 31),
  (cut_id: 4, mch_id: 1, mode_id: 18, feed_rate: 31.2500, blade_speed: 30.0000, time: 4, energy_Wh: 22),
  (cut_id: 4, mch_id: 2, mode_id: 18, feed_rate: 31.2500, blade_speed: 30.0000, time: 4, energy_Wh: 22),
  (cut_id: 4, mch_id: 3, mode_id: 18, feed_rate: 31.2500, blade_speed: 30.0000, time: 4, energy_Wh: 22),
  (cut_id: 4, mch_id: 1, mode_id: 19, feed_rate: 31.2500, blade_speed: 37.5000, time: 4, energy_Wh: 33),
  (cut_id: 4, mch_id: 2, mode_id: 19, feed_rate: 31.2500, blade_speed: 37.5000, time: 4, energy_Wh: 33),
  (cut_id: 4, mch_id: 3, mode_id: 19, feed_rate: 31.2500, blade_speed: 37.5000, time: 4, energy_Wh: 33),
  (cut_id: 4, mch_id: 1, mode_id: 20, feed_rate: 31.2500, blade_speed: 45.0000, time: 4, energy_Wh: 46),
  (cut_id: 4, mch_id: 2, mode_id: 20, feed_rate: 31.2500, blade_speed: 45.0000, time: 4, energy_Wh: 46),
  (cut_id: 4, mch_id: 3, mode_id: 20, feed_rate: 31.2500, blade_speed: 45.0000, time: 4, energy_Wh: 46),
  (cut_id: 4, mch_id: 1, mode_id: 21, feed_rate: 37.5000, blade_speed: 15.0000, time: 3, energy_Wh: 42),
  (cut_id: 4, mch_id: 2, mode_id: 21, feed_rate: 37.5000, blade_speed: 15.0000, time: 3, energy_Wh: 42),
  (cut_id: 4, mch_id: 3, mode_id: 21, feed_rate: 37.5000, blade_speed: 15.0000, time: 3, energy_Wh: 42),
  (cut_id: 4, mch_id: 1, mode_id: 22, feed_rate: 37.5000, blade_speed: 22.5000, time: 3, energy_Wh: 41),
  (cut_id: 4, mch_id: 2, mode_id: 22, feed_rate: 37.5000, blade_speed: 22.5000, time: 3, energy_Wh: 41),
  (cut_id: 4, mch_id: 3, mode_id: 22, feed_rate: 37.5000, blade_speed: 22.5000, time: 3, energy_Wh: 41),
  (cut_id: 4, mch_id: 1, mode_id: 23, feed_rate: 37.5000, blade_speed: 30.0000, time: 3, energy_Wh: 30),
  (cut_id: 4, mch_id: 2, mode_id: 23, feed_rate: 37.5000, blade_speed: 30.0000, time: 3, energy_Wh: 30),
  (cut_id: 4, mch_id: 3, mode_id: 23, feed_rate: 37.5000, blade_speed: 30.0000, time: 3, energy_Wh: 30),
  (cut_id: 4, mch_id: 1, mode_id: 24, feed_rate: 37.5000, blade_speed: 37.5000, time: 3, energy_Wh: 42),
  (cut_id: 4, mch_id: 2, mode_id: 24, feed_rate: 37.5000, blade_speed: 37.5000, time: 3, energy_Wh: 42),
  (cut_id: 4, mch_id: 3, mode_id: 24, feed_rate: 37.5000, blade_speed: 37.5000, time: 3, energy_Wh: 42),
  (cut_id: 4, mch_id: 1, mode_id: 25, feed_rate: 37.5000, blade_speed: 45.0000, time: 3, energy_Wh: 60),
  (cut_id: 4, mch_id: 2, mode_id: 25, feed_rate: 37.5000, blade_speed: 45.0000, time: 3, energy_Wh: 60),
  (cut_id: 4, mch_id: 3, mode_id: 25, feed_rate: 37.5000, blade_speed: 45.0000, time: 3, energy_Wh: 60),
  (cut_id: 5, mch_id: 3, mode_id: 1, feed_rate: 35.0000, blade_speed: 60.0000, time: 4, energy_Wh: 39),
  (cut_id: 5, mch_id: 1, mode_id: 1, feed_rate: 35.0000, blade_speed: 60.0000, time: 4, energy_Wh: 39),
  (cut_id: 5, mch_id: 2, mode_id: 1, feed_rate: 35.0000, blade_speed: 60.0000, time: 4, energy_Wh: 39),
  (cut_id: 5, mch_id: 3, mode_id: 2, feed_rate: 35.0000, blade_speed: 90.0000, time: 4, energy_Wh: 44),
  (cut_id: 5, mch_id: 1, mode_id: 2, feed_rate: 35.0000, blade_speed: 90.0000, time: 4, energy_Wh: 44),
  (cut_id: 5, mch_id: 2, mode_id: 2, feed_rate: 35.0000, blade_speed: 90.0000, time: 4, energy_Wh: 44),
  (cut_id: 5, mch_id: 3, mode_id: 3, feed_rate: 35.0000, blade_speed: 120.0000, time: 4, energy_Wh: 49),
  (cut_id: 5, mch_id: 1, mode_id: 3, feed_rate: 35.0000, blade_speed: 120.0000, time: 4, energy_Wh: 49),
  (cut_id: 5, mch_id: 2, mode_id: 3, feed_rate: 35.0000, blade_speed: 120.0000, time: 4, energy_Wh: 49),
  (cut_id: 5, mch_id: 3, mode_id: 4, feed_rate: 35.0000, blade_speed: 150.0000, time: 4, energy_Wh: 26),
  (cut_id: 5, mch_id: 1, mode_id: 4, feed_rate: 35.0000, blade_speed: 150.0000, time: 4, energy_Wh: 26),
  (cut_id: 5, mch_id: 2, mode_id: 4, feed_rate: 35.0000, blade_speed: 150.0000, time: 4, energy_Wh: 26),
  (cut_id: 5, mch_id: 3, mode_id: 5, feed_rate: 35.0000, blade_speed: 180.0000, time: 4, energy_Wh: 30),
  (cut_id: 5, mch_id: 1, mode_id: 5, feed_rate: 35.0000, blade_speed: 180.0000, time: 4, energy_Wh: 30),
  (cut_id: 5, mch_id: 2, mode_id: 5, feed_rate: 35.0000, blade_speed: 180.0000, time: 4, energy_Wh: 30),
  (cut_id: 5, mch_id: 3, mode_id: 6, feed_rate: 52.5000, blade_speed: 60.0000, time: 3, energy_Wh: 46),
  (cut_id: 5, mch_id: 1, mode_id: 6, feed_rate: 52.5000, blade_speed: 60.0000, time: 3, energy_Wh: 46),
  (cut_id: 5, mch_id: 2, mode_id: 6, feed_rate: 52.5000, blade_speed: 60.0000, time: 3, energy_Wh: 46),
  (cut_id: 5, mch_id: 3, mode_id: 7, feed_rate: 52.5000, blade_speed: 90.0000, time: 3, energy_Wh: 61),
  (cut_id: 5, mch_id: 1, mode_id: 7, feed_rate: 52.5000, blade_speed: 90.0000, time: 3, energy_Wh: 61),
  (cut_id: 5, mch_id: 2, mode_id: 7, feed_rate: 52.5000, blade_speed: 90.0000, time: 3, energy_Wh: 61),
  (cut_id: 5, mch_id: 3, mode_id: 8, feed_rate: 52.5000, blade_speed: 120.0000, time: 3, energy_Wh: 55),
  (cut_id: 5, mch_id: 1, mode_id: 8, feed_rate: 52.5000, blade_speed: 120.0000, time: 3, energy_Wh: 55),
  (cut_id: 5, mch_id: 2, mode_id: 8, feed_rate: 52.5000, blade_speed: 120.0000, time: 3, energy_Wh: 55),
  (cut_id: 5, mch_id: 3, mode_id: 9, feed_rate: 52.5000, blade_speed: 150.0000, time: 3, energy_Wh: 37),
  (cut_id: 5, mch_id: 1, mode_id: 9, feed_rate: 52.5000, blade_speed: 150.0000, time: 3, energy_Wh: 37),
  (cut_id: 5, mch_id: 2, mode_id: 9, feed_rate: 52.5000, blade_speed: 150.0000, time: 3, energy_Wh: 37),
  (cut_id: 5, mch_id: 3, mode_id: 10, feed_rate: 52.5000, blade_speed: 180.0000, time: 3, energy_Wh: 47),
  (cut_id: 5, mch_id: 1, mode_id: 10, feed_rate: 52.5000, blade_speed: 180.0000, time: 3, energy_Wh: 47),
  (cut_id: 5, mch_id: 2, mode_id: 10, feed_rate: 52.5000, blade_speed: 180.0000, time: 3, energy_Wh: 47),
  (cut_id: 5, mch_id: 3, mode_id: 11, feed_rate: 70.0000, blade_speed: 60.0000, time: 2, energy_Wh: 80),
  (cut_id: 5, mch_id: 1, mode_id: 11, feed_rate: 70.0000, blade_speed: 60.0000, time: 2, energy_Wh: 80),
  (cut_id: 5, mch_id: 2, mode_id: 11, feed_rate: 70.0000, blade_speed: 60.0000, time: 2, energy_Wh: 80),
  (cut_id: 5, mch_id: 3, mode_id: 12, feed_rate: 70.0000, blade_speed: 90.0000, time: 2, energy_Wh: 102),
  (cut_id: 5, mch_id: 1, mode_id: 12, feed_rate: 70.0000, blade_speed: 90.0000, time: 2, energy_Wh: 102),
  (cut_id: 5, mch_id: 2, mode_id: 12, feed_rate: 70.0000, blade_speed: 90.0000, time: 2, energy_Wh: 102),
  (cut_id: 5, mch_id: 3, mode_id: 13, feed_rate: 70.0000, blade_speed: 120.0000, time: 2, energy_Wh: 81),
  (cut_id: 5, mch_id: 1, mode_id: 13, feed_rate: 70.0000, blade_speed: 120.0000, time: 2, energy_Wh: 81),
  (cut_id: 5, mch_id: 2, mode_id: 13, feed_rate: 70.0000, blade_speed: 120.0000, time: 2, energy_Wh: 81),
  (cut_id: 5, mch_id: 3, mode_id: 14, feed_rate: 70.0000, blade_speed: 150.0000, time: 2, energy_Wh: 62),
  (cut_id: 5, mch_id: 1, mode_id: 14, feed_rate: 70.0000, blade_speed: 150.0000, time: 2, energy_Wh: 62),
  (cut_id: 5, mch_id: 2, mode_id: 14, feed_rate: 70.0000, blade_speed: 150.0000, time: 2, energy_Wh: 62),
  (cut_id: 5, mch_id: 3, mode_id: 15, feed_rate: 70.0000, blade_speed: 180.0000, time: 2, energy_Wh: 65),
  (cut_id: 5, mch_id: 1, mode_id: 15, feed_rate: 70.0000, blade_speed: 180.0000, time: 2, energy_Wh: 65),
  (cut_id: 5, mch_id: 2, mode_id: 15, feed_rate: 70.0000, blade_speed: 180.0000, time: 2, energy_Wh: 65),
  (cut_id: 5, mch_id: 3, mode_id: 16, feed_rate: 87.5000, blade_speed: 60.0000, time: 2, energy_Wh: 81),
  (cut_id: 5, mch_id: 1, mode_id: 16, feed_rate: 87.5000, blade_speed: 60.0000, time: 2, energy_Wh: 81),
  (cut_id: 5, mch_id: 2, mode_id: 16, feed_rate: 87.5000, blade_speed: 60.0000, time: 2, energy_Wh: 81),
  (cut_id: 5, mch_id: 3, mode_id: 17, feed_rate: 87.5000, blade_speed: 90.0000, time: 2, energy_Wh: 117),
  (cut_id: 5, mch_id: 1, mode_id: 17, feed_rate: 87.5000, blade_speed: 90.0000, time: 2, energy_Wh: 117),
  (cut_id: 5, mch_id: 2, mode_id: 17, feed_rate: 87.5000, blade_speed: 90.0000, time: 2, energy_Wh: 117),
  (cut_id: 5, mch_id: 3, mode_id: 18, feed_rate: 87.5000, blade_speed: 120.0000, time: 2, energy_Wh: 115),
  (cut_id: 5, mch_id: 1, mode_id: 18, feed_rate: 87.5000, blade_speed: 120.0000, time: 2, energy_Wh: 115),
  (cut_id: 5, mch_id: 2, mode_id: 18, feed_rate: 87.5000, blade_speed: 120.0000, time: 2, energy_Wh: 115),
  (cut_id: 5, mch_id: 3, mode_id: 19, feed_rate: 87.5000, blade_speed: 150.0000, time: 2, energy_Wh: 76),
  (cut_id: 5, mch_id: 1, mode_id: 19, feed_rate: 87.5000, blade_speed: 150.0000, time: 2, energy_Wh: 76),
  (cut_id: 5, mch_id: 2, mode_id: 19, feed_rate: 87.5000, blade_speed: 150.0000, time: 2, energy_Wh: 76),
  (cut_id: 5, mch_id: 3, mode_id: 20, feed_rate: 87.5000, blade_speed: 180.0000, time: 2, energy_Wh: 76),
  (cut_id: 5, mch_id: 1, mode_id: 20, feed_rate: 87.5000, blade_speed: 180.0000, time: 2, energy_Wh: 76),
  (cut_id: 5, mch_id: 2, mode_id: 20, feed_rate: 87.5000, blade_speed: 180.0000, time: 2, energy_Wh: 76),
  (cut_id: 5, mch_id: 3, mode_id: 21, feed_rate: 105.0000, blade_speed: 60.0000, time: 2, energy_Wh: 105),
  (cut_id: 5, mch_id: 1, mode_id: 21, feed_rate: 105.0000, blade_speed: 60.0000, time: 2, energy_Wh: 105),
  (cut_id: 5, mch_id: 2, mode_id: 21, feed_rate: 105.0000, blade_speed: 60.0000, time: 2, energy_Wh: 105),
  (cut_id: 5, mch_id: 3, mode_id: 22, feed_rate: 105.0000, blade_speed: 90.0000, time: 2, energy_Wh: 172),
  (cut_id: 5, mch_id: 1, mode_id: 22, feed_rate: 105.0000, blade_speed: 90.0000, time: 2, energy_Wh: 172),
  (cut_id: 5, mch_id: 2, mode_id: 22, feed_rate: 105.0000, blade_speed: 90.0000, time: 2, energy_Wh: 172),
  (cut_id: 5, mch_id: 3, mode_id: 23, feed_rate: 105.0000, blade_speed: 120.0000, time: 2, energy_Wh: 157),
  (cut_id: 5, mch_id: 1, mode_id: 23, feed_rate: 105.0000, blade_speed: 120.0000, time: 2, energy_Wh: 157),
  (cut_id: 5, mch_id: 2, mode_id: 23, feed_rate: 105.0000, blade_speed: 120.0000, time: 2, energy_Wh: 157),
  (cut_id: 5, mch_id: 3, mode_id: 24, feed_rate: 105.0000, blade_speed: 150.0000, time: 2, energy_Wh: 101),
  (cut_id: 5, mch_id: 1, mode_id: 24, feed_rate: 105.0000, blade_speed: 150.0000, time: 2, energy_Wh: 101),
  (cut_id: 5, mch_id: 2, mode_id: 24, feed_rate: 105.0000, blade_speed: 150.0000, time: 2, energy_Wh: 101),
  (cut_id: 5, mch_id: 3, mode_id: 25, feed_rate: 105.0000, blade_speed: 180.0000, time: 2, energy_Wh: 112),
  (cut_id: 5, mch_id: 1, mode_id: 25, feed_rate: 105.0000, blade_speed: 180.0000, time: 2, energy_Wh: 112),
  (cut_id: 5, mch_id: 2, mode_id: 25, feed_rate: 105.0000, blade_speed: 180.0000, time: 2, energy_Wh: 112),
  (cut_id: 6, mch_id: 3, mode_id: 1, feed_rate: 15.5000, blade_speed: 7.0000, time: 15, energy_Wh: 40),
  (cut_id: 6, mch_id: 2, mode_id: 1, feed_rate: 15.5000, blade_speed: 7.0000, time: 15, energy_Wh: 40),
  (cut_id: 6, mch_id: 1, mode_id: 1, feed_rate: 15.5000, blade_speed: 7.0000, time: 15, energy_Wh: 40),
  (cut_id: 6, mch_id: 3, mode_id: 2, feed_rate: 15.5000, blade_speed: 10.5000, time: 15, energy_Wh: 28),
  (cut_id: 6, mch_id: 2, mode_id: 2, feed_rate: 15.5000, blade_speed: 10.5000, time: 15, energy_Wh: 28),
  (cut_id: 6, mch_id: 1, mode_id: 2, feed_rate: 15.5000, blade_speed: 10.5000, time: 15, energy_Wh: 28),
  (cut_id: 6, mch_id: 3, mode_id: 3, feed_rate: 15.5000, blade_speed: 14.0000, time: 15, energy_Wh: 44),
  (cut_id: 6, mch_id: 2, mode_id: 3, feed_rate: 15.5000, blade_speed: 14.0000, time: 15, energy_Wh: 44),
  (cut_id: 6, mch_id: 1, mode_id: 3, feed_rate: 15.5000, blade_speed: 14.0000, time: 15, energy_Wh: 44),
  (cut_id: 6, mch_id: 3, mode_id: 4, feed_rate: 15.5000, blade_speed: 17.5000, time: 15, energy_Wh: 25),
  (cut_id: 6, mch_id: 2, mode_id: 4, feed_rate: 15.5000, blade_speed: 17.5000, time: 15, energy_Wh: 25),
  (cut_id: 6, mch_id: 1, mode_id: 4, feed_rate: 15.5000, blade_speed: 17.5000, time: 15, energy_Wh: 25),
  (cut_id: 6, mch_id: 3, mode_id: 5, feed_rate: 15.5000, blade_speed: 21.0000, time: 15, energy_Wh: 60),
  (cut_id: 6, mch_id: 2, mode_id: 5, feed_rate: 15.5000, blade_speed: 21.0000, time: 15, energy_Wh: 60),
  (cut_id: 6, mch_id: 1, mode_id: 5, feed_rate: 15.5000, blade_speed: 21.0000, time: 15, energy_Wh: 60),
  (cut_id: 6, mch_id: 3, mode_id: 6, feed_rate: 23.2500, blade_speed: 7.0000, time: 10, energy_Wh: 59),
  (cut_id: 6, mch_id: 2, mode_id: 6, feed_rate: 23.2500, blade_speed: 7.0000, time: 10, energy_Wh: 59),
  (cut_id: 6, mch_id: 1, mode_id: 6, feed_rate: 23.2500, blade_speed: 7.0000, time: 10, energy_Wh: 59),
  (cut_id: 6, mch_id: 3, mode_id: 7, feed_rate: 23.2500, blade_speed: 10.5000, time: 10, energy_Wh: 40),
  (cut_id: 6, mch_id: 2, mode_id: 7, feed_rate: 23.2500, blade_speed: 10.5000, time: 10, energy_Wh: 40),
  (cut_id: 6, mch_id: 1, mode_id: 7, feed_rate: 23.2500, blade_speed: 10.5000, time: 10, energy_Wh: 40),
  (cut_id: 6, mch_id: 3, mode_id: 8, feed_rate: 23.2500, blade_speed: 14.0000, time: 10, energy_Wh: 73),
  (cut_id: 6, mch_id: 2, mode_id: 8, feed_rate: 23.2500, blade_speed: 14.0000, time: 10, energy_Wh: 73),
  (cut_id: 6, mch_id: 1, mode_id: 8, feed_rate: 23.2500, blade_speed: 14.0000, time: 10, energy_Wh: 73),
  (cut_id: 6, mch_id: 3, mode_id: 9, feed_rate: 23.2500, blade_speed: 17.5000, time: 10, energy_Wh: 31),
  (cut_id: 6, mch_id: 2, mode_id: 9, feed_rate: 23.2500, blade_speed: 17.5000, time: 10, energy_Wh: 31),
  (cut_id: 6, mch_id: 1, mode_id: 9, feed_rate: 23.2500, blade_speed: 17.5000, time: 10, energy_Wh: 31),
  (cut_id: 6, mch_id: 3, mode_id: 10, feed_rate: 23.2500, blade_speed: 21.0000, time: 10, energy_Wh: 62),
  (cut_id: 6, mch_id: 2, mode_id: 10, feed_rate: 23.2500, blade_speed: 21.0000, time: 10, energy_Wh: 62),
  (cut_id: 6, mch_id: 1, mode_id: 10, feed_rate: 23.2500, blade_speed: 21.0000, time: 10, energy_Wh: 62),
  (cut_id: 6, mch_id: 3, mode_id: 11, feed_rate: 31.0000, blade_speed: 7.0000, time: 8, energy_Wh: 58),
  (cut_id: 6, mch_id: 2, mode_id: 11, feed_rate: 31.0000, blade_speed: 7.0000, time: 8, energy_Wh: 58),
  (cut_id: 6, mch_id: 1, mode_id: 11, feed_rate: 31.0000, blade_speed: 7.0000, time: 8, energy_Wh: 58),
  (cut_id: 6, mch_id: 3, mode_id: 12, feed_rate: 31.0000, blade_speed: 10.5000, time: 8, energy_Wh: 39),
  (cut_id: 6, mch_id: 2, mode_id: 12, feed_rate: 31.0000, blade_speed: 10.5000, time: 8, energy_Wh: 39),
  (cut_id: 6, mch_id: 1, mode_id: 12, feed_rate: 31.0000, blade_speed: 10.5000, time: 8, energy_Wh: 39),
  (cut_id: 6, mch_id: 3, mode_id: 13, feed_rate: 31.0000, blade_speed: 14.0000, time: 8, energy_Wh: 71),
  (cut_id: 6, mch_id: 2, mode_id: 13, feed_rate: 31.0000, blade_speed: 14.0000, time: 8, energy_Wh: 71),
  (cut_id: 6, mch_id: 1, mode_id: 13, feed_rate: 31.0000, blade_speed: 14.0000, time: 8, energy_Wh: 71),
  (cut_id: 6, mch_id: 3, mode_id: 14, feed_rate: 31.0000, blade_speed: 17.5000, time: 8, energy_Wh: 32),
  (cut_id: 6, mch_id: 2, mode_id: 14, feed_rate: 31.0000, blade_speed: 17.5000, time: 8, energy_Wh: 32),
  (cut_id: 6, mch_id: 1, mode_id: 14, feed_rate: 31.0000, blade_speed: 17.5000, time: 8, energy_Wh: 32),
  (cut_id: 6, mch_id: 3, mode_id: 15, feed_rate: 31.0000, blade_speed: 21.0000, time: 8, energy_Wh: 78),
  (cut_id: 6, mch_id: 2, mode_id: 15, feed_rate: 31.0000, blade_speed: 21.0000, time: 8, energy_Wh: 78),
  (cut_id: 6, mch_id: 1, mode_id: 15, feed_rate: 31.0000, blade_speed: 21.0000, time: 8, energy_Wh: 78),
  (cut_id: 6, mch_id: 3, mode_id: 16, feed_rate: 38.7500, blade_speed: 7.0000, time: 6, energy_Wh: 72),
  (cut_id: 6, mch_id: 2, mode_id: 16, feed_rate: 38.7500, blade_speed: 7.0000, time: 6, energy_Wh: 72),
  (cut_id: 6, mch_id: 1, mode_id: 16, feed_rate: 38.7500, blade_speed: 7.0000, time: 6, energy_Wh: 72),
  (cut_id: 6, mch_id: 3, mode_id: 17, feed_rate: 38.7500, blade_speed: 10.5000, time: 6, energy_Wh: 51),
  (cut_id: 6, mch_id: 2, mode_id: 17, feed_rate: 38.7500, blade_speed: 10.5000, time: 6, energy_Wh: 51),
  (cut_id: 6, mch_id: 1, mode_id: 17, feed_rate: 38.7500, blade_speed: 10.5000, time: 6, energy_Wh: 51),
  (cut_id: 6, mch_id: 3, mode_id: 18, feed_rate: 38.7500, blade_speed: 14.0000, time: 6, energy_Wh: 70),
  (cut_id: 6, mch_id: 2, mode_id: 18, feed_rate: 38.7500, blade_speed: 14.0000, time: 6, energy_Wh: 70),
  (cut_id: 6, mch_id: 1, mode_id: 18, feed_rate: 38.7500, blade_speed: 14.0000, time: 6, energy_Wh: 70),
  (cut_id: 6, mch_id: 3, mode_id: 19, feed_rate: 38.7500, blade_speed: 17.5000, time: 6, energy_Wh: 36),
  (cut_id: 6, mch_id: 2, mode_id: 19, feed_rate: 38.7500, blade_speed: 17.5000, time: 6, energy_Wh: 36),
  (cut_id: 6, mch_id: 1, mode_id: 19, feed_rate: 38.7500, blade_speed: 17.5000, time: 6, energy_Wh: 36),
  (cut_id: 6, mch_id: 3, mode_id: 20, feed_rate: 38.7500, blade_speed: 21.0000, time: 6, energy_Wh: 85),
  (cut_id: 6, mch_id: 2, mode_id: 20, feed_rate: 38.7500, blade_speed: 21.0000, time: 6, energy_Wh: 85),
  (cut_id: 6, mch_id: 1, mode_id: 20, feed_rate: 38.7500, blade_speed: 21.0000, time: 6, energy_Wh: 85),
  (cut_id: 6, mch_id: 3, mode_id: 21, feed_rate: 46.5000, blade_speed: 7.0000, time: 5, energy_Wh: 64),
  (cut_id: 6, mch_id: 2, mode_id: 21, feed_rate: 46.5000, blade_speed: 7.0000, time: 5, energy_Wh: 64),
  (cut_id: 6, mch_id: 1, mode_id: 21, feed_rate: 46.5000, blade_speed: 7.0000, time: 5, energy_Wh: 64),
  (cut_id: 6, mch_id: 3, mode_id: 22, feed_rate: 46.5000, blade_speed: 10.5000, time: 5, energy_Wh: 50),
  (cut_id: 6, mch_id: 2, mode_id: 22, feed_rate: 46.5000, blade_speed: 10.5000, time: 5, energy_Wh: 50),
  (cut_id: 6, mch_id: 1, mode_id: 22, feed_rate: 46.5000, blade_speed: 10.5000, time: 5, energy_Wh: 50),
  (cut_id: 6, mch_id: 3, mode_id: 23, feed_rate: 46.5000, blade_speed: 14.0000, time: 5, energy_Wh: 101),
  (cut_id: 6, mch_id: 2, mode_id: 23, feed_rate: 46.5000, blade_speed: 14.0000, time: 5, energy_Wh: 101),
  (cut_id: 6, mch_id: 1, mode_id: 23, feed_rate: 46.5000, blade_speed: 14.0000, time: 5, energy_Wh: 101),
  (cut_id: 6, mch_id: 3, mode_id: 24, feed_rate: 46.5000, blade_speed: 17.5000, time: 5, energy_Wh: 52),
  (cut_id: 6, mch_id: 2, mode_id: 24, feed_rate: 46.5000, blade_speed: 17.5000, time: 5, energy_Wh: 52),
  (cut_id: 6, mch_id: 1, mode_id: 24, feed_rate: 46.5000, blade_speed: 17.5000, time: 5, energy_Wh: 52),
  (cut_id: 6, mch_id: 3, mode_id: 25, feed_rate: 46.5000, blade_speed: 21.0000, time: 5, energy_Wh: 86),
  (cut_id: 6, mch_id: 2, mode_id: 25, feed_rate: 46.5000, blade_speed: 21.0000, time: 5, energy_Wh: 86),
  (cut_id: 6, mch_id: 1, mode_id: 25, feed_rate: 46.5000, blade_speed: 21.0000, time: 5, energy_Wh: 86),
  (cut_id: 7, mch_id: 2, mode_id: 1, feed_rate: 19.5000, blade_speed: 11.5000, time: 15, energy_Wh: 39),
  (cut_id: 7, mch_id: 1, mode_id: 1, feed_rate: 19.5000, blade_speed: 11.5000, time: 15, energy_Wh: 39),
  (cut_id: 7, mch_id: 3, mode_id: 1, feed_rate: 19.5000, blade_speed: 11.5000, time: 15, energy_Wh: 39),
  (cut_id: 7, mch_id: 2, mode_id: 2, feed_rate: 19.5000, blade_speed: 17.2500, time: 15, energy_Wh: 28),
  (cut_id: 7, mch_id: 1, mode_id: 2, feed_rate: 19.5000, blade_speed: 17.2500, time: 15, energy_Wh: 28),
  (cut_id: 7, mch_id: 3, mode_id: 2, feed_rate: 19.5000, blade_speed: 17.2500, time: 15, energy_Wh: 28),
  (cut_id: 7, mch_id: 2, mode_id: 3, feed_rate: 19.5000, blade_speed: 23.0000, time: 15, energy_Wh: 28),
  (cut_id: 7, mch_id: 1, mode_id: 3, feed_rate: 19.5000, blade_speed: 23.0000, time: 15, energy_Wh: 28),
  (cut_id: 7, mch_id: 3, mode_id: 3, feed_rate: 19.5000, blade_speed: 23.0000, time: 15, energy_Wh: 28),
  (cut_id: 7, mch_id: 2, mode_id: 4, feed_rate: 19.5000, blade_speed: 28.7500, time: 15, energy_Wh: 33),
  (cut_id: 7, mch_id: 1, mode_id: 4, feed_rate: 19.5000, blade_speed: 28.7500, time: 15, energy_Wh: 33),
  (cut_id: 7, mch_id: 3, mode_id: 4, feed_rate: 19.5000, blade_speed: 28.7500, time: 15, energy_Wh: 33),
  (cut_id: 7, mch_id: 2, mode_id: 5, feed_rate: 19.5000, blade_speed: 34.5000, time: 15, energy_Wh: 50),
  (cut_id: 7, mch_id: 1, mode_id: 5, feed_rate: 19.5000, blade_speed: 34.5000, time: 15, energy_Wh: 50),
  (cut_id: 7, mch_id: 3, mode_id: 5, feed_rate: 19.5000, blade_speed: 34.5000, time: 15, energy_Wh: 50),
  (cut_id: 7, mch_id: 2, mode_id: 6, feed_rate: 29.2500, blade_speed: 11.5000, time: 10, energy_Wh: 35),
  (cut_id: 7, mch_id: 1, mode_id: 6, feed_rate: 29.2500, blade_speed: 11.5000, time: 10, energy_Wh: 35),
  (cut_id: 7, mch_id: 3, mode_id: 6, feed_rate: 29.2500, blade_speed: 11.5000, time: 10, energy_Wh: 35),
  (cut_id: 7, mch_id: 2, mode_id: 7, feed_rate: 29.2500, blade_speed: 17.2500, time: 10, energy_Wh: 34),
  (cut_id: 7, mch_id: 1, mode_id: 7, feed_rate: 29.2500, blade_speed: 17.2500, time: 10, energy_Wh: 34),
  (cut_id: 7, mch_id: 3, mode_id: 7, feed_rate: 29.2500, blade_speed: 17.2500, time: 10, energy_Wh: 34),
  (cut_id: 7, mch_id: 2, mode_id: 8, feed_rate: 29.2500, blade_speed: 23.0000, time: 10, energy_Wh: 40),
  (cut_id: 7, mch_id: 1, mode_id: 8, feed_rate: 29.2500, blade_speed: 23.0000, time: 10, energy_Wh: 40),
  (cut_id: 7, mch_id: 3, mode_id: 8, feed_rate: 29.2500, blade_speed: 23.0000, time: 10, energy_Wh: 40),
  (cut_id: 7, mch_id: 2, mode_id: 9, feed_rate: 29.2500, blade_speed: 28.7500, time: 10, energy_Wh: 37),
  (cut_id: 7, mch_id: 1, mode_id: 9, feed_rate: 29.2500, blade_speed: 28.7500, time: 10, energy_Wh: 37),
  (cut_id: 7, mch_id: 3, mode_id: 9, feed_rate: 29.2500, blade_speed: 28.7500, time: 10, energy_Wh: 37),
  (cut_id: 7, mch_id: 2, mode_id: 10, feed_rate: 29.2500, blade_speed: 34.5000, time: 10, energy_Wh: 58),
  (cut_id: 7, mch_id: 1, mode_id: 10, feed_rate: 29.2500, blade_speed: 34.5000, time: 10, energy_Wh: 58),
  (cut_id: 7, mch_id: 3, mode_id: 10, feed_rate: 29.2500, blade_speed: 34.5000, time: 10, energy_Wh: 58),
  (cut_id: 7, mch_id: 2, mode_id: 11, feed_rate: 39.0000, blade_speed: 11.5000, time: 8, energy_Wh: 50),
  (cut_id: 7, mch_id: 1, mode_id: 11, feed_rate: 39.0000, blade_speed: 11.5000, time: 8, energy_Wh: 50),
  (cut_id: 7, mch_id: 3, mode_id: 11, feed_rate: 39.0000, blade_speed: 11.5000, time: 8, energy_Wh: 50),
  (cut_id: 7, mch_id: 2, mode_id: 12, feed_rate: 39.0000, blade_speed: 17.2500, time: 8, energy_Wh: 38),
  (cut_id: 7, mch_id: 1, mode_id: 12, feed_rate: 39.0000, blade_speed: 17.2500, time: 8, energy_Wh: 38),
  (cut_id: 7, mch_id: 3, mode_id: 12, feed_rate: 39.0000, blade_speed: 17.2500, time: 8, energy_Wh: 38),
  (cut_id: 7, mch_id: 2, mode_id: 13, feed_rate: 39.0000, blade_speed: 23.0000, time: 8, energy_Wh: 37),
  (cut_id: 7, mch_id: 1, mode_id: 13, feed_rate: 39.0000, blade_speed: 23.0000, time: 8, energy_Wh: 37),
  (cut_id: 7, mch_id: 3, mode_id: 13, feed_rate: 39.0000, blade_speed: 23.0000, time: 8, energy_Wh: 37),
  (cut_id: 7, mch_id: 2, mode_id: 14, feed_rate: 39.0000, blade_speed: 28.7500, time: 8, energy_Wh: 48),
  (cut_id: 7, mch_id: 1, mode_id: 14, feed_rate: 39.0000, blade_speed: 28.7500, time: 8, energy_Wh: 48),
  (cut_id: 7, mch_id: 3, mode_id: 14, feed_rate: 39.0000, blade_speed: 28.7500, time: 8, energy_Wh: 48),
  (cut_id: 7, mch_id: 2, mode_id: 15, feed_rate: 39.0000, blade_speed: 34.5000, time: 8, energy_Wh: 50),
  (cut_id: 7, mch_id: 1, mode_id: 15, feed_rate: 39.0000, blade_speed: 34.5000, time: 8, energy_Wh: 50),
  (cut_id: 7, mch_id: 3, mode_id: 15, feed_rate: 39.0000, blade_speed: 34.5000, time: 8, energy_Wh: 50),
  (cut_id: 7, mch_id: 2, mode_id: 16, feed_rate: 48.7500, blade_speed: 11.5000, time: 6, energy_Wh: 59),
  (cut_id: 7, mch_id: 1, mode_id: 16, feed_rate: 48.7500, blade_speed: 11.5000, time: 6, energy_Wh: 59),
  (cut_id: 7, mch_id: 3, mode_id: 16, feed_rate: 48.7500, blade_speed: 11.5000, time: 6, energy_Wh: 59),
  (cut_id: 7, mch_id: 2, mode_id: 17, feed_rate: 48.7500, blade_speed: 17.2500, time: 6, energy_Wh: 50),
  (cut_id: 7, mch_id: 1, mode_id: 17, feed_rate: 48.7500, blade_speed: 17.2500, time: 6, energy_Wh: 50),
  (cut_id: 7, mch_id: 3, mode_id: 17, feed_rate: 48.7500, blade_speed: 17.2500, time: 6, energy_Wh: 50),
  (cut_id: 7, mch_id: 2, mode_id: 18, feed_rate: 48.7500, blade_speed: 23.0000, time: 6, energy_Wh: 60),
  (cut_id: 7, mch_id: 1, mode_id: 18, feed_rate: 48.7500, blade_speed: 23.0000, time: 6, energy_Wh: 60),
  (cut_id: 7, mch_id: 3, mode_id: 18, feed_rate: 48.7500, blade_speed: 23.0000, time: 6, energy_Wh: 60),
  (cut_id: 7, mch_id: 2, mode_id: 19, feed_rate: 48.7500, blade_speed: 28.7500, time: 6, energy_Wh: 66),
  (cut_id: 7, mch_id: 1, mode_id: 19, feed_rate: 48.7500, blade_speed: 28.7500, time: 6, energy_Wh: 66),
  (cut_id: 7, mch_id: 3, mode_id: 19, feed_rate: 48.7500, blade_speed: 28.7500, time: 6, energy_Wh: 66),
  (cut_id: 7, mch_id: 2, mode_id: 20, feed_rate: 48.7500, blade_speed: 34.5000, time: 6, energy_Wh: 60),
  (cut_id: 7, mch_id: 1, mode_id: 20, feed_rate: 48.7500, blade_speed: 34.5000, time: 6, energy_Wh: 60),
  (cut_id: 7, mch_id: 3, mode_id: 20, feed_rate: 48.7500, blade_speed: 34.5000, time: 6, energy_Wh: 60),
  (cut_id: 7, mch_id: 2, mode_id: 21, feed_rate: 58.5000, blade_speed: 11.5000, time: 5, energy_Wh: 67),
  (cut_id: 7, mch_id: 1, mode_id: 21, feed_rate: 58.5000, blade_speed: 11.5000, time: 5, energy_Wh: 67),
  (cut_id: 7, mch_id: 3, mode_id: 21, feed_rate: 58.5000, blade_speed: 11.5000, time: 5, energy_Wh: 67),
  (cut_id: 7, mch_id: 2, mode_id: 22, feed_rate: 58.5000, blade_speed: 17.2500, time: 5, energy_Wh: 63),
  (cut_id: 7, mch_id: 1, mode_id: 22, feed_rate: 58.5000, blade_speed: 17.2500, time: 5, energy_Wh: 63),
  (cut_id: 7, mch_id: 3, mode_id: 22, feed_rate: 58.5000, blade_speed: 17.2500, time: 5, energy_Wh: 63),
  (cut_id: 7, mch_id: 2, mode_id: 23, feed_rate: 58.5000, blade_speed: 23.0000, time: 5, energy_Wh: 64),
  (cut_id: 7, mch_id: 1, mode_id: 23, feed_rate: 58.5000, blade_speed: 23.0000, time: 5, energy_Wh: 64),
  (cut_id: 7, mch_id: 3, mode_id: 23, feed_rate: 58.5000, blade_speed: 23.0000, time: 5, energy_Wh: 64),
  (cut_id: 7, mch_id: 2, mode_id: 24, feed_rate: 58.5000, blade_speed: 28.7500, time: 5, energy_Wh: 64),
  (cut_id: 7, mch_id: 1, mode_id: 24, feed_rate: 58.5000, blade_speed: 28.7500, time: 5, energy_Wh: 64),
  (cut_id: 7, mch_id: 3, mode_id: 24, feed_rate: 58.5000, blade_speed: 28.7500, time: 5, energy_Wh: 64),
  (cut_id: 7, mch_id: 2, mode_id: 25, feed_rate: 58.5000, blade_speed: 34.5000, time: 5, energy_Wh: 83),
  (cut_id: 7, mch_id: 1, mode_id: 25, feed_rate: 58.5000, blade_speed: 34.5000, time: 5, energy_Wh: 83),
  (cut_id: 7, mch_id: 3, mode_id: 25, feed_rate: 58.5000, blade_speed: 34.5000, time: 5, energy_Wh: 83),
  (cut_id: 8, mch_id: 3, mode_id: 1, feed_rate: 10.0000, blade_speed: 3.9700, time: 4, energy_Wh: 20),
  (cut_id: 8, mch_id: 1, mode_id: 1, feed_rate: 10.0000, blade_speed: 3.9700, time: 4, energy_Wh: 20),
  (cut_id: 8, mch_id: 2, mode_id: 1, feed_rate: 10.0000, blade_speed: 3.9700, time: 4, energy_Wh: 20),
  (cut_id: 8, mch_id: 3, mode_id: 2, feed_rate: 10.0000, blade_speed: 5.9600, time: 4, energy_Wh: 25),
  (cut_id: 8, mch_id: 1, mode_id: 2, feed_rate: 10.0000, blade_speed: 5.9600, time: 4, energy_Wh: 25),
  (cut_id: 8, mch_id: 2, mode_id: 2, feed_rate: 10.0000, blade_speed: 5.9600, time: 4, energy_Wh: 25),
  (cut_id: 8, mch_id: 3, mode_id: 3, feed_rate: 10.0000, blade_speed: 7.9400, time: 4, energy_Wh: 33),
  (cut_id: 8, mch_id: 1, mode_id: 3, feed_rate: 10.0000, blade_speed: 7.9400, time: 4, energy_Wh: 33),
  (cut_id: 8, mch_id: 2, mode_id: 3, feed_rate: 10.0000, blade_speed: 7.9400, time: 4, energy_Wh: 33),
  (cut_id: 8, mch_id: 3, mode_id: 4, feed_rate: 10.0000, blade_speed: 9.9300, time: 4, energy_Wh: 25),
  (cut_id: 8, mch_id: 1, mode_id: 4, feed_rate: 10.0000, blade_speed: 9.9300, time: 4, energy_Wh: 25),
  (cut_id: 8, mch_id: 2, mode_id: 4, feed_rate: 10.0000, blade_speed: 9.9300, time: 4, energy_Wh: 25),
  (cut_id: 8, mch_id: 3, mode_id: 5, feed_rate: 10.0000, blade_speed: 11.9100, time: 4, energy_Wh: 23),
  (cut_id: 8, mch_id: 1, mode_id: 5, feed_rate: 10.0000, blade_speed: 11.9100, time: 4, energy_Wh: 23),
  (cut_id: 8, mch_id: 2, mode_id: 5, feed_rate: 10.0000, blade_speed: 11.9100, time: 4, energy_Wh: 23),
  (cut_id: 8, mch_id: 3, mode_id: 6, feed_rate: 15.0000, blade_speed: 3.9700, time: 3, energy_Wh: 20),
  (cut_id: 8, mch_id: 1, mode_id: 6, feed_rate: 15.0000, blade_speed: 3.9700, time: 3, energy_Wh: 20),
  (cut_id: 8, mch_id: 2, mode_id: 6, feed_rate: 15.0000, blade_speed: 3.9700, time: 3, energy_Wh: 20),
  (cut_id: 8, mch_id: 3, mode_id: 7, feed_rate: 15.0000, blade_speed: 5.9600, time: 3, energy_Wh: 23),
  (cut_id: 8, mch_id: 1, mode_id: 7, feed_rate: 15.0000, blade_speed: 5.9600, time: 3, energy_Wh: 23),
  (cut_id: 8, mch_id: 2, mode_id: 7, feed_rate: 15.0000, blade_speed: 5.9600, time: 3, energy_Wh: 23),
  (cut_id: 8, mch_id: 3, mode_id: 8, feed_rate: 15.0000, blade_speed: 7.9400, time: 3, energy_Wh: 36),
  (cut_id: 8, mch_id: 1, mode_id: 8, feed_rate: 15.0000, blade_speed: 7.9400, time: 3, energy_Wh: 36),
  (cut_id: 8, mch_id: 2, mode_id: 8, feed_rate: 15.0000, blade_speed: 7.9400, time: 3, energy_Wh: 36),
  (cut_id: 8, mch_id: 3, mode_id: 9, feed_rate: 15.0000, blade_speed: 9.9300, time: 3, energy_Wh: 26),
  (cut_id: 8, mch_id: 1, mode_id: 9, feed_rate: 15.0000, blade_speed: 9.9300, time: 3, energy_Wh: 26),
  (cut_id: 8, mch_id: 2, mode_id: 9, feed_rate: 15.0000, blade_speed: 9.9300, time: 3, energy_Wh: 26),
  (cut_id: 8, mch_id: 3, mode_id: 10, feed_rate: 15.0000, blade_speed: 11.9100, time: 3, energy_Wh: 23),
  (cut_id: 8, mch_id: 1, mode_id: 10, feed_rate: 15.0000, blade_speed: 11.9100, time: 3, energy_Wh: 23),
  (cut_id: 8, mch_id: 2, mode_id: 10, feed_rate: 15.0000, blade_speed: 11.9100, time: 3, energy_Wh: 23),
  (cut_id: 8, mch_id: 3, mode_id: 11, feed_rate: 20.0000, blade_speed: 3.9700, time: 2, energy_Wh: 26),
  (cut_id: 8, mch_id: 1, mode_id: 11, feed_rate: 20.0000, blade_speed: 3.9700, time: 2, energy_Wh: 26),
  (cut_id: 8, mch_id: 2, mode_id: 11, feed_rate: 20.0000, blade_speed: 3.9700, time: 2, energy_Wh: 26),
  (cut_id: 8, mch_id: 3, mode_id: 12, feed_rate: 20.0000, blade_speed: 5.9600, time: 2, energy_Wh: 24),
  (cut_id: 8, mch_id: 1, mode_id: 12, feed_rate: 20.0000, blade_speed: 5.9600, time: 2, energy_Wh: 24),
  (cut_id: 8, mch_id: 2, mode_id: 12, feed_rate: 20.0000, blade_speed: 5.9600, time: 2, energy_Wh: 24),
  (cut_id: 8, mch_id: 3, mode_id: 13, feed_rate: 20.0000, blade_speed: 7.9400, time: 2, energy_Wh: 32),
  (cut_id: 8, mch_id: 1, mode_id: 13, feed_rate: 20.0000, blade_speed: 7.9400, time: 2, energy_Wh: 32),
  (cut_id: 8, mch_id: 2, mode_id: 13, feed_rate: 20.0000, blade_speed: 7.9400, time: 2, energy_Wh: 32),
  (cut_id: 8, mch_id: 3, mode_id: 14, feed_rate: 20.0000, blade_speed: 9.9300, time: 2, energy_Wh: 28),
  (cut_id: 8, mch_id: 1, mode_id: 14, feed_rate: 20.0000, blade_speed: 9.9300, time: 2, energy_Wh: 28),
  (cut_id: 8, mch_id: 2, mode_id: 14, feed_rate: 20.0000, blade_speed: 9.9300, time: 2, energy_Wh: 28),
  (cut_id: 8, mch_id: 3, mode_id: 15, feed_rate: 20.0000, blade_speed: 11.9100, time: 2, energy_Wh: 28),
  (cut_id: 8, mch_id: 1, mode_id: 15, feed_rate: 20.0000, blade_speed: 11.9100, time: 2, energy_Wh: 28),
  (cut_id: 8, mch_id: 2, mode_id: 15, feed_rate: 20.0000, blade_speed: 11.9100, time: 2, energy_Wh: 28),
  (cut_id: 8, mch_id: 3, mode_id: 16, feed_rate: 25.0000, blade_speed: 3.9700, time: 2, energy_Wh: 23),
  (cut_id: 8, mch_id: 1, mode_id: 16, feed_rate: 25.0000, blade_speed: 3.9700, time: 2, energy_Wh: 23),
  (cut_id: 8, mch_id: 2, mode_id: 16, feed_rate: 25.0000, blade_speed: 3.9700, time: 2, energy_Wh: 23),
  (cut_id: 8, mch_id: 3, mode_id: 17, feed_rate: 25.0000, blade_speed: 5.9600, time: 2, energy_Wh: 28),
  (cut_id: 8, mch_id: 1, mode_id: 17, feed_rate: 25.0000, blade_speed: 5.9600, time: 2, energy_Wh: 28),
  (cut_id: 8, mch_id: 2, mode_id: 17, feed_rate: 25.0000, blade_speed: 5.9600, time: 2, energy_Wh: 28),
  (cut_id: 8, mch_id: 3, mode_id: 18, feed_rate: 25.0000, blade_speed: 7.9400, time: 2, energy_Wh: 36),
  (cut_id: 8, mch_id: 1, mode_id: 18, feed_rate: 25.0000, blade_speed: 7.9400, time: 2, energy_Wh: 36),
  (cut_id: 8, mch_id: 2, mode_id: 18, feed_rate: 25.0000, blade_speed: 7.9400, time: 2, energy_Wh: 36),
  (cut_id: 8, mch_id: 3, mode_id: 19, feed_rate: 25.0000, blade_speed: 9.9300, time: 2, energy_Wh: 24),
  (cut_id: 8, mch_id: 1, mode_id: 19, feed_rate: 25.0000, blade_speed: 9.9300, time: 2, energy_Wh: 24),
  (cut_id: 8, mch_id: 2, mode_id: 19, feed_rate: 25.0000, blade_speed: 9.9300, time: 2, energy_Wh: 24),
  (cut_id: 8, mch_id: 3, mode_id: 20, feed_rate: 25.0000, blade_speed: 11.9100, time: 2, energy_Wh: 26),
  (cut_id: 8, mch_id: 1, mode_id: 20, feed_rate: 25.0000, blade_speed: 11.9100, time: 2, energy_Wh: 26),
  (cut_id: 8, mch_id: 2, mode_id: 20, feed_rate: 25.0000, blade_speed: 11.9100, time: 2, energy_Wh: 26),
  (cut_id: 8, mch_id: 3, mode_id: 21, feed_rate: 30.0000, blade_speed: 3.9700, time: 2, energy_Wh: 29),
  (cut_id: 8, mch_id: 1, mode_id: 21, feed_rate: 30.0000, blade_speed: 3.9700, time: 2, energy_Wh: 29),
  (cut_id: 8, mch_id: 2, mode_id: 21, feed_rate: 30.0000, blade_speed: 3.9700, time: 2, energy_Wh: 29),
  (cut_id: 8, mch_id: 3, mode_id: 22, feed_rate: 30.0000, blade_speed: 5.9600, time: 2, energy_Wh: 27),
  (cut_id: 8, mch_id: 1, mode_id: 22, feed_rate: 30.0000, blade_speed: 5.9600, time: 2, energy_Wh: 27),
  (cut_id: 8, mch_id: 2, mode_id: 22, feed_rate: 30.0000, blade_speed: 5.9600, time: 2, energy_Wh: 27),
  (cut_id: 8, mch_id: 3, mode_id: 23, feed_rate: 30.0000, blade_speed: 7.9400, time: 2, energy_Wh: 42),
  (cut_id: 8, mch_id: 1, mode_id: 23, feed_rate: 30.0000, blade_speed: 7.9400, time: 2, energy_Wh: 42),
  (cut_id: 8, mch_id: 2, mode_id: 23, feed_rate: 30.0000, blade_speed: 7.9400, time: 2, energy_Wh: 42),
  (cut_id: 8, mch_id: 3, mode_id: 24, feed_rate: 30.0000, blade_speed: 9.9300, time: 2, energy_Wh: 31),
  (cut_id: 8, mch_id: 1, mode_id: 24, feed_rate: 30.0000, blade_speed: 9.9300, time: 2, energy_Wh: 31),
  (cut_id: 8, mch_id: 2, mode_id: 24, feed_rate: 30.0000, blade_speed: 9.9300, time: 2, energy_Wh: 31),
  (cut_id: 8, mch_id: 3, mode_id: 25, feed_rate: 30.0000, blade_speed: 11.9100, time: 2, energy_Wh: 31),
  (cut_id: 8, mch_id: 1, mode_id: 25, feed_rate: 30.0000, blade_speed: 11.9100, time: 2, energy_Wh: 31),
  (cut_id: 8, mch_id: 2, mode_id: 25, feed_rate: 30.0000, blade_speed: 11.9100, time: 2, energy_Wh: 31),
  (cut_id: 9, mch_id: 3, mode_id: 1, feed_rate: 8.7400, blade_speed: 2.1200, time: 3, energy_Wh: 30),
  (cut_id: 9, mch_id: 2, mode_id: 1, feed_rate: 8.7400, blade_speed: 2.1200, time: 3, energy_Wh: 30),
  (cut_id: 9, mch_id: 1, mode_id: 1, feed_rate: 8.7400, blade_speed: 2.1200, time: 3, energy_Wh: 30),
  (cut_id: 9, mch_id: 3, mode_id: 2, feed_rate: 8.7400, blade_speed: 3.1800, time: 3, energy_Wh: 27),
  (cut_id: 9, mch_id: 2, mode_id: 2, feed_rate: 8.7400, blade_speed: 3.1800, time: 3, energy_Wh: 27),
  (cut_id: 9, mch_id: 1, mode_id: 2, feed_rate: 8.7400, blade_speed: 3.1800, time: 3, energy_Wh: 27),
  (cut_id: 9, mch_id: 3, mode_id: 3, feed_rate: 8.7400, blade_speed: 4.2400, time: 3, energy_Wh: 14),
  (cut_id: 9, mch_id: 2, mode_id: 3, feed_rate: 8.7400, blade_speed: 4.2400, time: 3, energy_Wh: 14),
  (cut_id: 9, mch_id: 1, mode_id: 3, feed_rate: 8.7400, blade_speed: 4.2400, time: 3, energy_Wh: 14),
  (cut_id: 9, mch_id: 3, mode_id: 4, feed_rate: 8.7400, blade_speed: 5.2900, time: 3, energy_Wh: 19),
  (cut_id: 9, mch_id: 2, mode_id: 4, feed_rate: 8.7400, blade_speed: 5.2900, time: 3, energy_Wh: 19),
  (cut_id: 9, mch_id: 1, mode_id: 4, feed_rate: 8.7400, blade_speed: 5.2900, time: 3, energy_Wh: 19),
  (cut_id: 9, mch_id: 3, mode_id: 5, feed_rate: 8.7400, blade_speed: 6.3500, time: 3, energy_Wh: 24),
  (cut_id: 9, mch_id: 2, mode_id: 5, feed_rate: 8.7400, blade_speed: 6.3500, time: 3, energy_Wh: 24),
  (cut_id: 9, mch_id: 1, mode_id: 5, feed_rate: 8.7400, blade_speed: 6.3500, time: 3, energy_Wh: 24),
  (cut_id: 9, mch_id: 3, mode_id: 6, feed_rate: 13.1000, blade_speed: 2.1200, time: 2, energy_Wh: 36),
  (cut_id: 9, mch_id: 2, mode_id: 6, feed_rate: 13.1000, blade_speed: 2.1200, time: 2, energy_Wh: 36),
  (cut_id: 9, mch_id: 1, mode_id: 6, feed_rate: 13.1000, blade_speed: 2.1200, time: 2, energy_Wh: 36),
  (cut_id: 9, mch_id: 3, mode_id: 7, feed_rate: 13.1000, blade_speed: 3.1800, time: 2, energy_Wh: 21),
  (cut_id: 9, mch_id: 2, mode_id: 7, feed_rate: 13.1000, blade_speed: 3.1800, time: 2, energy_Wh: 21),
  (cut_id: 9, mch_id: 1, mode_id: 7, feed_rate: 13.1000, blade_speed: 3.1800, time: 2, energy_Wh: 21),
  (cut_id: 9, mch_id: 3, mode_id: 8, feed_rate: 13.1000, blade_speed: 4.2400, time: 2, energy_Wh: 16),
  (cut_id: 9, mch_id: 2, mode_id: 8, feed_rate: 13.1000, blade_speed: 4.2400, time: 2, energy_Wh: 16),
  (cut_id: 9, mch_id: 1, mode_id: 8, feed_rate: 13.1000, blade_speed: 4.2400, time: 2, energy_Wh: 16),
  (cut_id: 9, mch_id: 3, mode_id: 9, feed_rate: 13.1000, blade_speed: 5.2900, time: 2, energy_Wh: 21),
  (cut_id: 9, mch_id: 2, mode_id: 9, feed_rate: 13.1000, blade_speed: 5.2900, time: 2, energy_Wh: 21),
  (cut_id: 9, mch_id: 1, mode_id: 9, feed_rate: 13.1000, blade_speed: 5.2900, time: 2, energy_Wh: 21),
  (cut_id: 9, mch_id: 3, mode_id: 10, feed_rate: 13.1000, blade_speed: 6.3500, time: 2, energy_Wh: 24),
  (cut_id: 9, mch_id: 2, mode_id: 10, feed_rate: 13.1000, blade_speed: 6.3500, time: 2, energy_Wh: 24),
  (cut_id: 9, mch_id: 1, mode_id: 10, feed_rate: 13.1000, blade_speed: 6.3500, time: 2, energy_Wh: 24),
  (cut_id: 9, mch_id: 3, mode_id: 11, feed_rate: 17.4700, blade_speed: 2.1200, time: 2, energy_Wh: 33),
  (cut_id: 9, mch_id: 2, mode_id: 11, feed_rate: 17.4700, blade_speed: 2.1200, time: 2, energy_Wh: 33),
  (cut_id: 9, mch_id: 1, mode_id: 11, feed_rate: 17.4700, blade_speed: 2.1200, time: 2, energy_Wh: 33),
  (cut_id: 9, mch_id: 3, mode_id: 12, feed_rate: 17.4700, blade_speed: 3.1800, time: 2, energy_Wh: 26),
  (cut_id: 9, mch_id: 2, mode_id: 12, feed_rate: 17.4700, blade_speed: 3.1800, time: 2, energy_Wh: 26),
  (cut_id: 9, mch_id: 1, mode_id: 12, feed_rate: 17.4700, blade_speed: 3.1800, time: 2, energy_Wh: 26),
  (cut_id: 9, mch_id: 3, mode_id: 13, feed_rate: 17.4700, blade_speed: 4.2400, time: 2, energy_Wh: 24),
  (cut_id: 9, mch_id: 2, mode_id: 13, feed_rate: 17.4700, blade_speed: 4.2400, time: 2, energy_Wh: 24),
  (cut_id: 9, mch_id: 1, mode_id: 13, feed_rate: 17.4700, blade_speed: 4.2400, time: 2, energy_Wh: 24),
  (cut_id: 9, mch_id: 3, mode_id: 14, feed_rate: 17.4700, blade_speed: 5.2900, time: 2, energy_Wh: 21),
  (cut_id: 9, mch_id: 2, mode_id: 14, feed_rate: 17.4700, blade_speed: 5.2900, time: 2, energy_Wh: 21),
  (cut_id: 9, mch_id: 1, mode_id: 14, feed_rate: 17.4700, blade_speed: 5.2900, time: 2, energy_Wh: 21),
  (cut_id: 9, mch_id: 3, mode_id: 15, feed_rate: 17.4700, blade_speed: 6.3500, time: 2, energy_Wh: 31),
  (cut_id: 9, mch_id: 2, mode_id: 15, feed_rate: 17.4700, blade_speed: 6.3500, time: 2, energy_Wh: 31),
  (cut_id: 9, mch_id: 1, mode_id: 15, feed_rate: 17.4700, blade_speed: 6.3500, time: 2, energy_Wh: 31),
  (cut_id: 9, mch_id: 3, mode_id: 16, feed_rate: 21.8400, blade_speed: 2.1200, time: 1, energy_Wh: 42),
  (cut_id: 9, mch_id: 2, mode_id: 16, feed_rate: 21.8400, blade_speed: 2.1200, time: 1, energy_Wh: 42),
  (cut_id: 9, mch_id: 1, mode_id: 16, feed_rate: 21.8400, blade_speed: 2.1200, time: 1, energy_Wh: 42),
  (cut_id: 9, mch_id: 3, mode_id: 17, feed_rate: 21.8400, blade_speed: 3.1800, time: 1, energy_Wh: 33),
  (cut_id: 9, mch_id: 2, mode_id: 17, feed_rate: 21.8400, blade_speed: 3.1800, time: 1, energy_Wh: 33),
  (cut_id: 9, mch_id: 1, mode_id: 17, feed_rate: 21.8400, blade_speed: 3.1800, time: 1, energy_Wh: 33),
  (cut_id: 9, mch_id: 3, mode_id: 18, feed_rate: 21.8400, blade_speed: 4.2400, time: 1, energy_Wh: 21),
  (cut_id: 9, mch_id: 2, mode_id: 18, feed_rate: 21.8400, blade_speed: 4.2400, time: 1, energy_Wh: 21),
  (cut_id: 9, mch_id: 1, mode_id: 18, feed_rate: 21.8400, blade_speed: 4.2400, time: 1, energy_Wh: 21),
  (cut_id: 9, mch_id: 3, mode_id: 19, feed_rate: 21.8400, blade_speed: 5.2900, time: 1, energy_Wh: 20),
  (cut_id: 9, mch_id: 2, mode_id: 19, feed_rate: 21.8400, blade_speed: 5.2900, time: 1, energy_Wh: 20),
  (cut_id: 9, mch_id: 1, mode_id: 19, feed_rate: 21.8400, blade_speed: 5.2900, time: 1, energy_Wh: 20),
  (cut_id: 9, mch_id: 3, mode_id: 20, feed_rate: 21.8400, blade_speed: 6.3500, time: 1, energy_Wh: 30),
  (cut_id: 9, mch_id: 2, mode_id: 20, feed_rate: 21.8400, blade_speed: 6.3500, time: 1, energy_Wh: 30),
  (cut_id: 9, mch_id: 1, mode_id: 20, feed_rate: 21.8400, blade_speed: 6.3500, time: 1, energy_Wh: 30),
  (cut_id: 9, mch_id: 3, mode_id: 21, feed_rate: 26.2100, blade_speed: 2.1200, time: 1, energy_Wh: 46),
  (cut_id: 9, mch_id: 2, mode_id: 21, feed_rate: 26.2100, blade_speed: 2.1200, time: 1, energy_Wh: 46),
  (cut_id: 9, mch_id: 1, mode_id: 21, feed_rate: 26.2100, blade_speed: 2.1200, time: 1, energy_Wh: 46),
  (cut_id: 9, mch_id: 3, mode_id: 22, feed_rate: 26.2100, blade_speed: 3.1800, time: 1, energy_Wh: 36),
  (cut_id: 9, mch_id: 2, mode_id: 22, feed_rate: 26.2100, blade_speed: 3.1800, time: 1, energy_Wh: 36),
  (cut_id: 9, mch_id: 1, mode_id: 22, feed_rate: 26.2100, blade_speed: 3.1800, time: 1, energy_Wh: 36),
  (cut_id: 9, mch_id: 3, mode_id: 23, feed_rate: 26.2100, blade_speed: 4.2400, time: 1, energy_Wh: 23),
  (cut_id: 9, mch_id: 2, mode_id: 23, feed_rate: 26.2100, blade_speed: 4.2400, time: 1, energy_Wh: 23),
  (cut_id: 9, mch_id: 1, mode_id: 23, feed_rate: 26.2100, blade_speed: 4.2400, time: 1, energy_Wh: 23),
  (cut_id: 9, mch_id: 3, mode_id: 24, feed_rate: 26.2100, blade_speed: 5.2900, time: 1, energy_Wh: 27),
  (cut_id: 9, mch_id: 2, mode_id: 24, feed_rate: 26.2100, blade_speed: 5.2900, time: 1, energy_Wh: 27),
  (cut_id: 9, mch_id: 1, mode_id: 24, feed_rate: 26.2100, blade_speed: 5.2900, time: 1, energy_Wh: 27),
  (cut_id: 9, mch_id: 3, mode_id: 25, feed_rate: 26.2100, blade_speed: 6.3500, time: 1, energy_Wh: 35),
  (cut_id: 9, mch_id: 2, mode_id: 25, feed_rate: 26.2100, blade_speed: 6.3500, time: 1, energy_Wh: 35),
  (cut_id: 9, mch_id: 1, mode_id: 25, feed_rate: 26.2100, blade_speed: 6.3500, time: 1, energy_Wh: 35),
  (cut_id: 10, mch_id: 1, mode_id: 1, feed_rate: 15.0000, blade_speed: 6.0000, time: 15, energy_Wh: 32),
  (cut_id: 10, mch_id: 3, mode_id: 1, feed_rate: 15.0000, blade_speed: 6.0000, time: 15, energy_Wh: 32),
  (cut_id: 10, mch_id: 2, mode_id: 1, feed_rate: 15.0000, blade_speed: 6.0000, time: 15, energy_Wh: 32),
  (cut_id: 10, mch_id: 1, mode_id: 2, feed_rate: 15.0000, blade_speed: 9.0000, time: 15, energy_Wh: 43),
  (cut_id: 10, mch_id: 3, mode_id: 2, feed_rate: 15.0000, blade_speed: 9.0000, time: 15, energy_Wh: 43),
  (cut_id: 10, mch_id: 2, mode_id: 2, feed_rate: 15.0000, blade_speed: 9.0000, time: 15, energy_Wh: 43),
  (cut_id: 10, mch_id: 1, mode_id: 3, feed_rate: 15.0000, blade_speed: 12.0000, time: 15, energy_Wh: 31),
  (cut_id: 10, mch_id: 3, mode_id: 3, feed_rate: 15.0000, blade_speed: 12.0000, time: 15, energy_Wh: 31),
  (cut_id: 10, mch_id: 2, mode_id: 3, feed_rate: 15.0000, blade_speed: 12.0000, time: 15, energy_Wh: 31),
  (cut_id: 10, mch_id: 1, mode_id: 4, feed_rate: 15.0000, blade_speed: 15.0000, time: 15, energy_Wh: 44),
  (cut_id: 10, mch_id: 3, mode_id: 4, feed_rate: 15.0000, blade_speed: 15.0000, time: 15, energy_Wh: 44),
  (cut_id: 10, mch_id: 2, mode_id: 4, feed_rate: 15.0000, blade_speed: 15.0000, time: 15, energy_Wh: 44),
  (cut_id: 10, mch_id: 1, mode_id: 5, feed_rate: 15.0000, blade_speed: 18.0000, time: 15, energy_Wh: 24),
  (cut_id: 10, mch_id: 3, mode_id: 5, feed_rate: 15.0000, blade_speed: 18.0000, time: 15, energy_Wh: 24),
  (cut_id: 10, mch_id: 2, mode_id: 5, feed_rate: 15.0000, blade_speed: 18.0000, time: 15, energy_Wh: 24),
  (cut_id: 10, mch_id: 1, mode_id: 6, feed_rate: 22.5000, blade_speed: 6.0000, time: 10, energy_Wh: 35),
  (cut_id: 10, mch_id: 3, mode_id: 6, feed_rate: 22.5000, blade_speed: 6.0000, time: 10, energy_Wh: 35),
  (cut_id: 10, mch_id: 2, mode_id: 6, feed_rate: 22.5000, blade_speed: 6.0000, time: 10, energy_Wh: 35),
  (cut_id: 10, mch_id: 1, mode_id: 7, feed_rate: 22.5000, blade_speed: 9.0000, time: 10, energy_Wh: 55),
  (cut_id: 10, mch_id: 3, mode_id: 7, feed_rate: 22.5000, blade_speed: 9.0000, time: 10, energy_Wh: 55),
  (cut_id: 10, mch_id: 2, mode_id: 7, feed_rate: 22.5000, blade_speed: 9.0000, time: 10, energy_Wh: 55),
  (cut_id: 10, mch_id: 1, mode_id: 8, feed_rate: 22.5000, blade_speed: 12.0000, time: 10, energy_Wh: 33),
  (cut_id: 10, mch_id: 3, mode_id: 8, feed_rate: 22.5000, blade_speed: 12.0000, time: 10, energy_Wh: 33),
  (cut_id: 10, mch_id: 2, mode_id: 8, feed_rate: 22.5000, blade_speed: 12.0000, time: 10, energy_Wh: 33),
  (cut_id: 10, mch_id: 1, mode_id: 9, feed_rate: 22.5000, blade_speed: 15.0000, time: 10, energy_Wh: 50),
  (cut_id: 10, mch_id: 3, mode_id: 9, feed_rate: 22.5000, blade_speed: 15.0000, time: 10, energy_Wh: 50),
  (cut_id: 10, mch_id: 2, mode_id: 9, feed_rate: 22.5000, blade_speed: 15.0000, time: 10, energy_Wh: 50),
  (cut_id: 10, mch_id: 1, mode_id: 10, feed_rate: 22.5000, blade_speed: 18.0000, time: 10, energy_Wh: 34),
  (cut_id: 10, mch_id: 3, mode_id: 10, feed_rate: 22.5000, blade_speed: 18.0000, time: 10, energy_Wh: 34),
  (cut_id: 10, mch_id: 2, mode_id: 10, feed_rate: 22.5000, blade_speed: 18.0000, time: 10, energy_Wh: 34),
  (cut_id: 10, mch_id: 1, mode_id: 11, feed_rate: 30.0000, blade_speed: 6.0000, time: 8, energy_Wh: 40),
  (cut_id: 10, mch_id: 3, mode_id: 11, feed_rate: 30.0000, blade_speed: 6.0000, time: 8, energy_Wh: 40),
  (cut_id: 10, mch_id: 2, mode_id: 11, feed_rate: 30.0000, blade_speed: 6.0000, time: 8, energy_Wh: 40),
  (cut_id: 10, mch_id: 1, mode_id: 12, feed_rate: 30.0000, blade_speed: 9.0000, time: 8, energy_Wh: 52),
  (cut_id: 10, mch_id: 3, mode_id: 12, feed_rate: 30.0000, blade_speed: 9.0000, time: 8, energy_Wh: 52),
  (cut_id: 10, mch_id: 2, mode_id: 12, feed_rate: 30.0000, blade_speed: 9.0000, time: 8, energy_Wh: 52),
  (cut_id: 10, mch_id: 1, mode_id: 13, feed_rate: 30.0000, blade_speed: 12.0000, time: 8, energy_Wh: 40),
  (cut_id: 10, mch_id: 3, mode_id: 13, feed_rate: 30.0000, blade_speed: 12.0000, time: 8, energy_Wh: 40),
  (cut_id: 10, mch_id: 2, mode_id: 13, feed_rate: 30.0000, blade_speed: 12.0000, time: 8, energy_Wh: 40),
  (cut_id: 10, mch_id: 1, mode_id: 14, feed_rate: 30.0000, blade_speed: 15.0000, time: 8, energy_Wh: 65),
  (cut_id: 10, mch_id: 3, mode_id: 14, feed_rate: 30.0000, blade_speed: 15.0000, time: 8, energy_Wh: 65),
  (cut_id: 10, mch_id: 2, mode_id: 14, feed_rate: 30.0000, blade_speed: 15.0000, time: 8, energy_Wh: 65),
  (cut_id: 10, mch_id: 1, mode_id: 15, feed_rate: 30.0000, blade_speed: 18.0000, time: 8, energy_Wh: 42),
  (cut_id: 10, mch_id: 3, mode_id: 15, feed_rate: 30.0000, blade_speed: 18.0000, time: 8, energy_Wh: 42),
  (cut_id: 10, mch_id: 2, mode_id: 15, feed_rate: 30.0000, blade_speed: 18.0000, time: 8, energy_Wh: 42),
  (cut_id: 10, mch_id: 1, mode_id: 16, feed_rate: 37.5000, blade_speed: 6.0000, time: 6, energy_Wh: 43),
  (cut_id: 10, mch_id: 3, mode_id: 16, feed_rate: 37.5000, blade_speed: 6.0000, time: 6, energy_Wh: 43),
  (cut_id: 10, mch_id: 2, mode_id: 16, feed_rate: 37.5000, blade_speed: 6.0000, time: 6, energy_Wh: 43),
  (cut_id: 10, mch_id: 1, mode_id: 17, feed_rate: 37.5000, blade_speed: 9.0000, time: 6, energy_Wh: 60),
  (cut_id: 10, mch_id: 3, mode_id: 17, feed_rate: 37.5000, blade_speed: 9.0000, time: 6, energy_Wh: 60),
  (cut_id: 10, mch_id: 2, mode_id: 17, feed_rate: 37.5000, blade_speed: 9.0000, time: 6, energy_Wh: 60),
  (cut_id: 10, mch_id: 1, mode_id: 18, feed_rate: 37.5000, blade_speed: 12.0000, time: 6, energy_Wh: 50),
  (cut_id: 10, mch_id: 3, mode_id: 18, feed_rate: 37.5000, blade_speed: 12.0000, time: 6, energy_Wh: 50),
  (cut_id: 10, mch_id: 2, mode_id: 18, feed_rate: 37.5000, blade_speed: 12.0000, time: 6, energy_Wh: 50),
  (cut_id: 10, mch_id: 1, mode_id: 19, feed_rate: 37.5000, blade_speed: 15.0000, time: 6, energy_Wh: 74),
  (cut_id: 10, mch_id: 3, mode_id: 19, feed_rate: 37.5000, blade_speed: 15.0000, time: 6, energy_Wh: 74),
  (cut_id: 10, mch_id: 2, mode_id: 19, feed_rate: 37.5000, blade_speed: 15.0000, time: 6, energy_Wh: 74),
  (cut_id: 10, mch_id: 1, mode_id: 20, feed_rate: 37.5000, blade_speed: 18.0000, time: 6, energy_Wh: 42),
  (cut_id: 10, mch_id: 3, mode_id: 20, feed_rate: 37.5000, blade_speed: 18.0000, time: 6, energy_Wh: 42),
  (cut_id: 10, mch_id: 2, mode_id: 20, feed_rate: 37.5000, blade_speed: 18.0000, time: 6, energy_Wh: 42),
  (cut_id: 10, mch_id: 1, mode_id: 21, feed_rate: 45.0000, blade_speed: 6.0000, time: 5, energy_Wh: 58),
  (cut_id: 10, mch_id: 3, mode_id: 21, feed_rate: 45.0000, blade_speed: 6.0000, time: 5, energy_Wh: 58),
  (cut_id: 10, mch_id: 2, mode_id: 21, feed_rate: 45.0000, blade_speed: 6.0000, time: 5, energy_Wh: 58),
  (cut_id: 10, mch_id: 1, mode_id: 22, feed_rate: 45.0000, blade_speed: 9.0000, time: 5, energy_Wh: 72),
  (cut_id: 10, mch_id: 3, mode_id: 22, feed_rate: 45.0000, blade_speed: 9.0000, time: 5, energy_Wh: 72),
  (cut_id: 10, mch_id: 2, mode_id: 22, feed_rate: 45.0000, blade_speed: 9.0000, time: 5, energy_Wh: 72),
  (cut_id: 10, mch_id: 1, mode_id: 23, feed_rate: 45.0000, blade_speed: 12.0000, time: 5, energy_Wh: 54),
  (cut_id: 10, mch_id: 3, mode_id: 23, feed_rate: 45.0000, blade_speed: 12.0000, time: 5, energy_Wh: 54),
  (cut_id: 10, mch_id: 2, mode_id: 23, feed_rate: 45.0000, blade_speed: 12.0000, time: 5, energy_Wh: 54),
  (cut_id: 10, mch_id: 1, mode_id: 24, feed_rate: 45.0000, blade_speed: 15.0000, time: 5, energy_Wh: 84),
  (cut_id: 10, mch_id: 3, mode_id: 24, feed_rate: 45.0000, blade_speed: 15.0000, time: 5, energy_Wh: 84),
  (cut_id: 10, mch_id: 2, mode_id: 24, feed_rate: 45.0000, blade_speed: 15.0000, time: 5, energy_Wh: 84),
  (cut_id: 10, mch_id: 1, mode_id: 25, feed_rate: 45.0000, blade_speed: 18.0000, time: 5, energy_Wh: 56),
  (cut_id: 10, mch_id: 3, mode_id: 25, feed_rate: 45.0000, blade_speed: 18.0000, time: 5, energy_Wh: 56),
  (cut_id: 10, mch_id: 2, mode_id: 25, feed_rate: 45.0000, blade_speed: 18.0000, time: 5, energy_Wh: 56),
  (cut_id: 11, mch_id: 1, mode_id: 1, feed_rate: 10.0000, blade_speed: 2.9900, time: 22, energy_Wh: 33),
  (cut_id: 11, mch_id: 3, mode_id: 1, feed_rate: 10.0000, blade_speed: 2.9900, time: 22, energy_Wh: 33),
  (cut_id: 11, mch_id: 2, mode_id: 1, feed_rate: 10.0000, blade_speed: 2.9900, time: 22, energy_Wh: 33),
  (cut_id: 11, mch_id: 1, mode_id: 2, feed_rate: 10.0000, blade_speed: 4.4800, time: 22, energy_Wh: 21),
  (cut_id: 11, mch_id: 3, mode_id: 2, feed_rate: 10.0000, blade_speed: 4.4800, time: 22, energy_Wh: 21),
  (cut_id: 11, mch_id: 2, mode_id: 2, feed_rate: 10.0000, blade_speed: 4.4800, time: 22, energy_Wh: 21),
  (cut_id: 11, mch_id: 1, mode_id: 3, feed_rate: 10.0000, blade_speed: 5.9800, time: 22, energy_Wh: 25),
  (cut_id: 11, mch_id: 3, mode_id: 3, feed_rate: 10.0000, blade_speed: 5.9800, time: 22, energy_Wh: 25),
  (cut_id: 11, mch_id: 2, mode_id: 3, feed_rate: 10.0000, blade_speed: 5.9800, time: 22, energy_Wh: 25),
  (cut_id: 11, mch_id: 1, mode_id: 4, feed_rate: 10.0000, blade_speed: 7.4700, time: 22, energy_Wh: 48),
  (cut_id: 11, mch_id: 3, mode_id: 4, feed_rate: 10.0000, blade_speed: 7.4700, time: 22, energy_Wh: 48),
  (cut_id: 11, mch_id: 2, mode_id: 4, feed_rate: 10.0000, blade_speed: 7.4700, time: 22, energy_Wh: 48),
  (cut_id: 11, mch_id: 1, mode_id: 5, feed_rate: 10.0000, blade_speed: 8.9700, time: 22, energy_Wh: 43),
  (cut_id: 11, mch_id: 3, mode_id: 5, feed_rate: 10.0000, blade_speed: 8.9700, time: 22, energy_Wh: 43),
  (cut_id: 11, mch_id: 2, mode_id: 5, feed_rate: 10.0000, blade_speed: 8.9700, time: 22, energy_Wh: 43),
  (cut_id: 11, mch_id: 1, mode_id: 6, feed_rate: 15.0000, blade_speed: 2.9900, time: 15, energy_Wh: 40),
  (cut_id: 11, mch_id: 3, mode_id: 6, feed_rate: 15.0000, blade_speed: 2.9900, time: 15, energy_Wh: 40),
  (cut_id: 11, mch_id: 2, mode_id: 6, feed_rate: 15.0000, blade_speed: 2.9900, time: 15, energy_Wh: 40),
  (cut_id: 11, mch_id: 1, mode_id: 7, feed_rate: 15.0000, blade_speed: 4.4800, time: 15, energy_Wh: 27),
  (cut_id: 11, mch_id: 3, mode_id: 7, feed_rate: 15.0000, blade_speed: 4.4800, time: 15, energy_Wh: 27),
  (cut_id: 11, mch_id: 2, mode_id: 7, feed_rate: 15.0000, blade_speed: 4.4800, time: 15, energy_Wh: 27),
  (cut_id: 11, mch_id: 1, mode_id: 8, feed_rate: 15.0000, blade_speed: 5.9800, time: 15, energy_Wh: 31),
  (cut_id: 11, mch_id: 3, mode_id: 8, feed_rate: 15.0000, blade_speed: 5.9800, time: 15, energy_Wh: 31),
  (cut_id: 11, mch_id: 2, mode_id: 8, feed_rate: 15.0000, blade_speed: 5.9800, time: 15, energy_Wh: 31),
  (cut_id: 11, mch_id: 1, mode_id: 9, feed_rate: 15.0000, blade_speed: 7.4700, time: 15, energy_Wh: 57),
  (cut_id: 11, mch_id: 3, mode_id: 9, feed_rate: 15.0000, blade_speed: 7.4700, time: 15, energy_Wh: 57),
  (cut_id: 11, mch_id: 2, mode_id: 9, feed_rate: 15.0000, blade_speed: 7.4700, time: 15, energy_Wh: 57),
  (cut_id: 11, mch_id: 1, mode_id: 10, feed_rate: 15.0000, blade_speed: 8.9700, time: 15, energy_Wh: 47),
  (cut_id: 11, mch_id: 3, mode_id: 10, feed_rate: 15.0000, blade_speed: 8.9700, time: 15, energy_Wh: 47),
  (cut_id: 11, mch_id: 2, mode_id: 10, feed_rate: 15.0000, blade_speed: 8.9700, time: 15, energy_Wh: 47),
  (cut_id: 11, mch_id: 1, mode_id: 11, feed_rate: 20.0000, blade_speed: 2.9900, time: 11, energy_Wh: 38),
  (cut_id: 11, mch_id: 3, mode_id: 11, feed_rate: 20.0000, blade_speed: 2.9900, time: 11, energy_Wh: 38),
  (cut_id: 11, mch_id: 2, mode_id: 11, feed_rate: 20.0000, blade_speed: 2.9900, time: 11, energy_Wh: 38),
  (cut_id: 11, mch_id: 1, mode_id: 12, feed_rate: 20.0000, blade_speed: 4.4800, time: 11, energy_Wh: 31),
  (cut_id: 11, mch_id: 3, mode_id: 12, feed_rate: 20.0000, blade_speed: 4.4800, time: 11, energy_Wh: 31),
  (cut_id: 11, mch_id: 2, mode_id: 12, feed_rate: 20.0000, blade_speed: 4.4800, time: 11, energy_Wh: 31),
  (cut_id: 11, mch_id: 1, mode_id: 13, feed_rate: 20.0000, blade_speed: 5.9800, time: 11, energy_Wh: 46),
  (cut_id: 11, mch_id: 3, mode_id: 13, feed_rate: 20.0000, blade_speed: 5.9800, time: 11, energy_Wh: 46),
  (cut_id: 11, mch_id: 2, mode_id: 13, feed_rate: 20.0000, blade_speed: 5.9800, time: 11, energy_Wh: 46),
  (cut_id: 11, mch_id: 1, mode_id: 14, feed_rate: 20.0000, blade_speed: 7.4700, time: 11, energy_Wh: 49),
  (cut_id: 11, mch_id: 3, mode_id: 14, feed_rate: 20.0000, blade_speed: 7.4700, time: 11, energy_Wh: 49),
  (cut_id: 11, mch_id: 2, mode_id: 14, feed_rate: 20.0000, blade_speed: 7.4700, time: 11, energy_Wh: 49),
  (cut_id: 11, mch_id: 1, mode_id: 15, feed_rate: 20.0000, blade_speed: 8.9700, time: 11, energy_Wh: 45),
  (cut_id: 11, mch_id: 3, mode_id: 15, feed_rate: 20.0000, blade_speed: 8.9700, time: 11, energy_Wh: 45),
  (cut_id: 11, mch_id: 2, mode_id: 15, feed_rate: 20.0000, blade_speed: 8.9700, time: 11, energy_Wh: 45),
  (cut_id: 11, mch_id: 1, mode_id: 16, feed_rate: 25.0000, blade_speed: 2.9900, time: 9, energy_Wh: 45),
  (cut_id: 11, mch_id: 3, mode_id: 16, feed_rate: 25.0000, blade_speed: 2.9900, time: 9, energy_Wh: 45),
  (cut_id: 11, mch_id: 2, mode_id: 16, feed_rate: 25.0000, blade_speed: 2.9900, time: 9, energy_Wh: 45),
  (cut_id: 11, mch_id: 1, mode_id: 17, feed_rate: 25.0000, blade_speed: 4.4800, time: 9, energy_Wh: 31),
  (cut_id: 11, mch_id: 3, mode_id: 17, feed_rate: 25.0000, blade_speed: 4.4800, time: 9, energy_Wh: 31),
  (cut_id: 11, mch_id: 2, mode_id: 17, feed_rate: 25.0000, blade_speed: 4.4800, time: 9, energy_Wh: 31),
  (cut_id: 11, mch_id: 1, mode_id: 18, feed_rate: 25.0000, blade_speed: 5.9800, time: 9, energy_Wh: 35),
  (cut_id: 11, mch_id: 3, mode_id: 18, feed_rate: 25.0000, blade_speed: 5.9800, time: 9, energy_Wh: 35),
  (cut_id: 11, mch_id: 2, mode_id: 18, feed_rate: 25.0000, blade_speed: 5.9800, time: 9, energy_Wh: 35),
  (cut_id: 11, mch_id: 1, mode_id: 19, feed_rate: 25.0000, blade_speed: 7.4700, time: 9, energy_Wh: 61),
  (cut_id: 11, mch_id: 3, mode_id: 19, feed_rate: 25.0000, blade_speed: 7.4700, time: 9, energy_Wh: 61),
  (cut_id: 11, mch_id: 2, mode_id: 19, feed_rate: 25.0000, blade_speed: 7.4700, time: 9, energy_Wh: 61),
  (cut_id: 11, mch_id: 1, mode_id: 20, feed_rate: 25.0000, blade_speed: 8.9700, time: 9, energy_Wh: 46),
  (cut_id: 11, mch_id: 3, mode_id: 20, feed_rate: 25.0000, blade_speed: 8.9700, time: 9, energy_Wh: 46),
  (cut_id: 11, mch_id: 2, mode_id: 20, feed_rate: 25.0000, blade_speed: 8.9700, time: 9, energy_Wh: 46),
  (cut_id: 11, mch_id: 1, mode_id: 21, feed_rate: 30.0000, blade_speed: 2.9900, time: 8, energy_Wh: 55),
  (cut_id: 11, mch_id: 3, mode_id: 21, feed_rate: 30.0000, blade_speed: 2.9900, time: 8, energy_Wh: 55),
  (cut_id: 11, mch_id: 2, mode_id: 21, feed_rate: 30.0000, blade_speed: 2.9900, time: 8, energy_Wh: 55),
  (cut_id: 11, mch_id: 1, mode_id: 22, feed_rate: 30.0000, blade_speed: 4.4800, time: 8, energy_Wh: 34),
  (cut_id: 11, mch_id: 3, mode_id: 22, feed_rate: 30.0000, blade_speed: 4.4800, time: 8, energy_Wh: 34),
  (cut_id: 11, mch_id: 2, mode_id: 22, feed_rate: 30.0000, blade_speed: 4.4800, time: 8, energy_Wh: 34),
  (cut_id: 11, mch_id: 1, mode_id: 23, feed_rate: 30.0000, blade_speed: 5.9800, time: 8, energy_Wh: 51),
  (cut_id: 11, mch_id: 3, mode_id: 23, feed_rate: 30.0000, blade_speed: 5.9800, time: 8, energy_Wh: 51),
  (cut_id: 11, mch_id: 2, mode_id: 23, feed_rate: 30.0000, blade_speed: 5.9800, time: 8, energy_Wh: 51),
  (cut_id: 11, mch_id: 1, mode_id: 24, feed_rate: 30.0000, blade_speed: 7.4700, time: 8, energy_Wh: 69),
  (cut_id: 11, mch_id: 3, mode_id: 24, feed_rate: 30.0000, blade_speed: 7.4700, time: 8, energy_Wh: 69),
  (cut_id: 11, mch_id: 2, mode_id: 24, feed_rate: 30.0000, blade_speed: 7.4700, time: 8, energy_Wh: 69),
  (cut_id: 11, mch_id: 1, mode_id: 25, feed_rate: 30.0000, blade_speed: 8.9700, time: 8, energy_Wh: 63),
  (cut_id: 11, mch_id: 3, mode_id: 25, feed_rate: 30.0000, blade_speed: 8.9700, time: 8, energy_Wh: 63),
  (cut_id: 11, mch_id: 2, mode_id: 25, feed_rate: 30.0000, blade_speed: 8.9700, time: 8, energy_Wh: 63),
  (cut_id: 12, mch_id: 1, mode_id: 1, feed_rate: 18.9200, blade_speed: 11.4200, time: 8, energy_Wh: 20),
  (cut_id: 12, mch_id: 2, mode_id: 1, feed_rate: 18.9200, blade_speed: 11.4200, time: 8, energy_Wh: 20),
  (cut_id: 12, mch_id: 3, mode_id: 1, feed_rate: 18.9200, blade_speed: 11.4200, time: 8, energy_Wh: 20),
  (cut_id: 12, mch_id: 1, mode_id: 2, feed_rate: 18.9200, blade_speed: 17.1400, time: 8, energy_Wh: 21),
  (cut_id: 12, mch_id: 2, mode_id: 2, feed_rate: 18.9200, blade_speed: 17.1400, time: 8, energy_Wh: 21),
  (cut_id: 12, mch_id: 3, mode_id: 2, feed_rate: 18.9200, blade_speed: 17.1400, time: 8, energy_Wh: 21),
  (cut_id: 12, mch_id: 1, mode_id: 3, feed_rate: 18.9200, blade_speed: 22.8500, time: 8, energy_Wh: 30),
  (cut_id: 12, mch_id: 2, mode_id: 3, feed_rate: 18.9200, blade_speed: 22.8500, time: 8, energy_Wh: 30),
  (cut_id: 12, mch_id: 3, mode_id: 3, feed_rate: 18.9200, blade_speed: 22.8500, time: 8, energy_Wh: 30),
  (cut_id: 12, mch_id: 1, mode_id: 4, feed_rate: 18.9200, blade_speed: 28.5600, time: 8, energy_Wh: 38),
  (cut_id: 12, mch_id: 2, mode_id: 4, feed_rate: 18.9200, blade_speed: 28.5600, time: 8, energy_Wh: 38),
  (cut_id: 12, mch_id: 3, mode_id: 4, feed_rate: 18.9200, blade_speed: 28.5600, time: 8, energy_Wh: 38),
  (cut_id: 12, mch_id: 1, mode_id: 5, feed_rate: 18.9200, blade_speed: 34.2700, time: 8, energy_Wh: 31),
  (cut_id: 12, mch_id: 2, mode_id: 5, feed_rate: 18.9200, blade_speed: 34.2700, time: 8, energy_Wh: 31),
  (cut_id: 12, mch_id: 3, mode_id: 5, feed_rate: 18.9200, blade_speed: 34.2700, time: 8, energy_Wh: 31),
  (cut_id: 12, mch_id: 1, mode_id: 6, feed_rate: 28.3900, blade_speed: 11.4200, time: 6, energy_Wh: 26),
  (cut_id: 12, mch_id: 2, mode_id: 6, feed_rate: 28.3900, blade_speed: 11.4200, time: 6, energy_Wh: 26),
  (cut_id: 12, mch_id: 3, mode_id: 6, feed_rate: 28.3900, blade_speed: 11.4200, time: 6, energy_Wh: 26),
  (cut_id: 12, mch_id: 1, mode_id: 7, feed_rate: 28.3900, blade_speed: 17.1400, time: 6, energy_Wh: 27),
  (cut_id: 12, mch_id: 2, mode_id: 7, feed_rate: 28.3900, blade_speed: 17.1400, time: 6, energy_Wh: 27),
  (cut_id: 12, mch_id: 3, mode_id: 7, feed_rate: 28.3900, blade_speed: 17.1400, time: 6, energy_Wh: 27),
  (cut_id: 12, mch_id: 1, mode_id: 8, feed_rate: 28.3900, blade_speed: 22.8500, time: 6, energy_Wh: 26),
  (cut_id: 12, mch_id: 2, mode_id: 8, feed_rate: 28.3900, blade_speed: 22.8500, time: 6, energy_Wh: 26),
  (cut_id: 12, mch_id: 3, mode_id: 8, feed_rate: 28.3900, blade_speed: 22.8500, time: 6, energy_Wh: 26),
  (cut_id: 12, mch_id: 1, mode_id: 9, feed_rate: 28.3900, blade_speed: 28.5600, time: 6, energy_Wh: 39),
  (cut_id: 12, mch_id: 2, mode_id: 9, feed_rate: 28.3900, blade_speed: 28.5600, time: 6, energy_Wh: 39),
  (cut_id: 12, mch_id: 3, mode_id: 9, feed_rate: 28.3900, blade_speed: 28.5600, time: 6, energy_Wh: 39),
  (cut_id: 12, mch_id: 1, mode_id: 10, feed_rate: 28.3900, blade_speed: 34.2700, time: 6, energy_Wh: 50),
  (cut_id: 12, mch_id: 2, mode_id: 10, feed_rate: 28.3900, blade_speed: 34.2700, time: 6, energy_Wh: 50),
  (cut_id: 12, mch_id: 3, mode_id: 10, feed_rate: 28.3900, blade_speed: 34.2700, time: 6, energy_Wh: 50),
  (cut_id: 12, mch_id: 1, mode_id: 11, feed_rate: 37.8500, blade_speed: 11.4200, time: 4, energy_Wh: 40),
  (cut_id: 12, mch_id: 2, mode_id: 11, feed_rate: 37.8500, blade_speed: 11.4200, time: 4, energy_Wh: 40),
  (cut_id: 12, mch_id: 3, mode_id: 11, feed_rate: 37.8500, blade_speed: 11.4200, time: 4, energy_Wh: 40),
  (cut_id: 12, mch_id: 1, mode_id: 12, feed_rate: 37.8500, blade_speed: 17.1400, time: 4, energy_Wh: 29),
  (cut_id: 12, mch_id: 2, mode_id: 12, feed_rate: 37.8500, blade_speed: 17.1400, time: 4, energy_Wh: 29),
  (cut_id: 12, mch_id: 3, mode_id: 12, feed_rate: 37.8500, blade_speed: 17.1400, time: 4, energy_Wh: 29),
  (cut_id: 12, mch_id: 1, mode_id: 13, feed_rate: 37.8500, blade_speed: 22.8500, time: 4, energy_Wh: 43),
  (cut_id: 12, mch_id: 2, mode_id: 13, feed_rate: 37.8500, blade_speed: 22.8500, time: 4, energy_Wh: 43),
  (cut_id: 12, mch_id: 3, mode_id: 13, feed_rate: 37.8500, blade_speed: 22.8500, time: 4, energy_Wh: 43),
  (cut_id: 12, mch_id: 1, mode_id: 14, feed_rate: 37.8500, blade_speed: 28.5600, time: 4, energy_Wh: 49),
  (cut_id: 12, mch_id: 2, mode_id: 14, feed_rate: 37.8500, blade_speed: 28.5600, time: 4, energy_Wh: 49),
  (cut_id: 12, mch_id: 3, mode_id: 14, feed_rate: 37.8500, blade_speed: 28.5600, time: 4, energy_Wh: 49),
  (cut_id: 12, mch_id: 1, mode_id: 15, feed_rate: 37.8500, blade_speed: 34.2700, time: 4, energy_Wh: 45),
  (cut_id: 12, mch_id: 2, mode_id: 15, feed_rate: 37.8500, blade_speed: 34.2700, time: 4, energy_Wh: 45),
  (cut_id: 12, mch_id: 3, mode_id: 15, feed_rate: 37.8500, blade_speed: 34.2700, time: 4, energy_Wh: 45),
  (cut_id: 12, mch_id: 1, mode_id: 16, feed_rate: 47.3100, blade_speed: 11.4200, time: 4, energy_Wh: 46),
  (cut_id: 12, mch_id: 2, mode_id: 16, feed_rate: 47.3100, blade_speed: 11.4200, time: 4, energy_Wh: 46),
  (cut_id: 12, mch_id: 3, mode_id: 16, feed_rate: 47.3100, blade_speed: 11.4200, time: 4, energy_Wh: 46),
  (cut_id: 12, mch_id: 1, mode_id: 17, feed_rate: 47.3100, blade_speed: 17.1400, time: 4, energy_Wh: 46),
  (cut_id: 12, mch_id: 2, mode_id: 17, feed_rate: 47.3100, blade_speed: 17.1400, time: 4, energy_Wh: 46),
  (cut_id: 12, mch_id: 3, mode_id: 17, feed_rate: 47.3100, blade_speed: 17.1400, time: 4, energy_Wh: 46),
  (cut_id: 12, mch_id: 1, mode_id: 18, feed_rate: 47.3100, blade_speed: 22.8500, time: 4, energy_Wh: 50),
  (cut_id: 12, mch_id: 2, mode_id: 18, feed_rate: 47.3100, blade_speed: 22.8500, time: 4, energy_Wh: 50),
  (cut_id: 12, mch_id: 3, mode_id: 18, feed_rate: 47.3100, blade_speed: 22.8500, time: 4, energy_Wh: 50),
  (cut_id: 12, mch_id: 1, mode_id: 19, feed_rate: 47.3100, blade_speed: 28.5600, time: 4, energy_Wh: 56),
  (cut_id: 12, mch_id: 2, mode_id: 19, feed_rate: 47.3100, blade_speed: 28.5600, time: 4, energy_Wh: 56),
  (cut_id: 12, mch_id: 3, mode_id: 19, feed_rate: 47.3100, blade_speed: 28.5600, time: 4, energy_Wh: 56),
  (cut_id: 12, mch_id: 1, mode_id: 20, feed_rate: 47.3100, blade_speed: 34.2700, time: 4, energy_Wh: 68),
  (cut_id: 12, mch_id: 2, mode_id: 20, feed_rate: 47.3100, blade_speed: 34.2700, time: 4, energy_Wh: 68),
  (cut_id: 12, mch_id: 3, mode_id: 20, feed_rate: 47.3100, blade_speed: 34.2700, time: 4, energy_Wh: 68),
  (cut_id: 12, mch_id: 1, mode_id: 21, feed_rate: 56.7700, blade_speed: 11.4200, time: 3, energy_Wh: 49),
  (cut_id: 12, mch_id: 2, mode_id: 21, feed_rate: 56.7700, blade_speed: 11.4200, time: 3, energy_Wh: 49),
  (cut_id: 12, mch_id: 3, mode_id: 21, feed_rate: 56.7700, blade_speed: 11.4200, time: 3, energy_Wh: 49),
  (cut_id: 12, mch_id: 1, mode_id: 22, feed_rate: 56.7700, blade_speed: 17.1400, time: 3, energy_Wh: 38),
  (cut_id: 12, mch_id: 2, mode_id: 22, feed_rate: 56.7700, blade_speed: 17.1400, time: 3, energy_Wh: 38),
  (cut_id: 12, mch_id: 3, mode_id: 22, feed_rate: 56.7700, blade_speed: 17.1400, time: 3, energy_Wh: 38),
  (cut_id: 12, mch_id: 1, mode_id: 23, feed_rate: 56.7700, blade_speed: 22.8500, time: 3, energy_Wh: 55),
  (cut_id: 12, mch_id: 2, mode_id: 23, feed_rate: 56.7700, blade_speed: 22.8500, time: 3, energy_Wh: 55),
  (cut_id: 12, mch_id: 3, mode_id: 23, feed_rate: 56.7700, blade_speed: 22.8500, time: 3, energy_Wh: 55),
  (cut_id: 12, mch_id: 1, mode_id: 24, feed_rate: 56.7700, blade_speed: 28.5600, time: 3, energy_Wh: 61),
  (cut_id: 12, mch_id: 2, mode_id: 24, feed_rate: 56.7700, blade_speed: 28.5600, time: 3, energy_Wh: 61),
  (cut_id: 12, mch_id: 3, mode_id: 24, feed_rate: 56.7700, blade_speed: 28.5600, time: 3, energy_Wh: 61),
  (cut_id: 12, mch_id: 1, mode_id: 25, feed_rate: 56.7700, blade_speed: 34.2700, time: 3, energy_Wh: 62),
  (cut_id: 12, mch_id: 2, mode_id: 25, feed_rate: 56.7700, blade_speed: 34.2700, time: 3, energy_Wh: 62),
  (cut_id: 12, mch_id: 3, mode_id: 25, feed_rate: 56.7700, blade_speed: 34.2700, time: 3, energy_Wh: 62),
  (cut_id: 13, mch_id: 1, mode_id: 1, feed_rate: 36.0000, blade_speed: 22.0000, time: 3, energy_Wh: 42),
  (cut_id: 13, mch_id: 2, mode_id: 1, feed_rate: 36.0000, blade_speed: 22.0000, time: 3, energy_Wh: 42),
  (cut_id: 13, mch_id: 3, mode_id: 1, feed_rate: 36.0000, blade_speed: 22.0000, time: 3, energy_Wh: 42),
  (cut_id: 13, mch_id: 1, mode_id: 2, feed_rate: 36.0000, blade_speed: 33.0000, time: 3, energy_Wh: 47),
  (cut_id: 13, mch_id: 2, mode_id: 2, feed_rate: 36.0000, blade_speed: 33.0000, time: 3, energy_Wh: 47),
  (cut_id: 13, mch_id: 3, mode_id: 2, feed_rate: 36.0000, blade_speed: 33.0000, time: 3, energy_Wh: 47),
  (cut_id: 13, mch_id: 1, mode_id: 3, feed_rate: 36.0000, blade_speed: 44.0000, time: 3, energy_Wh: 39),
  (cut_id: 13, mch_id: 2, mode_id: 3, feed_rate: 36.0000, blade_speed: 44.0000, time: 3, energy_Wh: 39),
  (cut_id: 13, mch_id: 3, mode_id: 3, feed_rate: 36.0000, blade_speed: 44.0000, time: 3, energy_Wh: 39),
  (cut_id: 13, mch_id: 1, mode_id: 4, feed_rate: 36.0000, blade_speed: 55.0000, time: 3, energy_Wh: 29),
  (cut_id: 13, mch_id: 2, mode_id: 4, feed_rate: 36.0000, blade_speed: 55.0000, time: 3, energy_Wh: 29),
  (cut_id: 13, mch_id: 3, mode_id: 4, feed_rate: 36.0000, blade_speed: 55.0000, time: 3, energy_Wh: 29),
  (cut_id: 13, mch_id: 1, mode_id: 5, feed_rate: 36.0000, blade_speed: 66.0000, time: 3, energy_Wh: 47),
  (cut_id: 13, mch_id: 2, mode_id: 5, feed_rate: 36.0000, blade_speed: 66.0000, time: 3, energy_Wh: 47),
  (cut_id: 13, mch_id: 3, mode_id: 5, feed_rate: 36.0000, blade_speed: 66.0000, time: 3, energy_Wh: 47),
  (cut_id: 13, mch_id: 1, mode_id: 6, feed_rate: 54.0000, blade_speed: 22.0000, time: 2, energy_Wh: 58),
  (cut_id: 13, mch_id: 2, mode_id: 6, feed_rate: 54.0000, blade_speed: 22.0000, time: 2, energy_Wh: 58),
  (cut_id: 13, mch_id: 3, mode_id: 6, feed_rate: 54.0000, blade_speed: 22.0000, time: 2, energy_Wh: 58),
  (cut_id: 13, mch_id: 1, mode_id: 7, feed_rate: 54.0000, blade_speed: 33.0000, time: 2, energy_Wh: 88),
  (cut_id: 13, mch_id: 2, mode_id: 7, feed_rate: 54.0000, blade_speed: 33.0000, time: 2, energy_Wh: 88),
  (cut_id: 13, mch_id: 3, mode_id: 7, feed_rate: 54.0000, blade_speed: 33.0000, time: 2, energy_Wh: 88),
  (cut_id: 13, mch_id: 1, mode_id: 8, feed_rate: 54.0000, blade_speed: 44.0000, time: 2, energy_Wh: 46),
  (cut_id: 13, mch_id: 2, mode_id: 8, feed_rate: 54.0000, blade_speed: 44.0000, time: 2, energy_Wh: 46),
  (cut_id: 13, mch_id: 3, mode_id: 8, feed_rate: 54.0000, blade_speed: 44.0000, time: 2, energy_Wh: 46),
  (cut_id: 13, mch_id: 1, mode_id: 9, feed_rate: 54.0000, blade_speed: 55.0000, time: 2, energy_Wh: 32),
  (cut_id: 13, mch_id: 2, mode_id: 9, feed_rate: 54.0000, blade_speed: 55.0000, time: 2, energy_Wh: 32),
  (cut_id: 13, mch_id: 3, mode_id: 9, feed_rate: 54.0000, blade_speed: 55.0000, time: 2, energy_Wh: 32),
  (cut_id: 13, mch_id: 1, mode_id: 10, feed_rate: 54.0000, blade_speed: 66.0000, time: 2, energy_Wh: 61),
  (cut_id: 13, mch_id: 2, mode_id: 10, feed_rate: 54.0000, blade_speed: 66.0000, time: 2, energy_Wh: 61),
  (cut_id: 13, mch_id: 3, mode_id: 10, feed_rate: 54.0000, blade_speed: 66.0000, time: 2, energy_Wh: 61),
  (cut_id: 13, mch_id: 1, mode_id: 11, feed_rate: 72.0000, blade_speed: 22.0000, time: 2, energy_Wh: 83),
  (cut_id: 13, mch_id: 2, mode_id: 11, feed_rate: 72.0000, blade_speed: 22.0000, time: 2, energy_Wh: 83),
  (cut_id: 13, mch_id: 3, mode_id: 11, feed_rate: 72.0000, blade_speed: 22.0000, time: 2, energy_Wh: 83),
  (cut_id: 13, mch_id: 1, mode_id: 12, feed_rate: 72.0000, blade_speed: 33.0000, time: 2, energy_Wh: 97),
  (cut_id: 13, mch_id: 2, mode_id: 12, feed_rate: 72.0000, blade_speed: 33.0000, time: 2, energy_Wh: 97),
  (cut_id: 13, mch_id: 3, mode_id: 12, feed_rate: 72.0000, blade_speed: 33.0000, time: 2, energy_Wh: 97),
  (cut_id: 13, mch_id: 1, mode_id: 13, feed_rate: 72.0000, blade_speed: 44.0000, time: 2, energy_Wh: 93),
  (cut_id: 13, mch_id: 2, mode_id: 13, feed_rate: 72.0000, blade_speed: 44.0000, time: 2, energy_Wh: 93),
  (cut_id: 13, mch_id: 3, mode_id: 13, feed_rate: 72.0000, blade_speed: 44.0000, time: 2, energy_Wh: 93),
  (cut_id: 13, mch_id: 1, mode_id: 14, feed_rate: 72.0000, blade_speed: 55.0000, time: 2, energy_Wh: 59),
  (cut_id: 13, mch_id: 2, mode_id: 14, feed_rate: 72.0000, blade_speed: 55.0000, time: 2, energy_Wh: 59),
  (cut_id: 13, mch_id: 3, mode_id: 14, feed_rate: 72.0000, blade_speed: 55.0000, time: 2, energy_Wh: 59),
  (cut_id: 13, mch_id: 1, mode_id: 15, feed_rate: 72.0000, blade_speed: 66.0000, time: 2, energy_Wh: 84),
  (cut_id: 13, mch_id: 2, mode_id: 15, feed_rate: 72.0000, blade_speed: 66.0000, time: 2, energy_Wh: 84),
  (cut_id: 13, mch_id: 3, mode_id: 15, feed_rate: 72.0000, blade_speed: 66.0000, time: 2, energy_Wh: 84),
  (cut_id: 13, mch_id: 1, mode_id: 16, feed_rate: 90.0000, blade_speed: 22.0000, time: 1, energy_Wh: 121),
  (cut_id: 13, mch_id: 2, mode_id: 16, feed_rate: 90.0000, blade_speed: 22.0000, time: 1, energy_Wh: 121),
  (cut_id: 13, mch_id: 3, mode_id: 16, feed_rate: 90.0000, blade_speed: 22.0000, time: 1, energy_Wh: 121),
  (cut_id: 13, mch_id: 1, mode_id: 17, feed_rate: 90.0000, blade_speed: 33.0000, time: 1, energy_Wh: 156),
  (cut_id: 13, mch_id: 2, mode_id: 17, feed_rate: 90.0000, blade_speed: 33.0000, time: 1, energy_Wh: 156),
  (cut_id: 13, mch_id: 3, mode_id: 17, feed_rate: 90.0000, blade_speed: 33.0000, time: 1, energy_Wh: 156),
  (cut_id: 13, mch_id: 1, mode_id: 18, feed_rate: 90.0000, blade_speed: 44.0000, time: 1, energy_Wh: 127),
  (cut_id: 13, mch_id: 2, mode_id: 18, feed_rate: 90.0000, blade_speed: 44.0000, time: 1, energy_Wh: 127),
  (cut_id: 13, mch_id: 3, mode_id: 18, feed_rate: 90.0000, blade_speed: 44.0000, time: 1, energy_Wh: 127),
  (cut_id: 13, mch_id: 1, mode_id: 19, feed_rate: 90.0000, blade_speed: 55.0000, time: 1, energy_Wh: 63),
  (cut_id: 13, mch_id: 2, mode_id: 19, feed_rate: 90.0000, blade_speed: 55.0000, time: 1, energy_Wh: 63),
  (cut_id: 13, mch_id: 3, mode_id: 19, feed_rate: 90.0000, blade_speed: 55.0000, time: 1, energy_Wh: 63),
  (cut_id: 13, mch_id: 1, mode_id: 20, feed_rate: 90.0000, blade_speed: 66.0000, time: 1, energy_Wh: 122),
  (cut_id: 13, mch_id: 2, mode_id: 20, feed_rate: 90.0000, blade_speed: 66.0000, time: 1, energy_Wh: 122),
  (cut_id: 13, mch_id: 3, mode_id: 20, feed_rate: 90.0000, blade_speed: 66.0000, time: 1, energy_Wh: 122),
  (cut_id: 13, mch_id: 1, mode_id: 21, feed_rate: 108.0000, blade_speed: 22.0000, time: 1, energy_Wh: 136),
  (cut_id: 13, mch_id: 2, mode_id: 21, feed_rate: 108.0000, blade_speed: 22.0000, time: 1, energy_Wh: 136),
  (cut_id: 13, mch_id: 3, mode_id: 21, feed_rate: 108.0000, blade_speed: 22.0000, time: 1, energy_Wh: 136),
  (cut_id: 13, mch_id: 1, mode_id: 22, feed_rate: 108.0000, blade_speed: 33.0000, time: 1, energy_Wh: 222),
  (cut_id: 13, mch_id: 2, mode_id: 22, feed_rate: 108.0000, blade_speed: 33.0000, time: 1, energy_Wh: 222),
  (cut_id: 13, mch_id: 3, mode_id: 22, feed_rate: 108.0000, blade_speed: 33.0000, time: 1, energy_Wh: 222),
  (cut_id: 13, mch_id: 1, mode_id: 23, feed_rate: 108.0000, blade_speed: 44.0000, time: 1, energy_Wh: 167),
  (cut_id: 13, mch_id: 2, mode_id: 23, feed_rate: 108.0000, blade_speed: 44.0000, time: 1, energy_Wh: 167),
  (cut_id: 13, mch_id: 3, mode_id: 23, feed_rate: 108.0000, blade_speed: 44.0000, time: 1, energy_Wh: 167),
  (cut_id: 13, mch_id: 1, mode_id: 24, feed_rate: 108.0000, blade_speed: 55.0000, time: 1, energy_Wh: 121),
  (cut_id: 13, mch_id: 2, mode_id: 24, feed_rate: 108.0000, blade_speed: 55.0000, time: 1, energy_Wh: 121),
  (cut_id: 13, mch_id: 3, mode_id: 24, feed_rate: 108.0000, blade_speed: 55.0000, time: 1, energy_Wh: 121),
  (cut_id: 13, mch_id: 1, mode_id: 25, feed_rate: 108.0000, blade_speed: 66.0000, time: 1, energy_Wh: 166),
  (cut_id: 13, mch_id: 2, mode_id: 25, feed_rate: 108.0000, blade_speed: 66.0000, time: 1, energy_Wh: 166),
  (cut_id: 13, mch_id: 3, mode_id: 25, feed_rate: 108.0000, blade_speed: 66.0000, time: 1, energy_Wh: 166),
  (cut_id: 14, mch_id: 3, mode_id: 1, feed_rate: 16.8900, blade_speed: 9.3900, time: 9, energy_Wh: 32),
  (cut_id: 14, mch_id: 2, mode_id: 1, feed_rate: 16.8900, blade_speed: 9.3900, time: 9, energy_Wh: 32),
  (cut_id: 14, mch_id: 1, mode_id: 1, feed_rate: 16.8900, blade_speed: 9.3900, time: 9, energy_Wh: 32),
  (cut_id: 14, mch_id: 3, mode_id: 2, feed_rate: 16.8900, blade_speed: 14.0900, time: 9, energy_Wh: 40),
  (cut_id: 14, mch_id: 2, mode_id: 2, feed_rate: 16.8900, blade_speed: 14.0900, time: 9, energy_Wh: 40),
  (cut_id: 14, mch_id: 1, mode_id: 2, feed_rate: 16.8900, blade_speed: 14.0900, time: 9, energy_Wh: 40),
  (cut_id: 14, mch_id: 3, mode_id: 3, feed_rate: 16.8900, blade_speed: 18.7800, time: 9, energy_Wh: 41),
  (cut_id: 14, mch_id: 2, mode_id: 3, feed_rate: 16.8900, blade_speed: 18.7800, time: 9, energy_Wh: 41),
  (cut_id: 14, mch_id: 1, mode_id: 3, feed_rate: 16.8900, blade_speed: 18.7800, time: 9, energy_Wh: 41),
  (cut_id: 14, mch_id: 3, mode_id: 4, feed_rate: 16.8900, blade_speed: 23.4800, time: 9, energy_Wh: 20),
  (cut_id: 14, mch_id: 2, mode_id: 4, feed_rate: 16.8900, blade_speed: 23.4800, time: 9, energy_Wh: 20),
  (cut_id: 14, mch_id: 1, mode_id: 4, feed_rate: 16.8900, blade_speed: 23.4800, time: 9, energy_Wh: 20),
  (cut_id: 14, mch_id: 3, mode_id: 5, feed_rate: 16.8900, blade_speed: 28.1700, time: 9, energy_Wh: 33),
  (cut_id: 14, mch_id: 2, mode_id: 5, feed_rate: 16.8900, blade_speed: 28.1700, time: 9, energy_Wh: 33),
  (cut_id: 14, mch_id: 1, mode_id: 5, feed_rate: 16.8900, blade_speed: 28.1700, time: 9, energy_Wh: 33),
  (cut_id: 14, mch_id: 3, mode_id: 6, feed_rate: 25.3400, blade_speed: 9.3900, time: 6, energy_Wh: 37),
  (cut_id: 14, mch_id: 2, mode_id: 6, feed_rate: 25.3400, blade_speed: 9.3900, time: 6, energy_Wh: 37),
  (cut_id: 14, mch_id: 1, mode_id: 6, feed_rate: 25.3400, blade_speed: 9.3900, time: 6, energy_Wh: 37),
  (cut_id: 14, mch_id: 3, mode_id: 7, feed_rate: 25.3400, blade_speed: 14.0900, time: 6, energy_Wh: 43),
  (cut_id: 14, mch_id: 2, mode_id: 7, feed_rate: 25.3400, blade_speed: 14.0900, time: 6, energy_Wh: 43),
  (cut_id: 14, mch_id: 1, mode_id: 7, feed_rate: 25.3400, blade_speed: 14.0900, time: 6, energy_Wh: 43),
  (cut_id: 14, mch_id: 3, mode_id: 8, feed_rate: 25.3400, blade_speed: 18.7800, time: 6, energy_Wh: 32),
  (cut_id: 14, mch_id: 2, mode_id: 8, feed_rate: 25.3400, blade_speed: 18.7800, time: 6, energy_Wh: 32),
  (cut_id: 14, mch_id: 1, mode_id: 8, feed_rate: 25.3400, blade_speed: 18.7800, time: 6, energy_Wh: 32),
  (cut_id: 14, mch_id: 3, mode_id: 9, feed_rate: 25.3400, blade_speed: 23.4800, time: 6, energy_Wh: 29),
  (cut_id: 14, mch_id: 2, mode_id: 9, feed_rate: 25.3400, blade_speed: 23.4800, time: 6, energy_Wh: 29),
  (cut_id: 14, mch_id: 1, mode_id: 9, feed_rate: 25.3400, blade_speed: 23.4800, time: 6, energy_Wh: 29),
  (cut_id: 14, mch_id: 3, mode_id: 10, feed_rate: 25.3400, blade_speed: 28.1700, time: 6, energy_Wh: 44),
  (cut_id: 14, mch_id: 2, mode_id: 10, feed_rate: 25.3400, blade_speed: 28.1700, time: 6, energy_Wh: 44),
  (cut_id: 14, mch_id: 1, mode_id: 10, feed_rate: 25.3400, blade_speed: 28.1700, time: 6, energy_Wh: 44),
  (cut_id: 14, mch_id: 3, mode_id: 11, feed_rate: 33.7800, blade_speed: 9.3900, time: 5, energy_Wh: 53),
  (cut_id: 14, mch_id: 2, mode_id: 11, feed_rate: 33.7800, blade_speed: 9.3900, time: 5, energy_Wh: 53),
  (cut_id: 14, mch_id: 1, mode_id: 11, feed_rate: 33.7800, blade_speed: 9.3900, time: 5, energy_Wh: 53),
  (cut_id: 14, mch_id: 3, mode_id: 12, feed_rate: 33.7800, blade_speed: 14.0900, time: 5, energy_Wh: 60),
  (cut_id: 14, mch_id: 2, mode_id: 12, feed_rate: 33.7800, blade_speed: 14.0900, time: 5, energy_Wh: 60),
  (cut_id: 14, mch_id: 1, mode_id: 12, feed_rate: 33.7800, blade_speed: 14.0900, time: 5, energy_Wh: 60),
  (cut_id: 14, mch_id: 3, mode_id: 13, feed_rate: 33.7800, blade_speed: 18.7800, time: 5, energy_Wh: 43),
  (cut_id: 14, mch_id: 2, mode_id: 13, feed_rate: 33.7800, blade_speed: 18.7800, time: 5, energy_Wh: 43),
  (cut_id: 14, mch_id: 1, mode_id: 13, feed_rate: 33.7800, blade_speed: 18.7800, time: 5, energy_Wh: 43),
  (cut_id: 14, mch_id: 3, mode_id: 14, feed_rate: 33.7800, blade_speed: 23.4800, time: 5, energy_Wh: 28),
  (cut_id: 14, mch_id: 2, mode_id: 14, feed_rate: 33.7800, blade_speed: 23.4800, time: 5, energy_Wh: 28),
  (cut_id: 14, mch_id: 1, mode_id: 14, feed_rate: 33.7800, blade_speed: 23.4800, time: 5, energy_Wh: 28),
  (cut_id: 14, mch_id: 3, mode_id: 15, feed_rate: 33.7800, blade_speed: 28.1700, time: 5, energy_Wh: 41),
  (cut_id: 14, mch_id: 2, mode_id: 15, feed_rate: 33.7800, blade_speed: 28.1700, time: 5, energy_Wh: 41),
  (cut_id: 14, mch_id: 1, mode_id: 15, feed_rate: 33.7800, blade_speed: 28.1700, time: 5, energy_Wh: 41),
  (cut_id: 14, mch_id: 3, mode_id: 16, feed_rate: 42.2300, blade_speed: 9.3900, time: 4, energy_Wh: 58),
  (cut_id: 14, mch_id: 2, mode_id: 16, feed_rate: 42.2300, blade_speed: 9.3900, time: 4, energy_Wh: 58),
  (cut_id: 14, mch_id: 1, mode_id: 16, feed_rate: 42.2300, blade_speed: 9.3900, time: 4, energy_Wh: 58),
  (cut_id: 14, mch_id: 3, mode_id: 17, feed_rate: 42.2300, blade_speed: 14.0900, time: 4, energy_Wh: 79),
  (cut_id: 14, mch_id: 2, mode_id: 17, feed_rate: 42.2300, blade_speed: 14.0900, time: 4, energy_Wh: 79),
  (cut_id: 14, mch_id: 1, mode_id: 17, feed_rate: 42.2300, blade_speed: 14.0900, time: 4, energy_Wh: 79),
  (cut_id: 14, mch_id: 3, mode_id: 18, feed_rate: 42.2300, blade_speed: 18.7800, time: 4, energy_Wh: 61),
  (cut_id: 14, mch_id: 2, mode_id: 18, feed_rate: 42.2300, blade_speed: 18.7800, time: 4, energy_Wh: 61),
  (cut_id: 14, mch_id: 1, mode_id: 18, feed_rate: 42.2300, blade_speed: 18.7800, time: 4, energy_Wh: 61),
  (cut_id: 14, mch_id: 3, mode_id: 19, feed_rate: 42.2300, blade_speed: 23.4800, time: 4, energy_Wh: 30),
  (cut_id: 14, mch_id: 2, mode_id: 19, feed_rate: 42.2300, blade_speed: 23.4800, time: 4, energy_Wh: 30),
  (cut_id: 14, mch_id: 1, mode_id: 19, feed_rate: 42.2300, blade_speed: 23.4800, time: 4, energy_Wh: 30),
  (cut_id: 14, mch_id: 3, mode_id: 20, feed_rate: 42.2300, blade_speed: 28.1700, time: 4, energy_Wh: 50),
  (cut_id: 14, mch_id: 2, mode_id: 20, feed_rate: 42.2300, blade_speed: 28.1700, time: 4, energy_Wh: 50),
  (cut_id: 14, mch_id: 1, mode_id: 20, feed_rate: 42.2300, blade_speed: 28.1700, time: 4, energy_Wh: 50),
  (cut_id: 14, mch_id: 3, mode_id: 21, feed_rate: 50.6700, blade_speed: 9.3900, time: 3, energy_Wh: 59),
  (cut_id: 14, mch_id: 2, mode_id: 21, feed_rate: 50.6700, blade_speed: 9.3900, time: 3, energy_Wh: 59),
  (cut_id: 14, mch_id: 1, mode_id: 21, feed_rate: 50.6700, blade_speed: 9.3900, time: 3, energy_Wh: 59),
  (cut_id: 14, mch_id: 3, mode_id: 22, feed_rate: 50.6700, blade_speed: 14.0900, time: 3, energy_Wh: 88),
  (cut_id: 14, mch_id: 2, mode_id: 22, feed_rate: 50.6700, blade_speed: 14.0900, time: 3, energy_Wh: 88),
  (cut_id: 14, mch_id: 1, mode_id: 22, feed_rate: 50.6700, blade_speed: 14.0900, time: 3, energy_Wh: 88),
  (cut_id: 14, mch_id: 3, mode_id: 23, feed_rate: 50.6700, blade_speed: 18.7800, time: 3, energy_Wh: 54),
  (cut_id: 14, mch_id: 2, mode_id: 23, feed_rate: 50.6700, blade_speed: 18.7800, time: 3, energy_Wh: 54),
  (cut_id: 14, mch_id: 1, mode_id: 23, feed_rate: 50.6700, blade_speed: 18.7800, time: 3, energy_Wh: 54),
  (cut_id: 14, mch_id: 3, mode_id: 24, feed_rate: 50.6700, blade_speed: 23.4800, time: 3, energy_Wh: 36),
  (cut_id: 14, mch_id: 2, mode_id: 24, feed_rate: 50.6700, blade_speed: 23.4800, time: 3, energy_Wh: 36),
  (cut_id: 14, mch_id: 1, mode_id: 24, feed_rate: 50.6700, blade_speed: 23.4800, time: 3, energy_Wh: 36),
  (cut_id: 14, mch_id: 3, mode_id: 25, feed_rate: 50.6700, blade_speed: 28.1700, time: 3, energy_Wh: 51),
  (cut_id: 14, mch_id: 2, mode_id: 25, feed_rate: 50.6700, blade_speed: 28.1700, time: 3, energy_Wh: 51),
  (cut_id: 14, mch_id: 1, mode_id: 25, feed_rate: 50.6700, blade_speed: 28.1700, time: 3, energy_Wh: 51),
  (cut_id: 15, mch_id: 3, mode_id: 1, feed_rate: 16.8900, blade_speed: 9.3900, time: 14, energy_Wh: 48),
  (cut_id: 15, mch_id: 1, mode_id: 1, feed_rate: 16.8900, blade_speed: 9.3900, time: 14, energy_Wh: 48),
  (cut_id: 15, mch_id: 2, mode_id: 1, feed_rate: 16.8900, blade_speed: 9.3900, time: 14, energy_Wh: 48),
  (cut_id: 15, mch_id: 3, mode_id: 2, feed_rate: 16.8900, blade_speed: 14.0900, time: 14, energy_Wh: 48),
  (cut_id: 15, mch_id: 1, mode_id: 2, feed_rate: 16.8900, blade_speed: 14.0900, time: 14, energy_Wh: 48),
  (cut_id: 15, mch_id: 2, mode_id: 2, feed_rate: 16.8900, blade_speed: 14.0900, time: 14, energy_Wh: 48),
  (cut_id: 15, mch_id: 3, mode_id: 3, feed_rate: 16.8900, blade_speed: 18.7800, time: 14, energy_Wh: 34),
  (cut_id: 15, mch_id: 1, mode_id: 3, feed_rate: 16.8900, blade_speed: 18.7800, time: 14, energy_Wh: 34),
  (cut_id: 15, mch_id: 2, mode_id: 3, feed_rate: 16.8900, blade_speed: 18.7800, time: 14, energy_Wh: 34),
  (cut_id: 15, mch_id: 3, mode_id: 4, feed_rate: 16.8900, blade_speed: 23.4800, time: 14, energy_Wh: 24),
  (cut_id: 15, mch_id: 1, mode_id: 4, feed_rate: 16.8900, blade_speed: 23.4800, time: 14, energy_Wh: 24),
  (cut_id: 15, mch_id: 2, mode_id: 4, feed_rate: 16.8900, blade_speed: 23.4800, time: 14, energy_Wh: 24),
  (cut_id: 15, mch_id: 3, mode_id: 5, feed_rate: 16.8900, blade_speed: 28.1700, time: 14, energy_Wh: 35),
  (cut_id: 15, mch_id: 1, mode_id: 5, feed_rate: 16.8900, blade_speed: 28.1700, time: 14, energy_Wh: 35),
  (cut_id: 15, mch_id: 2, mode_id: 5, feed_rate: 16.8900, blade_speed: 28.1700, time: 14, energy_Wh: 35),
  (cut_id: 15, mch_id: 3, mode_id: 6, feed_rate: 25.3400, blade_speed: 9.3900, time: 10, energy_Wh: 51),
  (cut_id: 15, mch_id: 1, mode_id: 6, feed_rate: 25.3400, blade_speed: 9.3900, time: 10, energy_Wh: 51),
  (cut_id: 15, mch_id: 2, mode_id: 6, feed_rate: 25.3400, blade_speed: 9.3900, time: 10, energy_Wh: 51),
  (cut_id: 15, mch_id: 3, mode_id: 7, feed_rate: 25.3400, blade_speed: 14.0900, time: 10, energy_Wh: 61),
  (cut_id: 15, mch_id: 1, mode_id: 7, feed_rate: 25.3400, blade_speed: 14.0900, time: 10, energy_Wh: 61),
  (cut_id: 15, mch_id: 2, mode_id: 7, feed_rate: 25.3400, blade_speed: 14.0900, time: 10, energy_Wh: 61),
  (cut_id: 15, mch_id: 3, mode_id: 8, feed_rate: 25.3400, blade_speed: 18.7800, time: 10, energy_Wh: 53),
  (cut_id: 15, mch_id: 1, mode_id: 8, feed_rate: 25.3400, blade_speed: 18.7800, time: 10, energy_Wh: 53),
  (cut_id: 15, mch_id: 2, mode_id: 8, feed_rate: 25.3400, blade_speed: 18.7800, time: 10, energy_Wh: 53),
  (cut_id: 15, mch_id: 3, mode_id: 9, feed_rate: 25.3400, blade_speed: 23.4800, time: 10, energy_Wh: 31),
  (cut_id: 15, mch_id: 1, mode_id: 9, feed_rate: 25.3400, blade_speed: 23.4800, time: 10, energy_Wh: 31),
  (cut_id: 15, mch_id: 2, mode_id: 9, feed_rate: 25.3400, blade_speed: 23.4800, time: 10, energy_Wh: 31),
  (cut_id: 15, mch_id: 3, mode_id: 10, feed_rate: 25.3400, blade_speed: 28.1700, time: 10, energy_Wh: 44),
  (cut_id: 15, mch_id: 1, mode_id: 10, feed_rate: 25.3400, blade_speed: 28.1700, time: 10, energy_Wh: 44),
  (cut_id: 15, mch_id: 2, mode_id: 10, feed_rate: 25.3400, blade_speed: 28.1700, time: 10, energy_Wh: 44),
  (cut_id: 15, mch_id: 3, mode_id: 11, feed_rate: 33.7800, blade_speed: 9.3900, time: 7, energy_Wh: 58),
  (cut_id: 15, mch_id: 1, mode_id: 11, feed_rate: 33.7800, blade_speed: 9.3900, time: 7, energy_Wh: 58),
  (cut_id: 15, mch_id: 2, mode_id: 11, feed_rate: 33.7800, blade_speed: 9.3900, time: 7, energy_Wh: 58),
  (cut_id: 15, mch_id: 3, mode_id: 12, feed_rate: 33.7800, blade_speed: 14.0900, time: 7, energy_Wh: 63),
  (cut_id: 15, mch_id: 1, mode_id: 12, feed_rate: 33.7800, blade_speed: 14.0900, time: 7, energy_Wh: 63),
  (cut_id: 15, mch_id: 2, mode_id: 12, feed_rate: 33.7800, blade_speed: 14.0900, time: 7, energy_Wh: 63),
  (cut_id: 15, mch_id: 3, mode_id: 13, feed_rate: 33.7800, blade_speed: 18.7800, time: 7, energy_Wh: 57),
  (cut_id: 15, mch_id: 1, mode_id: 13, feed_rate: 33.7800, blade_speed: 18.7800, time: 7, energy_Wh: 57),
  (cut_id: 15, mch_id: 2, mode_id: 13, feed_rate: 33.7800, blade_speed: 18.7800, time: 7, energy_Wh: 57),
  (cut_id: 15, mch_id: 3, mode_id: 14, feed_rate: 33.7800, blade_speed: 23.4800, time: 7, energy_Wh: 38),
  (cut_id: 15, mch_id: 1, mode_id: 14, feed_rate: 33.7800, blade_speed: 23.4800, time: 7, energy_Wh: 38),
  (cut_id: 15, mch_id: 2, mode_id: 14, feed_rate: 33.7800, blade_speed: 23.4800, time: 7, energy_Wh: 38),
  (cut_id: 15, mch_id: 3, mode_id: 15, feed_rate: 33.7800, blade_speed: 28.1700, time: 7, energy_Wh: 61),
  (cut_id: 15, mch_id: 1, mode_id: 15, feed_rate: 33.7800, blade_speed: 28.1700, time: 7, energy_Wh: 61),
  (cut_id: 15, mch_id: 2, mode_id: 15, feed_rate: 33.7800, blade_speed: 28.1700, time: 7, energy_Wh: 61),
  (cut_id: 15, mch_id: 3, mode_id: 16, feed_rate: 42.2300, blade_speed: 9.3900, time: 6, energy_Wh: 62),
  (cut_id: 15, mch_id: 1, mode_id: 16, feed_rate: 42.2300, blade_speed: 9.3900, time: 6, energy_Wh: 62),
  (cut_id: 15, mch_id: 2, mode_id: 16, feed_rate: 42.2300, blade_speed: 9.3900, time: 6, energy_Wh: 62),
  (cut_id: 15, mch_id: 3, mode_id: 17, feed_rate: 42.2300, blade_speed: 14.0900, time: 6, energy_Wh: 91),
  (cut_id: 15, mch_id: 1, mode_id: 17, feed_rate: 42.2300, blade_speed: 14.0900, time: 6, energy_Wh: 91),
  (cut_id: 15, mch_id: 2, mode_id: 17, feed_rate: 42.2300, blade_speed: 14.0900, time: 6, energy_Wh: 91),
  (cut_id: 15, mch_id: 3, mode_id: 18, feed_rate: 42.2300, blade_speed: 18.7800, time: 6, energy_Wh: 48),
  (cut_id: 15, mch_id: 1, mode_id: 18, feed_rate: 42.2300, blade_speed: 18.7800, time: 6, energy_Wh: 48),
  (cut_id: 15, mch_id: 2, mode_id: 18, feed_rate: 42.2300, blade_speed: 18.7800, time: 6, energy_Wh: 48),
  (cut_id: 15, mch_id: 3, mode_id: 19, feed_rate: 42.2300, blade_speed: 23.4800, time: 6, energy_Wh: 34),
  (cut_id: 15, mch_id: 1, mode_id: 19, feed_rate: 42.2300, blade_speed: 23.4800, time: 6, energy_Wh: 34),
  (cut_id: 15, mch_id: 2, mode_id: 19, feed_rate: 42.2300, blade_speed: 23.4800, time: 6, energy_Wh: 34),
  (cut_id: 15, mch_id: 3, mode_id: 20, feed_rate: 42.2300, blade_speed: 28.1700, time: 6, energy_Wh: 58),
  (cut_id: 15, mch_id: 1, mode_id: 20, feed_rate: 42.2300, blade_speed: 28.1700, time: 6, energy_Wh: 58),
  (cut_id: 15, mch_id: 2, mode_id: 20, feed_rate: 42.2300, blade_speed: 28.1700, time: 6, energy_Wh: 58),
  (cut_id: 15, mch_id: 3, mode_id: 21, feed_rate: 50.6700, blade_speed: 9.3900, time: 5, energy_Wh: 81),
  (cut_id: 15, mch_id: 1, mode_id: 21, feed_rate: 50.6700, blade_speed: 9.3900, time: 5, energy_Wh: 81),
  (cut_id: 15, mch_id: 2, mode_id: 21, feed_rate: 50.6700, blade_speed: 9.3900, time: 5, energy_Wh: 81),
  (cut_id: 15, mch_id: 3, mode_id: 22, feed_rate: 50.6700, blade_speed: 14.0900, time: 5, energy_Wh: 78),
  (cut_id: 15, mch_id: 1, mode_id: 22, feed_rate: 50.6700, blade_speed: 14.0900, time: 5, energy_Wh: 78),
  (cut_id: 15, mch_id: 2, mode_id: 22, feed_rate: 50.6700, blade_speed: 14.0900, time: 5, energy_Wh: 78),
  (cut_id: 15, mch_id: 3, mode_id: 23, feed_rate: 50.6700, blade_speed: 18.7800, time: 5, energy_Wh: 73),
  (cut_id: 15, mch_id: 1, mode_id: 23, feed_rate: 50.6700, blade_speed: 18.7800, time: 5, energy_Wh: 73),
  (cut_id: 15, mch_id: 2, mode_id: 23, feed_rate: 50.6700, blade_speed: 18.7800, time: 5, energy_Wh: 73),
  (cut_id: 15, mch_id: 3, mode_id: 24, feed_rate: 50.6700, blade_speed: 23.4800, time: 5, energy_Wh: 40),
  (cut_id: 15, mch_id: 1, mode_id: 24, feed_rate: 50.6700, blade_speed: 23.4800, time: 5, energy_Wh: 40),
  (cut_id: 15, mch_id: 2, mode_id: 24, feed_rate: 50.6700, blade_speed: 23.4800, time: 5, energy_Wh: 40),
  (cut_id: 15, mch_id: 3, mode_id: 25, feed_rate: 50.6700, blade_speed: 28.1700, time: 5, energy_Wh: 59),
  (cut_id: 15, mch_id: 1, mode_id: 25, feed_rate: 50.6700, blade_speed: 28.1700, time: 5, energy_Wh: 59),
  (cut_id: 15, mch_id: 2, mode_id: 25, feed_rate: 50.6700, blade_speed: 28.1700, time: 5, energy_Wh: 59),
  (cut_id: 16, mch_id: 1, mode_id: 1, feed_rate: 27.2900, blade_speed: 12.1700, time: 7, energy_Wh: 38),
  (cut_id: 16, mch_id: 2, mode_id: 1, feed_rate: 27.2900, blade_speed: 12.1700, time: 7, energy_Wh: 38),
  (cut_id: 16, mch_id: 3, mode_id: 1, feed_rate: 27.2900, blade_speed: 12.1700, time: 7, energy_Wh: 38),
  (cut_id: 16, mch_id: 1, mode_id: 2, feed_rate: 27.2900, blade_speed: 18.2500, time: 7, energy_Wh: 39),
  (cut_id: 16, mch_id: 2, mode_id: 2, feed_rate: 27.2900, blade_speed: 18.2500, time: 7, energy_Wh: 39),
  (cut_id: 16, mch_id: 3, mode_id: 2, feed_rate: 27.2900, blade_speed: 18.2500, time: 7, energy_Wh: 39),
  (cut_id: 16, mch_id: 1, mode_id: 3, feed_rate: 27.2900, blade_speed: 24.3400, time: 7, energy_Wh: 33),
  (cut_id: 16, mch_id: 2, mode_id: 3, feed_rate: 27.2900, blade_speed: 24.3400, time: 7, energy_Wh: 33),
  (cut_id: 16, mch_id: 3, mode_id: 3, feed_rate: 27.2900, blade_speed: 24.3400, time: 7, energy_Wh: 33),
  (cut_id: 16, mch_id: 1, mode_id: 4, feed_rate: 27.2900, blade_speed: 30.4200, time: 7, energy_Wh: 31),
  (cut_id: 16, mch_id: 2, mode_id: 4, feed_rate: 27.2900, blade_speed: 30.4200, time: 7, energy_Wh: 31),
  (cut_id: 16, mch_id: 3, mode_id: 4, feed_rate: 27.2900, blade_speed: 30.4200, time: 7, energy_Wh: 31),
  (cut_id: 16, mch_id: 1, mode_id: 5, feed_rate: 27.2900, blade_speed: 36.5100, time: 7, energy_Wh: 36),
  (cut_id: 16, mch_id: 2, mode_id: 5, feed_rate: 27.2900, blade_speed: 36.5100, time: 7, energy_Wh: 36),
  (cut_id: 16, mch_id: 3, mode_id: 5, feed_rate: 27.2900, blade_speed: 36.5100, time: 7, energy_Wh: 36),
  (cut_id: 16, mch_id: 1, mode_id: 6, feed_rate: 40.9400, blade_speed: 12.1700, time: 5, energy_Wh: 44),
  (cut_id: 16, mch_id: 2, mode_id: 6, feed_rate: 40.9400, blade_speed: 12.1700, time: 5, energy_Wh: 44),
  (cut_id: 16, mch_id: 3, mode_id: 6, feed_rate: 40.9400, blade_speed: 12.1700, time: 5, energy_Wh: 44),
  (cut_id: 16, mch_id: 1, mode_id: 7, feed_rate: 40.9400, blade_speed: 18.2500, time: 5, energy_Wh: 54),
  (cut_id: 16, mch_id: 2, mode_id: 7, feed_rate: 40.9400, blade_speed: 18.2500, time: 5, energy_Wh: 54),
  (cut_id: 16, mch_id: 3, mode_id: 7, feed_rate: 40.9400, blade_speed: 18.2500, time: 5, energy_Wh: 54),
  (cut_id: 16, mch_id: 1, mode_id: 8, feed_rate: 40.9400, blade_speed: 24.3400, time: 5, energy_Wh: 43),
  (cut_id: 16, mch_id: 2, mode_id: 8, feed_rate: 40.9400, blade_speed: 24.3400, time: 5, energy_Wh: 43),
  (cut_id: 16, mch_id: 3, mode_id: 8, feed_rate: 40.9400, blade_speed: 24.3400, time: 5, energy_Wh: 43),
  (cut_id: 16, mch_id: 1, mode_id: 9, feed_rate: 40.9400, blade_speed: 30.4200, time: 5, energy_Wh: 37),
  (cut_id: 16, mch_id: 2, mode_id: 9, feed_rate: 40.9400, blade_speed: 30.4200, time: 5, energy_Wh: 37),
  (cut_id: 16, mch_id: 3, mode_id: 9, feed_rate: 40.9400, blade_speed: 30.4200, time: 5, energy_Wh: 37),
  (cut_id: 16, mch_id: 1, mode_id: 10, feed_rate: 40.9400, blade_speed: 36.5100, time: 5, energy_Wh: 46),
  (cut_id: 16, mch_id: 2, mode_id: 10, feed_rate: 40.9400, blade_speed: 36.5100, time: 5, energy_Wh: 46),
  (cut_id: 16, mch_id: 3, mode_id: 10, feed_rate: 40.9400, blade_speed: 36.5100, time: 5, energy_Wh: 46),
  (cut_id: 16, mch_id: 1, mode_id: 11, feed_rate: 54.5900, blade_speed: 12.1700, time: 4, energy_Wh: 51),
  (cut_id: 16, mch_id: 2, mode_id: 11, feed_rate: 54.5900, blade_speed: 12.1700, time: 4, energy_Wh: 51),
  (cut_id: 16, mch_id: 3, mode_id: 11, feed_rate: 54.5900, blade_speed: 12.1700, time: 4, energy_Wh: 51),
  (cut_id: 16, mch_id: 1, mode_id: 12, feed_rate: 54.5900, blade_speed: 18.2500, time: 4, energy_Wh: 55),
  (cut_id: 16, mch_id: 2, mode_id: 12, feed_rate: 54.5900, blade_speed: 18.2500, time: 4, energy_Wh: 55),
  (cut_id: 16, mch_id: 3, mode_id: 12, feed_rate: 54.5900, blade_speed: 18.2500, time: 4, energy_Wh: 55),
  (cut_id: 16, mch_id: 1, mode_id: 13, feed_rate: 54.5900, blade_speed: 24.3400, time: 4, energy_Wh: 60),
  (cut_id: 16, mch_id: 2, mode_id: 13, feed_rate: 54.5900, blade_speed: 24.3400, time: 4, energy_Wh: 60),
  (cut_id: 16, mch_id: 3, mode_id: 13, feed_rate: 54.5900, blade_speed: 24.3400, time: 4, energy_Wh: 60),
  (cut_id: 16, mch_id: 1, mode_id: 14, feed_rate: 54.5900, blade_speed: 30.4200, time: 4, energy_Wh: 43),
  (cut_id: 16, mch_id: 2, mode_id: 14, feed_rate: 54.5900, blade_speed: 30.4200, time: 4, energy_Wh: 43),
  (cut_id: 16, mch_id: 3, mode_id: 14, feed_rate: 54.5900, blade_speed: 30.4200, time: 4, energy_Wh: 43),
  (cut_id: 16, mch_id: 1, mode_id: 15, feed_rate: 54.5900, blade_speed: 36.5100, time: 4, energy_Wh: 56),
  (cut_id: 16, mch_id: 2, mode_id: 15, feed_rate: 54.5900, blade_speed: 36.5100, time: 4, energy_Wh: 56),
  (cut_id: 16, mch_id: 3, mode_id: 15, feed_rate: 54.5900, blade_speed: 36.5100, time: 4, energy_Wh: 56),
  (cut_id: 16, mch_id: 1, mode_id: 16, feed_rate: 68.2300, blade_speed: 12.1700, time: 3, energy_Wh: 80),
  (cut_id: 16, mch_id: 2, mode_id: 16, feed_rate: 68.2300, blade_speed: 12.1700, time: 3, energy_Wh: 80),
  (cut_id: 16, mch_id: 3, mode_id: 16, feed_rate: 68.2300, blade_speed: 12.1700, time: 3, energy_Wh: 80),
  (cut_id: 16, mch_id: 1, mode_id: 17, feed_rate: 68.2300, blade_speed: 18.2500, time: 3, energy_Wh: 88),
  (cut_id: 16, mch_id: 2, mode_id: 17, feed_rate: 68.2300, blade_speed: 18.2500, time: 3, energy_Wh: 88),
  (cut_id: 16, mch_id: 3, mode_id: 17, feed_rate: 68.2300, blade_speed: 18.2500, time: 3, energy_Wh: 88),
  (cut_id: 16, mch_id: 1, mode_id: 18, feed_rate: 68.2300, blade_speed: 24.3400, time: 3, energy_Wh: 65),
  (cut_id: 16, mch_id: 2, mode_id: 18, feed_rate: 68.2300, blade_speed: 24.3400, time: 3, energy_Wh: 65),
  (cut_id: 16, mch_id: 3, mode_id: 18, feed_rate: 68.2300, blade_speed: 24.3400, time: 3, energy_Wh: 65),
  (cut_id: 16, mch_id: 1, mode_id: 19, feed_rate: 68.2300, blade_speed: 30.4200, time: 3, energy_Wh: 75),
  (cut_id: 16, mch_id: 2, mode_id: 19, feed_rate: 68.2300, blade_speed: 30.4200, time: 3, energy_Wh: 75),
  (cut_id: 16, mch_id: 3, mode_id: 19, feed_rate: 68.2300, blade_speed: 30.4200, time: 3, energy_Wh: 75),
  (cut_id: 16, mch_id: 1, mode_id: 20, feed_rate: 68.2300, blade_speed: 36.5100, time: 3, energy_Wh: 76),
  (cut_id: 16, mch_id: 2, mode_id: 20, feed_rate: 68.2300, blade_speed: 36.5100, time: 3, energy_Wh: 76),
  (cut_id: 16, mch_id: 3, mode_id: 20, feed_rate: 68.2300, blade_speed: 36.5100, time: 3, energy_Wh: 76),
  (cut_id: 16, mch_id: 1, mode_id: 21, feed_rate: 81.8800, blade_speed: 12.1700, time: 3, energy_Wh: 97),
  (cut_id: 16, mch_id: 2, mode_id: 21, feed_rate: 81.8800, blade_speed: 12.1700, time: 3, energy_Wh: 97),
  (cut_id: 16, mch_id: 3, mode_id: 21, feed_rate: 81.8800, blade_speed: 12.1700, time: 3, energy_Wh: 97),
  (cut_id: 16, mch_id: 1, mode_id: 22, feed_rate: 81.8800, blade_speed: 18.2500, time: 3, energy_Wh: 75),
  (cut_id: 16, mch_id: 2, mode_id: 22, feed_rate: 81.8800, blade_speed: 18.2500, time: 3, energy_Wh: 75),
  (cut_id: 16, mch_id: 3, mode_id: 22, feed_rate: 81.8800, blade_speed: 18.2500, time: 3, energy_Wh: 75),
  (cut_id: 16, mch_id: 1, mode_id: 23, feed_rate: 81.8800, blade_speed: 24.3400, time: 3, energy_Wh: 80),
  (cut_id: 16, mch_id: 2, mode_id: 23, feed_rate: 81.8800, blade_speed: 24.3400, time: 3, energy_Wh: 80),
  (cut_id: 16, mch_id: 3, mode_id: 23, feed_rate: 81.8800, blade_speed: 24.3400, time: 3, energy_Wh: 80),
  (cut_id: 16, mch_id: 1, mode_id: 24, feed_rate: 81.8800, blade_speed: 30.4200, time: 3, energy_Wh: 92),
  (cut_id: 16, mch_id: 2, mode_id: 24, feed_rate: 81.8800, blade_speed: 30.4200, time: 3, energy_Wh: 92),
  (cut_id: 16, mch_id: 3, mode_id: 24, feed_rate: 81.8800, blade_speed: 30.4200, time: 3, energy_Wh: 92),
  (cut_id: 16, mch_id: 1, mode_id: 25, feed_rate: 81.8800, blade_speed: 36.5100, time: 3, energy_Wh: 63),
  (cut_id: 16, mch_id: 2, mode_id: 25, feed_rate: 81.8800, blade_speed: 36.5100, time: 3, energy_Wh: 63),
  (cut_id: 16, mch_id: 3, mode_id: 25, feed_rate: 81.8800, blade_speed: 36.5100, time: 3, energy_Wh: 63),
  (cut_id: 17, mch_id: 3, mode_id: 1, feed_rate: 15.0000, blade_speed: 11.4200, time: 12, energy_Wh: 24),
  (cut_id: 17, mch_id: 1, mode_id: 1, feed_rate: 15.0000, blade_speed: 11.4200, time: 12, energy_Wh: 24),
  (cut_id: 17, mch_id: 2, mode_id: 1, feed_rate: 15.0000, blade_speed: 11.4200, time: 12, energy_Wh: 24),
  (cut_id: 17, mch_id: 3, mode_id: 2, feed_rate: 15.0000, blade_speed: 17.1300, time: 12, energy_Wh: 29),
  (cut_id: 17, mch_id: 1, mode_id: 2, feed_rate: 15.0000, blade_speed: 17.1300, time: 12, energy_Wh: 29),
  (cut_id: 17, mch_id: 2, mode_id: 2, feed_rate: 15.0000, blade_speed: 17.1300, time: 12, energy_Wh: 29),
  (cut_id: 17, mch_id: 3, mode_id: 3, feed_rate: 15.0000, blade_speed: 22.8500, time: 12, energy_Wh: 23),
  (cut_id: 17, mch_id: 1, mode_id: 3, feed_rate: 15.0000, blade_speed: 22.8500, time: 12, energy_Wh: 23),
  (cut_id: 17, mch_id: 2, mode_id: 3, feed_rate: 15.0000, blade_speed: 22.8500, time: 12, energy_Wh: 23),
  (cut_id: 17, mch_id: 3, mode_id: 4, feed_rate: 15.0000, blade_speed: 28.5600, time: 12, energy_Wh: 31),
  (cut_id: 17, mch_id: 1, mode_id: 4, feed_rate: 15.0000, blade_speed: 28.5600, time: 12, energy_Wh: 31),
  (cut_id: 17, mch_id: 2, mode_id: 4, feed_rate: 15.0000, blade_speed: 28.5600, time: 12, energy_Wh: 31),
  (cut_id: 17, mch_id: 3, mode_id: 5, feed_rate: 15.0000, blade_speed: 34.2700, time: 12, energy_Wh: 35),
  (cut_id: 17, mch_id: 1, mode_id: 5, feed_rate: 15.0000, blade_speed: 34.2700, time: 12, energy_Wh: 35),
  (cut_id: 17, mch_id: 2, mode_id: 5, feed_rate: 15.0000, blade_speed: 34.2700, time: 12, energy_Wh: 35),
  (cut_id: 17, mch_id: 3, mode_id: 6, feed_rate: 22.5000, blade_speed: 11.4200, time: 8, energy_Wh: 30),
  (cut_id: 17, mch_id: 1, mode_id: 6, feed_rate: 22.5000, blade_speed: 11.4200, time: 8, energy_Wh: 30),
  (cut_id: 17, mch_id: 2, mode_id: 6, feed_rate: 22.5000, blade_speed: 11.4200, time: 8, energy_Wh: 30),
  (cut_id: 17, mch_id: 3, mode_id: 7, feed_rate: 22.5000, blade_speed: 17.1300, time: 8, energy_Wh: 25),
  (cut_id: 17, mch_id: 1, mode_id: 7, feed_rate: 22.5000, blade_speed: 17.1300, time: 8, energy_Wh: 25),
  (cut_id: 17, mch_id: 2, mode_id: 7, feed_rate: 22.5000, blade_speed: 17.1300, time: 8, energy_Wh: 25),
  (cut_id: 17, mch_id: 3, mode_id: 8, feed_rate: 22.5000, blade_speed: 22.8500, time: 8, energy_Wh: 30),
  (cut_id: 17, mch_id: 1, mode_id: 8, feed_rate: 22.5000, blade_speed: 22.8500, time: 8, energy_Wh: 30),
  (cut_id: 17, mch_id: 2, mode_id: 8, feed_rate: 22.5000, blade_speed: 22.8500, time: 8, energy_Wh: 30),
  (cut_id: 17, mch_id: 3, mode_id: 9, feed_rate: 22.5000, blade_speed: 28.5600, time: 8, energy_Wh: 36),
  (cut_id: 17, mch_id: 1, mode_id: 9, feed_rate: 22.5000, blade_speed: 28.5600, time: 8, energy_Wh: 36),
  (cut_id: 17, mch_id: 2, mode_id: 9, feed_rate: 22.5000, blade_speed: 28.5600, time: 8, energy_Wh: 36),
  (cut_id: 17, mch_id: 3, mode_id: 10, feed_rate: 22.5000, blade_speed: 34.2700, time: 8, energy_Wh: 51),
  (cut_id: 17, mch_id: 1, mode_id: 10, feed_rate: 22.5000, blade_speed: 34.2700, time: 8, energy_Wh: 51),
  (cut_id: 17, mch_id: 2, mode_id: 10, feed_rate: 22.5000, blade_speed: 34.2700, time: 8, energy_Wh: 51),
  (cut_id: 17, mch_id: 3, mode_id: 11, feed_rate: 30.0000, blade_speed: 11.4200, time: 6, energy_Wh: 27),
  (cut_id: 17, mch_id: 1, mode_id: 11, feed_rate: 30.0000, blade_speed: 11.4200, time: 6, energy_Wh: 27),
  (cut_id: 17, mch_id: 2, mode_id: 11, feed_rate: 30.0000, blade_speed: 11.4200, time: 6, energy_Wh: 27),
  (cut_id: 17, mch_id: 3, mode_id: 12, feed_rate: 30.0000, blade_speed: 17.1300, time: 6, energy_Wh: 29),
  (cut_id: 17, mch_id: 1, mode_id: 12, feed_rate: 30.0000, blade_speed: 17.1300, time: 6, energy_Wh: 29),
  (cut_id: 17, mch_id: 2, mode_id: 12, feed_rate: 30.0000, blade_speed: 17.1300, time: 6, energy_Wh: 29),
  (cut_id: 17, mch_id: 3, mode_id: 13, feed_rate: 30.0000, blade_speed: 22.8500, time: 6, energy_Wh: 30),
  (cut_id: 17, mch_id: 1, mode_id: 13, feed_rate: 30.0000, blade_speed: 22.8500, time: 6, energy_Wh: 30),
  (cut_id: 17, mch_id: 2, mode_id: 13, feed_rate: 30.0000, blade_speed: 22.8500, time: 6, energy_Wh: 30),
  (cut_id: 17, mch_id: 3, mode_id: 14, feed_rate: 30.0000, blade_speed: 28.5600, time: 6, energy_Wh: 45),
  (cut_id: 17, mch_id: 1, mode_id: 14, feed_rate: 30.0000, blade_speed: 28.5600, time: 6, energy_Wh: 45),
  (cut_id: 17, mch_id: 2, mode_id: 14, feed_rate: 30.0000, blade_speed: 28.5600, time: 6, energy_Wh: 45),
  (cut_id: 17, mch_id: 3, mode_id: 15, feed_rate: 30.0000, blade_speed: 34.2700, time: 6, energy_Wh: 55),
  (cut_id: 17, mch_id: 1, mode_id: 15, feed_rate: 30.0000, blade_speed: 34.2700, time: 6, energy_Wh: 55),
  (cut_id: 17, mch_id: 2, mode_id: 15, feed_rate: 30.0000, blade_speed: 34.2700, time: 6, energy_Wh: 55),
  (cut_id: 17, mch_id: 3, mode_id: 16, feed_rate: 37.5000, blade_speed: 11.4200, time: 5, energy_Wh: 30),
  (cut_id: 17, mch_id: 1, mode_id: 16, feed_rate: 37.5000, blade_speed: 11.4200, time: 5, energy_Wh: 30),
  (cut_id: 17, mch_id: 2, mode_id: 16, feed_rate: 37.5000, blade_speed: 11.4200, time: 5, energy_Wh: 30),
  (cut_id: 17, mch_id: 3, mode_id: 17, feed_rate: 37.5000, blade_speed: 17.1300, time: 5, energy_Wh: 40),
  (cut_id: 17, mch_id: 1, mode_id: 17, feed_rate: 37.5000, blade_speed: 17.1300, time: 5, energy_Wh: 40),
  (cut_id: 17, mch_id: 2, mode_id: 17, feed_rate: 37.5000, blade_speed: 17.1300, time: 5, energy_Wh: 40),
  (cut_id: 17, mch_id: 3, mode_id: 18, feed_rate: 37.5000, blade_speed: 22.8500, time: 5, energy_Wh: 46),
  (cut_id: 17, mch_id: 1, mode_id: 18, feed_rate: 37.5000, blade_speed: 22.8500, time: 5, energy_Wh: 46),
  (cut_id: 17, mch_id: 2, mode_id: 18, feed_rate: 37.5000, blade_speed: 22.8500, time: 5, energy_Wh: 46),
  (cut_id: 17, mch_id: 3, mode_id: 19, feed_rate: 37.5000, blade_speed: 28.5600, time: 5, energy_Wh: 46),
  (cut_id: 17, mch_id: 1, mode_id: 19, feed_rate: 37.5000, blade_speed: 28.5600, time: 5, energy_Wh: 46),
  (cut_id: 17, mch_id: 2, mode_id: 19, feed_rate: 37.5000, blade_speed: 28.5600, time: 5, energy_Wh: 46),
  (cut_id: 17, mch_id: 3, mode_id: 20, feed_rate: 37.5000, blade_speed: 34.2700, time: 5, energy_Wh: 58),
  (cut_id: 17, mch_id: 1, mode_id: 20, feed_rate: 37.5000, blade_speed: 34.2700, time: 5, energy_Wh: 58),
  (cut_id: 17, mch_id: 2, mode_id: 20, feed_rate: 37.5000, blade_speed: 34.2700, time: 5, energy_Wh: 58),
  (cut_id: 17, mch_id: 3, mode_id: 21, feed_rate: 45.0000, blade_speed: 11.4200, time: 4, energy_Wh: 47),
  (cut_id: 17, mch_id: 1, mode_id: 21, feed_rate: 45.0000, blade_speed: 11.4200, time: 4, energy_Wh: 47),
  (cut_id: 17, mch_id: 2, mode_id: 21, feed_rate: 45.0000, blade_speed: 11.4200, time: 4, energy_Wh: 47),
  (cut_id: 17, mch_id: 3, mode_id: 22, feed_rate: 45.0000, blade_speed: 17.1300, time: 4, energy_Wh: 48),
  (cut_id: 17, mch_id: 1, mode_id: 22, feed_rate: 45.0000, blade_speed: 17.1300, time: 4, energy_Wh: 48),
  (cut_id: 17, mch_id: 2, mode_id: 22, feed_rate: 45.0000, blade_speed: 17.1300, time: 4, energy_Wh: 48),
  (cut_id: 17, mch_id: 3, mode_id: 23, feed_rate: 45.0000, blade_speed: 22.8500, time: 4, energy_Wh: 40),
  (cut_id: 17, mch_id: 1, mode_id: 23, feed_rate: 45.0000, blade_speed: 22.8500, time: 4, energy_Wh: 40),
  (cut_id: 17, mch_id: 2, mode_id: 23, feed_rate: 45.0000, blade_speed: 22.8500, time: 4, energy_Wh: 40),
  (cut_id: 17, mch_id: 3, mode_id: 24, feed_rate: 45.0000, blade_speed: 28.5600, time: 4, energy_Wh: 57),
  (cut_id: 17, mch_id: 1, mode_id: 24, feed_rate: 45.0000, blade_speed: 28.5600, time: 4, energy_Wh: 57),
  (cut_id: 17, mch_id: 2, mode_id: 24, feed_rate: 45.0000, blade_speed: 28.5600, time: 4, energy_Wh: 57),
  (cut_id: 17, mch_id: 3, mode_id: 25, feed_rate: 45.0000, blade_speed: 34.2700, time: 4, energy_Wh: 52),
  (cut_id: 17, mch_id: 1, mode_id: 25, feed_rate: 45.0000, blade_speed: 34.2700, time: 4, energy_Wh: 52),
  (cut_id: 17, mch_id: 2, mode_id: 25, feed_rate: 45.0000, blade_speed: 34.2700, time: 4, energy_Wh: 52),
  (cut_id: 18, mch_id: 2, mode_id: 1, feed_rate: 35.0000, blade_speed: 60.0000, time: 7, energy_Wh: 45),
  (cut_id: 18, mch_id: 3, mode_id: 1, feed_rate: 35.0000, blade_speed: 60.0000, time: 7, energy_Wh: 45),
  (cut_id: 18, mch_id: 1, mode_id: 1, feed_rate: 35.0000, blade_speed: 60.0000, time: 7, energy_Wh: 45),
  (cut_id: 18, mch_id: 2, mode_id: 2, feed_rate: 35.0000, blade_speed: 90.0000, time: 7, energy_Wh: 64),
  (cut_id: 18, mch_id: 3, mode_id: 2, feed_rate: 35.0000, blade_speed: 90.0000, time: 7, energy_Wh: 64),
  (cut_id: 18, mch_id: 1, mode_id: 2, feed_rate: 35.0000, blade_speed: 90.0000, time: 7, energy_Wh: 64),
  (cut_id: 18, mch_id: 2, mode_id: 3, feed_rate: 35.0000, blade_speed: 120.0000, time: 7, energy_Wh: 49),
  (cut_id: 18, mch_id: 3, mode_id: 3, feed_rate: 35.0000, blade_speed: 120.0000, time: 7, energy_Wh: 49),
  (cut_id: 18, mch_id: 1, mode_id: 3, feed_rate: 35.0000, blade_speed: 120.0000, time: 7, energy_Wh: 49),
  (cut_id: 18, mch_id: 2, mode_id: 4, feed_rate: 35.0000, blade_speed: 150.0000, time: 7, energy_Wh: 41),
  (cut_id: 18, mch_id: 3, mode_id: 4, feed_rate: 35.0000, blade_speed: 150.0000, time: 7, energy_Wh: 41),
  (cut_id: 18, mch_id: 1, mode_id: 4, feed_rate: 35.0000, blade_speed: 150.0000, time: 7, energy_Wh: 41),
  (cut_id: 18, mch_id: 2, mode_id: 5, feed_rate: 35.0000, blade_speed: 180.0000, time: 7, energy_Wh: 46),
  (cut_id: 18, mch_id: 3, mode_id: 5, feed_rate: 35.0000, blade_speed: 180.0000, time: 7, energy_Wh: 46),
  (cut_id: 18, mch_id: 1, mode_id: 5, feed_rate: 35.0000, blade_speed: 180.0000, time: 7, energy_Wh: 46),
  (cut_id: 18, mch_id: 2, mode_id: 6, feed_rate: 52.5000, blade_speed: 60.0000, time: 5, energy_Wh: 52),
  (cut_id: 18, mch_id: 3, mode_id: 6, feed_rate: 52.5000, blade_speed: 60.0000, time: 5, energy_Wh: 52),
  (cut_id: 18, mch_id: 1, mode_id: 6, feed_rate: 52.5000, blade_speed: 60.0000, time: 5, energy_Wh: 52),
  (cut_id: 18, mch_id: 2, mode_id: 7, feed_rate: 52.5000, blade_speed: 90.0000, time: 5, energy_Wh: 70),
  (cut_id: 18, mch_id: 3, mode_id: 7, feed_rate: 52.5000, blade_speed: 90.0000, time: 5, energy_Wh: 70),
  (cut_id: 18, mch_id: 1, mode_id: 7, feed_rate: 52.5000, blade_speed: 90.0000, time: 5, energy_Wh: 70),
  (cut_id: 18, mch_id: 2, mode_id: 8, feed_rate: 52.5000, blade_speed: 120.0000, time: 5, energy_Wh: 83),
  (cut_id: 18, mch_id: 3, mode_id: 8, feed_rate: 52.5000, blade_speed: 120.0000, time: 5, energy_Wh: 83),
  (cut_id: 18, mch_id: 1, mode_id: 8, feed_rate: 52.5000, blade_speed: 120.0000, time: 5, energy_Wh: 83),
  (cut_id: 18, mch_id: 2, mode_id: 9, feed_rate: 52.5000, blade_speed: 150.0000, time: 5, energy_Wh: 60),
  (cut_id: 18, mch_id: 3, mode_id: 9, feed_rate: 52.5000, blade_speed: 150.0000, time: 5, energy_Wh: 60),
  (cut_id: 18, mch_id: 1, mode_id: 9, feed_rate: 52.5000, blade_speed: 150.0000, time: 5, energy_Wh: 60),
  (cut_id: 18, mch_id: 2, mode_id: 10, feed_rate: 52.5000, blade_speed: 180.0000, time: 5, energy_Wh: 50),
  (cut_id: 18, mch_id: 3, mode_id: 10, feed_rate: 52.5000, blade_speed: 180.0000, time: 5, energy_Wh: 50),
  (cut_id: 18, mch_id: 1, mode_id: 10, feed_rate: 52.5000, blade_speed: 180.0000, time: 5, energy_Wh: 50),
  (cut_id: 18, mch_id: 2, mode_id: 11, feed_rate: 70.0000, blade_speed: 60.0000, time: 4, energy_Wh: 68),
  (cut_id: 18, mch_id: 3, mode_id: 11, feed_rate: 70.0000, blade_speed: 60.0000, time: 4, energy_Wh: 68),
  (cut_id: 18, mch_id: 1, mode_id: 11, feed_rate: 70.0000, blade_speed: 60.0000, time: 4, energy_Wh: 68),
  (cut_id: 18, mch_id: 2, mode_id: 12, feed_rate: 70.0000, blade_speed: 90.0000, time: 4, energy_Wh: 120),
  (cut_id: 18, mch_id: 3, mode_id: 12, feed_rate: 70.0000, blade_speed: 90.0000, time: 4, energy_Wh: 120),
  (cut_id: 18, mch_id: 1, mode_id: 12, feed_rate: 70.0000, blade_speed: 90.0000, time: 4, energy_Wh: 120),
  (cut_id: 18, mch_id: 2, mode_id: 13, feed_rate: 70.0000, blade_speed: 120.0000, time: 4, energy_Wh: 112),
  (cut_id: 18, mch_id: 3, mode_id: 13, feed_rate: 70.0000, blade_speed: 120.0000, time: 4, energy_Wh: 112),
  (cut_id: 18, mch_id: 1, mode_id: 13, feed_rate: 70.0000, blade_speed: 120.0000, time: 4, energy_Wh: 112),
  (cut_id: 18, mch_id: 2, mode_id: 14, feed_rate: 70.0000, blade_speed: 150.0000, time: 4, energy_Wh: 63),
  (cut_id: 18, mch_id: 3, mode_id: 14, feed_rate: 70.0000, blade_speed: 150.0000, time: 4, energy_Wh: 63),
  (cut_id: 18, mch_id: 1, mode_id: 14, feed_rate: 70.0000, blade_speed: 150.0000, time: 4, energy_Wh: 63),
  (cut_id: 18, mch_id: 2, mode_id: 15, feed_rate: 70.0000, blade_speed: 180.0000, time: 4, energy_Wh: 77),
  (cut_id: 18, mch_id: 3, mode_id: 15, feed_rate: 70.0000, blade_speed: 180.0000, time: 4, energy_Wh: 77),
  (cut_id: 18, mch_id: 1, mode_id: 15, feed_rate: 70.0000, blade_speed: 180.0000, time: 4, energy_Wh: 77),
  (cut_id: 18, mch_id: 2, mode_id: 16, feed_rate: 87.5000, blade_speed: 60.0000, time: 3, energy_Wh: 109),
  (cut_id: 18, mch_id: 3, mode_id: 16, feed_rate: 87.5000, blade_speed: 60.0000, time: 3, energy_Wh: 109),
  (cut_id: 18, mch_id: 1, mode_id: 16, feed_rate: 87.5000, blade_speed: 60.0000, time: 3, energy_Wh: 109),
  (cut_id: 18, mch_id: 2, mode_id: 17, feed_rate: 87.5000, blade_speed: 90.0000, time: 3, energy_Wh: 167),
  (cut_id: 18, mch_id: 3, mode_id: 17, feed_rate: 87.5000, blade_speed: 90.0000, time: 3, energy_Wh: 167),
  (cut_id: 18, mch_id: 1, mode_id: 17, feed_rate: 87.5000, blade_speed: 90.0000, time: 3, energy_Wh: 167),
  (cut_id: 18, mch_id: 2, mode_id: 18, feed_rate: 87.5000, blade_speed: 120.0000, time: 3, energy_Wh: 124),
  (cut_id: 18, mch_id: 3, mode_id: 18, feed_rate: 87.5000, blade_speed: 120.0000, time: 3, energy_Wh: 124),
  (cut_id: 18, mch_id: 1, mode_id: 18, feed_rate: 87.5000, blade_speed: 120.0000, time: 3, energy_Wh: 124),
  (cut_id: 18, mch_id: 2, mode_id: 19, feed_rate: 87.5000, blade_speed: 150.0000, time: 3, energy_Wh: 87),
  (cut_id: 18, mch_id: 3, mode_id: 19, feed_rate: 87.5000, blade_speed: 150.0000, time: 3, energy_Wh: 87),
  (cut_id: 18, mch_id: 1, mode_id: 19, feed_rate: 87.5000, blade_speed: 150.0000, time: 3, energy_Wh: 87),
  (cut_id: 18, mch_id: 2, mode_id: 20, feed_rate: 87.5000, blade_speed: 180.0000, time: 3, energy_Wh: 95),
  (cut_id: 18, mch_id: 3, mode_id: 20, feed_rate: 87.5000, blade_speed: 180.0000, time: 3, energy_Wh: 95),
  (cut_id: 18, mch_id: 1, mode_id: 20, feed_rate: 87.5000, blade_speed: 180.0000, time: 3, energy_Wh: 95),
  (cut_id: 18, mch_id: 2, mode_id: 21, feed_rate: 105.0000, blade_speed: 60.0000, time: 3, energy_Wh: 147),
  (cut_id: 18, mch_id: 3, mode_id: 21, feed_rate: 105.0000, blade_speed: 60.0000, time: 3, energy_Wh: 147),
  (cut_id: 18, mch_id: 1, mode_id: 21, feed_rate: 105.0000, blade_speed: 60.0000, time: 3, energy_Wh: 147),
  (cut_id: 18, mch_id: 2, mode_id: 22, feed_rate: 105.0000, blade_speed: 90.0000, time: 3, energy_Wh: 219),
  (cut_id: 18, mch_id: 3, mode_id: 22, feed_rate: 105.0000, blade_speed: 90.0000, time: 3, energy_Wh: 219),
  (cut_id: 18, mch_id: 1, mode_id: 22, feed_rate: 105.0000, blade_speed: 90.0000, time: 3, energy_Wh: 219),
  (cut_id: 18, mch_id: 2, mode_id: 23, feed_rate: 105.0000, blade_speed: 120.0000, time: 3, energy_Wh: 210),
  (cut_id: 18, mch_id: 3, mode_id: 23, feed_rate: 105.0000, blade_speed: 120.0000, time: 3, energy_Wh: 210),
  (cut_id: 18, mch_id: 1, mode_id: 23, feed_rate: 105.0000, blade_speed: 120.0000, time: 3, energy_Wh: 210),
  (cut_id: 18, mch_id: 2, mode_id: 24, feed_rate: 105.0000, blade_speed: 150.0000, time: 3, energy_Wh: 130),
  (cut_id: 18, mch_id: 3, mode_id: 24, feed_rate: 105.0000, blade_speed: 150.0000, time: 3, energy_Wh: 130),
  (cut_id: 18, mch_id: 1, mode_id: 24, feed_rate: 105.0000, blade_speed: 150.0000, time: 3, energy_Wh: 130),
  (cut_id: 18, mch_id: 2, mode_id: 25, feed_rate: 105.0000, blade_speed: 180.0000, time: 3, energy_Wh: 93),
  (cut_id: 18, mch_id: 3, mode_id: 25, feed_rate: 105.0000, blade_speed: 180.0000, time: 3, energy_Wh: 93),
  (cut_id: 18, mch_id: 1, mode_id: 25, feed_rate: 105.0000, blade_speed: 180.0000, time: 3, energy_Wh: 93),
  (cut_id: 19, mch_id: 2, mode_id: 1, feed_rate: 33.0500, blade_speed: 17.0500, time: 1, energy_Wh: 25),
  (cut_id: 19, mch_id: 3, mode_id: 1, feed_rate: 33.0500, blade_speed: 17.0500, time: 1, energy_Wh: 25),
  (cut_id: 19, mch_id: 1, mode_id: 1, feed_rate: 33.0500, blade_speed: 17.0500, time: 1, energy_Wh: 25),
  (cut_id: 19, mch_id: 2, mode_id: 2, feed_rate: 33.0500, blade_speed: 25.5800, time: 1, energy_Wh: 45),
  (cut_id: 19, mch_id: 3, mode_id: 2, feed_rate: 33.0500, blade_speed: 25.5800, time: 1, energy_Wh: 45),
  (cut_id: 19, mch_id: 1, mode_id: 2, feed_rate: 33.0500, blade_speed: 25.5800, time: 1, energy_Wh: 45),
  (cut_id: 19, mch_id: 2, mode_id: 3, feed_rate: 33.0500, blade_speed: 34.1100, time: 1, energy_Wh: 40),
  (cut_id: 19, mch_id: 3, mode_id: 3, feed_rate: 33.0500, blade_speed: 34.1100, time: 1, energy_Wh: 40),
  (cut_id: 19, mch_id: 1, mode_id: 3, feed_rate: 33.0500, blade_speed: 34.1100, time: 1, energy_Wh: 40),
  (cut_id: 19, mch_id: 2, mode_id: 4, feed_rate: 33.0500, blade_speed: 42.6300, time: 1, energy_Wh: 29),
  (cut_id: 19, mch_id: 3, mode_id: 4, feed_rate: 33.0500, blade_speed: 42.6300, time: 1, energy_Wh: 29),
  (cut_id: 19, mch_id: 1, mode_id: 4, feed_rate: 33.0500, blade_speed: 42.6300, time: 1, energy_Wh: 29),
  (cut_id: 19, mch_id: 2, mode_id: 5, feed_rate: 33.0500, blade_speed: 51.1600, time: 1, energy_Wh: 43),
  (cut_id: 19, mch_id: 3, mode_id: 5, feed_rate: 33.0500, blade_speed: 51.1600, time: 1, energy_Wh: 43),
  (cut_id: 19, mch_id: 1, mode_id: 5, feed_rate: 33.0500, blade_speed: 51.1600, time: 1, energy_Wh: 43),
  (cut_id: 19, mch_id: 2, mode_id: 6, feed_rate: 49.5800, blade_speed: 17.0500, time: 1, energy_Wh: 40),
  (cut_id: 19, mch_id: 3, mode_id: 6, feed_rate: 49.5800, blade_speed: 17.0500, time: 1, energy_Wh: 40),
  (cut_id: 19, mch_id: 1, mode_id: 6, feed_rate: 49.5800, blade_speed: 17.0500, time: 1, energy_Wh: 40),
  (cut_id: 19, mch_id: 2, mode_id: 7, feed_rate: 49.5800, blade_speed: 25.5800, time: 1, energy_Wh: 66),
  (cut_id: 19, mch_id: 3, mode_id: 7, feed_rate: 49.5800, blade_speed: 25.5800, time: 1, energy_Wh: 66),
  (cut_id: 19, mch_id: 1, mode_id: 7, feed_rate: 49.5800, blade_speed: 25.5800, time: 1, energy_Wh: 66),
  (cut_id: 19, mch_id: 2, mode_id: 8, feed_rate: 49.5800, blade_speed: 34.1100, time: 1, energy_Wh: 51),
  (cut_id: 19, mch_id: 3, mode_id: 8, feed_rate: 49.5800, blade_speed: 34.1100, time: 1, energy_Wh: 51),
  (cut_id: 19, mch_id: 1, mode_id: 8, feed_rate: 49.5800, blade_speed: 34.1100, time: 1, energy_Wh: 51),
  (cut_id: 19, mch_id: 2, mode_id: 9, feed_rate: 49.5800, blade_speed: 42.6300, time: 1, energy_Wh: 34),
  (cut_id: 19, mch_id: 3, mode_id: 9, feed_rate: 49.5800, blade_speed: 42.6300, time: 1, energy_Wh: 34),
  (cut_id: 19, mch_id: 1, mode_id: 9, feed_rate: 49.5800, blade_speed: 42.6300, time: 1, energy_Wh: 34),
  (cut_id: 19, mch_id: 2, mode_id: 10, feed_rate: 49.5800, blade_speed: 51.1600, time: 1, energy_Wh: 59),
  (cut_id: 19, mch_id: 3, mode_id: 10, feed_rate: 49.5800, blade_speed: 51.1600, time: 1, energy_Wh: 59),
  (cut_id: 19, mch_id: 1, mode_id: 10, feed_rate: 49.5800, blade_speed: 51.1600, time: 1, energy_Wh: 59),
  (cut_id: 19, mch_id: 2, mode_id: 11, feed_rate: 66.1100, blade_speed: 17.0500, time: 1, energy_Wh: 53),
  (cut_id: 19, mch_id: 3, mode_id: 11, feed_rate: 66.1100, blade_speed: 17.0500, time: 1, energy_Wh: 53),
  (cut_id: 19, mch_id: 1, mode_id: 11, feed_rate: 66.1100, blade_speed: 17.0500, time: 1, energy_Wh: 53),
  (cut_id: 19, mch_id: 2, mode_id: 12, feed_rate: 66.1100, blade_speed: 25.5800, time: 1, energy_Wh: 90),
  (cut_id: 19, mch_id: 3, mode_id: 12, feed_rate: 66.1100, blade_speed: 25.5800, time: 1, energy_Wh: 90),
  (cut_id: 19, mch_id: 1, mode_id: 12, feed_rate: 66.1100, blade_speed: 25.5800, time: 1, energy_Wh: 90),
  (cut_id: 19, mch_id: 2, mode_id: 13, feed_rate: 66.1100, blade_speed: 34.1100, time: 1, energy_Wh: 68),
  (cut_id: 19, mch_id: 3, mode_id: 13, feed_rate: 66.1100, blade_speed: 34.1100, time: 1, energy_Wh: 68),
  (cut_id: 19, mch_id: 1, mode_id: 13, feed_rate: 66.1100, blade_speed: 34.1100, time: 1, energy_Wh: 68),
  (cut_id: 19, mch_id: 2, mode_id: 14, feed_rate: 66.1100, blade_speed: 42.6300, time: 1, energy_Wh: 41),
  (cut_id: 19, mch_id: 3, mode_id: 14, feed_rate: 66.1100, blade_speed: 42.6300, time: 1, energy_Wh: 41),
  (cut_id: 19, mch_id: 1, mode_id: 14, feed_rate: 66.1100, blade_speed: 42.6300, time: 1, energy_Wh: 41),
  (cut_id: 19, mch_id: 2, mode_id: 15, feed_rate: 66.1100, blade_speed: 51.1600, time: 1, energy_Wh: 77),
  (cut_id: 19, mch_id: 3, mode_id: 15, feed_rate: 66.1100, blade_speed: 51.1600, time: 1, energy_Wh: 77),
  (cut_id: 19, mch_id: 1, mode_id: 15, feed_rate: 66.1100, blade_speed: 51.1600, time: 1, energy_Wh: 77),
  (cut_id: 19, mch_id: 2, mode_id: 16, feed_rate: 82.6300, blade_speed: 17.0500, time: 1, energy_Wh: 62),
  (cut_id: 19, mch_id: 3, mode_id: 16, feed_rate: 82.6300, blade_speed: 17.0500, time: 1, energy_Wh: 62),
  (cut_id: 19, mch_id: 1, mode_id: 16, feed_rate: 82.6300, blade_speed: 17.0500, time: 1, energy_Wh: 62),
  (cut_id: 19, mch_id: 2, mode_id: 17, feed_rate: 82.6300, blade_speed: 25.5800, time: 1, energy_Wh: 113),
  (cut_id: 19, mch_id: 3, mode_id: 17, feed_rate: 82.6300, blade_speed: 25.5800, time: 1, energy_Wh: 113),
  (cut_id: 19, mch_id: 1, mode_id: 17, feed_rate: 82.6300, blade_speed: 25.5800, time: 1, energy_Wh: 113),
  (cut_id: 19, mch_id: 2, mode_id: 18, feed_rate: 82.6300, blade_speed: 34.1100, time: 1, energy_Wh: 92),
  (cut_id: 19, mch_id: 3, mode_id: 18, feed_rate: 82.6300, blade_speed: 34.1100, time: 1, energy_Wh: 92),
  (cut_id: 19, mch_id: 1, mode_id: 18, feed_rate: 82.6300, blade_speed: 34.1100, time: 1, energy_Wh: 92),
  (cut_id: 19, mch_id: 2, mode_id: 19, feed_rate: 82.6300, blade_speed: 42.6300, time: 1, energy_Wh: 60),
  (cut_id: 19, mch_id: 3, mode_id: 19, feed_rate: 82.6300, blade_speed: 42.6300, time: 1, energy_Wh: 60),
  (cut_id: 19, mch_id: 1, mode_id: 19, feed_rate: 82.6300, blade_speed: 42.6300, time: 1, energy_Wh: 60),
  (cut_id: 19, mch_id: 2, mode_id: 20, feed_rate: 82.6300, blade_speed: 51.1600, time: 1, energy_Wh: 134),
  (cut_id: 19, mch_id: 3, mode_id: 20, feed_rate: 82.6300, blade_speed: 51.1600, time: 1, energy_Wh: 134),
  (cut_id: 19, mch_id: 1, mode_id: 20, feed_rate: 82.6300, blade_speed: 51.1600, time: 1, energy_Wh: 134),
  (cut_id: 19, mch_id: 2, mode_id: 21, feed_rate: 99.1600, blade_speed: 17.0500, time: 1, energy_Wh: 78),
  (cut_id: 19, mch_id: 3, mode_id: 21, feed_rate: 99.1600, blade_speed: 17.0500, time: 1, energy_Wh: 78),
  (cut_id: 19, mch_id: 1, mode_id: 21, feed_rate: 99.1600, blade_speed: 17.0500, time: 1, energy_Wh: 78),
  (cut_id: 19, mch_id: 2, mode_id: 22, feed_rate: 99.1600, blade_speed: 25.5800, time: 1, energy_Wh: 162),
  (cut_id: 19, mch_id: 3, mode_id: 22, feed_rate: 99.1600, blade_speed: 25.5800, time: 1, energy_Wh: 162),
  (cut_id: 19, mch_id: 1, mode_id: 22, feed_rate: 99.1600, blade_speed: 25.5800, time: 1, energy_Wh: 162),
  (cut_id: 19, mch_id: 2, mode_id: 23, feed_rate: 99.1600, blade_speed: 34.1100, time: 1, energy_Wh: 122),
  (cut_id: 19, mch_id: 3, mode_id: 23, feed_rate: 99.1600, blade_speed: 34.1100, time: 1, energy_Wh: 122),
  (cut_id: 19, mch_id: 1, mode_id: 23, feed_rate: 99.1600, blade_speed: 34.1100, time: 1, energy_Wh: 122),
  (cut_id: 19, mch_id: 2, mode_id: 24, feed_rate: 99.1600, blade_speed: 42.6300, time: 1, energy_Wh: 79),
  (cut_id: 19, mch_id: 3, mode_id: 24, feed_rate: 99.1600, blade_speed: 42.6300, time: 1, energy_Wh: 79),
  (cut_id: 19, mch_id: 1, mode_id: 24, feed_rate: 99.1600, blade_speed: 42.6300, time: 1, energy_Wh: 79),
  (cut_id: 19, mch_id: 2, mode_id: 25, feed_rate: 99.1600, blade_speed: 51.1600, time: 1, energy_Wh: 129),
  (cut_id: 19, mch_id: 3, mode_id: 25, feed_rate: 99.1600, blade_speed: 51.1600, time: 1, energy_Wh: 129),
  (cut_id: 19, mch_id: 1, mode_id: 25, feed_rate: 99.1600, blade_speed: 51.1600, time: 1, energy_Wh: 129),
  (cut_id: 20, mch_id: 2, mode_id: 1, feed_rate: 17.5000, blade_speed: 50.0000, time: 3, energy_Wh: 21),
  (cut_id: 20, mch_id: 3, mode_id: 1, feed_rate: 17.5000, blade_speed: 50.0000, time: 3, energy_Wh: 21),
  (cut_id: 20, mch_id: 1, mode_id: 1, feed_rate: 17.5000, blade_speed: 50.0000, time: 3, energy_Wh: 21),
  (cut_id: 20, mch_id: 2, mode_id: 2, feed_rate: 17.5000, blade_speed: 75.0000, time: 3, energy_Wh: 22),
  (cut_id: 20, mch_id: 3, mode_id: 2, feed_rate: 17.5000, blade_speed: 75.0000, time: 3, energy_Wh: 22),
  (cut_id: 20, mch_id: 1, mode_id: 2, feed_rate: 17.5000, blade_speed: 75.0000, time: 3, energy_Wh: 22),
  (cut_id: 20, mch_id: 2, mode_id: 3, feed_rate: 17.5000, blade_speed: 100.0000, time: 3, energy_Wh: 20),
  (cut_id: 20, mch_id: 3, mode_id: 3, feed_rate: 17.5000, blade_speed: 100.0000, time: 3, energy_Wh: 20),
  (cut_id: 20, mch_id: 1, mode_id: 3, feed_rate: 17.5000, blade_speed: 100.0000, time: 3, energy_Wh: 20),
  (cut_id: 20, mch_id: 2, mode_id: 4, feed_rate: 17.5000, blade_speed: 125.0000, time: 3, energy_Wh: 20),
  (cut_id: 20, mch_id: 3, mode_id: 4, feed_rate: 17.5000, blade_speed: 125.0000, time: 3, energy_Wh: 20),
  (cut_id: 20, mch_id: 1, mode_id: 4, feed_rate: 17.5000, blade_speed: 125.0000, time: 3, energy_Wh: 20),
  (cut_id: 20, mch_id: 2, mode_id: 5, feed_rate: 17.5000, blade_speed: 150.0000, time: 3, energy_Wh: 21),
  (cut_id: 20, mch_id: 3, mode_id: 5, feed_rate: 17.5000, blade_speed: 150.0000, time: 3, energy_Wh: 21),
  (cut_id: 20, mch_id: 1, mode_id: 5, feed_rate: 17.5000, blade_speed: 150.0000, time: 3, energy_Wh: 21),
  (cut_id: 20, mch_id: 2, mode_id: 6, feed_rate: 26.2500, blade_speed: 50.0000, time: 2, energy_Wh: 27),
  (cut_id: 20, mch_id: 3, mode_id: 6, feed_rate: 26.2500, blade_speed: 50.0000, time: 2, energy_Wh: 27),
  (cut_id: 20, mch_id: 1, mode_id: 6, feed_rate: 26.2500, blade_speed: 50.0000, time: 2, energy_Wh: 27),
  (cut_id: 20, mch_id: 2, mode_id: 7, feed_rate: 26.2500, blade_speed: 75.0000, time: 2, energy_Wh: 29),
  (cut_id: 20, mch_id: 3, mode_id: 7, feed_rate: 26.2500, blade_speed: 75.0000, time: 2, energy_Wh: 29),
  (cut_id: 20, mch_id: 1, mode_id: 7, feed_rate: 26.2500, blade_speed: 75.0000, time: 2, energy_Wh: 29),
  (cut_id: 20, mch_id: 2, mode_id: 8, feed_rate: 26.2500, blade_speed: 100.0000, time: 2, energy_Wh: 30),
  (cut_id: 20, mch_id: 3, mode_id: 8, feed_rate: 26.2500, blade_speed: 100.0000, time: 2, energy_Wh: 30),
  (cut_id: 20, mch_id: 1, mode_id: 8, feed_rate: 26.2500, blade_speed: 100.0000, time: 2, energy_Wh: 30),
  (cut_id: 20, mch_id: 2, mode_id: 9, feed_rate: 26.2500, blade_speed: 125.0000, time: 2, energy_Wh: 30),
  (cut_id: 20, mch_id: 3, mode_id: 9, feed_rate: 26.2500, blade_speed: 125.0000, time: 2, energy_Wh: 30),
  (cut_id: 20, mch_id: 1, mode_id: 9, feed_rate: 26.2500, blade_speed: 125.0000, time: 2, energy_Wh: 30),
  (cut_id: 20, mch_id: 2, mode_id: 10, feed_rate: 26.2500, blade_speed: 150.0000, time: 2, energy_Wh: 19),
  (cut_id: 20, mch_id: 3, mode_id: 10, feed_rate: 26.2500, blade_speed: 150.0000, time: 2, energy_Wh: 19),
  (cut_id: 20, mch_id: 1, mode_id: 10, feed_rate: 26.2500, blade_speed: 150.0000, time: 2, energy_Wh: 19),
  (cut_id: 20, mch_id: 2, mode_id: 11, feed_rate: 35.0000, blade_speed: 50.0000, time: 2, energy_Wh: 35),
  (cut_id: 20, mch_id: 3, mode_id: 11, feed_rate: 35.0000, blade_speed: 50.0000, time: 2, energy_Wh: 35),
  (cut_id: 20, mch_id: 1, mode_id: 11, feed_rate: 35.0000, blade_speed: 50.0000, time: 2, energy_Wh: 35),
  (cut_id: 20, mch_id: 2, mode_id: 12, feed_rate: 35.0000, blade_speed: 75.0000, time: 2, energy_Wh: 33),
  (cut_id: 20, mch_id: 3, mode_id: 12, feed_rate: 35.0000, blade_speed: 75.0000, time: 2, energy_Wh: 33),
  (cut_id: 20, mch_id: 1, mode_id: 12, feed_rate: 35.0000, blade_speed: 75.0000, time: 2, energy_Wh: 33),
  (cut_id: 20, mch_id: 2, mode_id: 13, feed_rate: 35.0000, blade_speed: 100.0000, time: 2, energy_Wh: 30),
  (cut_id: 20, mch_id: 3, mode_id: 13, feed_rate: 35.0000, blade_speed: 100.0000, time: 2, energy_Wh: 30),
  (cut_id: 20, mch_id: 1, mode_id: 13, feed_rate: 35.0000, blade_speed: 100.0000, time: 2, energy_Wh: 30),
  (cut_id: 20, mch_id: 2, mode_id: 14, feed_rate: 35.0000, blade_speed: 125.0000, time: 2, energy_Wh: 32),
  (cut_id: 20, mch_id: 3, mode_id: 14, feed_rate: 35.0000, blade_speed: 125.0000, time: 2, energy_Wh: 32),
  (cut_id: 20, mch_id: 1, mode_id: 14, feed_rate: 35.0000, blade_speed: 125.0000, time: 2, energy_Wh: 32),
  (cut_id: 20, mch_id: 2, mode_id: 15, feed_rate: 35.0000, blade_speed: 150.0000, time: 2, energy_Wh: 33),
  (cut_id: 20, mch_id: 3, mode_id: 15, feed_rate: 35.0000, blade_speed: 150.0000, time: 2, energy_Wh: 33),
  (cut_id: 20, mch_id: 1, mode_id: 15, feed_rate: 35.0000, blade_speed: 150.0000, time: 2, energy_Wh: 33),
  (cut_id: 20, mch_id: 2, mode_id: 16, feed_rate: 43.7500, blade_speed: 50.0000, time: 2, energy_Wh: 36),
  (cut_id: 20, mch_id: 3, mode_id: 16, feed_rate: 43.7500, blade_speed: 50.0000, time: 2, energy_Wh: 36),
  (cut_id: 20, mch_id: 1, mode_id: 16, feed_rate: 43.7500, blade_speed: 50.0000, time: 2, energy_Wh: 36),
  (cut_id: 20, mch_id: 2, mode_id: 17, feed_rate: 43.7500, blade_speed: 75.0000, time: 2, energy_Wh: 40),
  (cut_id: 20, mch_id: 3, mode_id: 17, feed_rate: 43.7500, blade_speed: 75.0000, time: 2, energy_Wh: 40),
  (cut_id: 20, mch_id: 1, mode_id: 17, feed_rate: 43.7500, blade_speed: 75.0000, time: 2, energy_Wh: 40),
  (cut_id: 20, mch_id: 2, mode_id: 18, feed_rate: 43.7500, blade_speed: 100.0000, time: 2, energy_Wh: 32),
  (cut_id: 20, mch_id: 3, mode_id: 18, feed_rate: 43.7500, blade_speed: 100.0000, time: 2, energy_Wh: 32),
  (cut_id: 20, mch_id: 1, mode_id: 18, feed_rate: 43.7500, blade_speed: 100.0000, time: 2, energy_Wh: 32),
  (cut_id: 20, mch_id: 2, mode_id: 19, feed_rate: 43.7500, blade_speed: 125.0000, time: 2, energy_Wh: 34),
  (cut_id: 20, mch_id: 3, mode_id: 19, feed_rate: 43.7500, blade_speed: 125.0000, time: 2, energy_Wh: 34),
  (cut_id: 20, mch_id: 1, mode_id: 19, feed_rate: 43.7500, blade_speed: 125.0000, time: 2, energy_Wh: 34),
  (cut_id: 20, mch_id: 2, mode_id: 20, feed_rate: 43.7500, blade_speed: 150.0000, time: 2, energy_Wh: 32),
  (cut_id: 20, mch_id: 3, mode_id: 20, feed_rate: 43.7500, blade_speed: 150.0000, time: 2, energy_Wh: 32),
  (cut_id: 20, mch_id: 1, mode_id: 20, feed_rate: 43.7500, blade_speed: 150.0000, time: 2, energy_Wh: 32),
  (cut_id: 20, mch_id: 2, mode_id: 21, feed_rate: 52.5000, blade_speed: 50.0000, time: 1, energy_Wh: 54),
  (cut_id: 20, mch_id: 3, mode_id: 21, feed_rate: 52.5000, blade_speed: 50.0000, time: 1, energy_Wh: 54),
  (cut_id: 20, mch_id: 1, mode_id: 21, feed_rate: 52.5000, blade_speed: 50.0000, time: 1, energy_Wh: 54),
  (cut_id: 20, mch_id: 2, mode_id: 22, feed_rate: 52.5000, blade_speed: 75.0000, time: 1, energy_Wh: 54),
  (cut_id: 20, mch_id: 3, mode_id: 22, feed_rate: 52.5000, blade_speed: 75.0000, time: 1, energy_Wh: 54),
  (cut_id: 20, mch_id: 1, mode_id: 22, feed_rate: 52.5000, blade_speed: 75.0000, time: 1, energy_Wh: 54),
  (cut_id: 20, mch_id: 2, mode_id: 23, feed_rate: 52.5000, blade_speed: 100.0000, time: 1, energy_Wh: 51),
  (cut_id: 20, mch_id: 3, mode_id: 23, feed_rate: 52.5000, blade_speed: 100.0000, time: 1, energy_Wh: 51),
  (cut_id: 20, mch_id: 1, mode_id: 23, feed_rate: 52.5000, blade_speed: 100.0000, time: 1, energy_Wh: 51),
  (cut_id: 20, mch_id: 2, mode_id: 24, feed_rate: 52.5000, blade_speed: 125.0000, time: 1, energy_Wh: 43),
  (cut_id: 20, mch_id: 3, mode_id: 24, feed_rate: 52.5000, blade_speed: 125.0000, time: 1, energy_Wh: 43),
  (cut_id: 20, mch_id: 1, mode_id: 24, feed_rate: 52.5000, blade_speed: 125.0000, time: 1, energy_Wh: 43),
  (cut_id: 20, mch_id: 2, mode_id: 25, feed_rate: 52.5000, blade_speed: 150.0000, time: 1, energy_Wh: 44),
  (cut_id: 20, mch_id: 3, mode_id: 25, feed_rate: 52.5000, blade_speed: 150.0000, time: 1, energy_Wh: 44),
  (cut_id: 20, mch_id: 1, mode_id: 25, feed_rate: 52.5000, blade_speed: 150.0000, time: 1, energy_Wh: 44),
  (cut_id: 21, mch_id: 3, mode_id: 1, feed_rate: 17.5000, blade_speed: 50.0000, time: 6, energy_Wh: 25),
  (cut_id: 21, mch_id: 1, mode_id: 1, feed_rate: 17.5000, blade_speed: 50.0000, time: 6, energy_Wh: 25),
  (cut_id: 21, mch_id: 2, mode_id: 1, feed_rate: 17.5000, blade_speed: 50.0000, time: 6, energy_Wh: 25),
  (cut_id: 21, mch_id: 3, mode_id: 2, feed_rate: 17.5000, blade_speed: 75.0000, time: 6, energy_Wh: 27),
  (cut_id: 21, mch_id: 1, mode_id: 2, feed_rate: 17.5000, blade_speed: 75.0000, time: 6, energy_Wh: 27),
  (cut_id: 21, mch_id: 2, mode_id: 2, feed_rate: 17.5000, blade_speed: 75.0000, time: 6, energy_Wh: 27),
  (cut_id: 21, mch_id: 3, mode_id: 3, feed_rate: 17.5000, blade_speed: 100.0000, time: 6, energy_Wh: 27),
  (cut_id: 21, mch_id: 1, mode_id: 3, feed_rate: 17.5000, blade_speed: 100.0000, time: 6, energy_Wh: 27),
  (cut_id: 21, mch_id: 2, mode_id: 3, feed_rate: 17.5000, blade_speed: 100.0000, time: 6, energy_Wh: 27),
  (cut_id: 21, mch_id: 3, mode_id: 4, feed_rate: 17.5000, blade_speed: 125.0000, time: 6, energy_Wh: 24),
  (cut_id: 21, mch_id: 1, mode_id: 4, feed_rate: 17.5000, blade_speed: 125.0000, time: 6, energy_Wh: 24),
  (cut_id: 21, mch_id: 2, mode_id: 4, feed_rate: 17.5000, blade_speed: 125.0000, time: 6, energy_Wh: 24),
  (cut_id: 21, mch_id: 3, mode_id: 5, feed_rate: 17.5000, blade_speed: 150.0000, time: 6, energy_Wh: 20),
  (cut_id: 21, mch_id: 1, mode_id: 5, feed_rate: 17.5000, blade_speed: 150.0000, time: 6, energy_Wh: 20),
  (cut_id: 21, mch_id: 2, mode_id: 5, feed_rate: 17.5000, blade_speed: 150.0000, time: 6, energy_Wh: 20),
  (cut_id: 21, mch_id: 3, mode_id: 6, feed_rate: 26.2500, blade_speed: 50.0000, time: 4, energy_Wh: 27),
  (cut_id: 21, mch_id: 1, mode_id: 6, feed_rate: 26.2500, blade_speed: 50.0000, time: 4, energy_Wh: 27),
  (cut_id: 21, mch_id: 2, mode_id: 6, feed_rate: 26.2500, blade_speed: 50.0000, time: 4, energy_Wh: 27),
  (cut_id: 21, mch_id: 3, mode_id: 7, feed_rate: 26.2500, blade_speed: 75.0000, time: 4, energy_Wh: 33),
  (cut_id: 21, mch_id: 1, mode_id: 7, feed_rate: 26.2500, blade_speed: 75.0000, time: 4, energy_Wh: 33),
  (cut_id: 21, mch_id: 2, mode_id: 7, feed_rate: 26.2500, blade_speed: 75.0000, time: 4, energy_Wh: 33),
  (cut_id: 21, mch_id: 3, mode_id: 8, feed_rate: 26.2500, blade_speed: 100.0000, time: 4, energy_Wh: 35),
  (cut_id: 21, mch_id: 1, mode_id: 8, feed_rate: 26.2500, blade_speed: 100.0000, time: 4, energy_Wh: 35),
  (cut_id: 21, mch_id: 2, mode_id: 8, feed_rate: 26.2500, blade_speed: 100.0000, time: 4, energy_Wh: 35),
  (cut_id: 21, mch_id: 3, mode_id: 9, feed_rate: 26.2500, blade_speed: 125.0000, time: 4, energy_Wh: 25),
  (cut_id: 21, mch_id: 1, mode_id: 9, feed_rate: 26.2500, blade_speed: 125.0000, time: 4, energy_Wh: 25),
  (cut_id: 21, mch_id: 2, mode_id: 9, feed_rate: 26.2500, blade_speed: 125.0000, time: 4, energy_Wh: 25),
  (cut_id: 21, mch_id: 3, mode_id: 10, feed_rate: 26.2500, blade_speed: 150.0000, time: 4, energy_Wh: 27),
  (cut_id: 21, mch_id: 1, mode_id: 10, feed_rate: 26.2500, blade_speed: 150.0000, time: 4, energy_Wh: 27),
  (cut_id: 21, mch_id: 2, mode_id: 10, feed_rate: 26.2500, blade_speed: 150.0000, time: 4, energy_Wh: 27),
  (cut_id: 21, mch_id: 3, mode_id: 11, feed_rate: 35.0000, blade_speed: 50.0000, time: 3, energy_Wh: 34),
  (cut_id: 21, mch_id: 1, mode_id: 11, feed_rate: 35.0000, blade_speed: 50.0000, time: 3, energy_Wh: 34),
  (cut_id: 21, mch_id: 2, mode_id: 11, feed_rate: 35.0000, blade_speed: 50.0000, time: 3, energy_Wh: 34),
  (cut_id: 21, mch_id: 3, mode_id: 12, feed_rate: 35.0000, blade_speed: 75.0000, time: 3, energy_Wh: 38),
  (cut_id: 21, mch_id: 1, mode_id: 12, feed_rate: 35.0000, blade_speed: 75.0000, time: 3, energy_Wh: 38),
  (cut_id: 21, mch_id: 2, mode_id: 12, feed_rate: 35.0000, blade_speed: 75.0000, time: 3, energy_Wh: 38),
  (cut_id: 21, mch_id: 3, mode_id: 13, feed_rate: 35.0000, blade_speed: 100.0000, time: 3, energy_Wh: 37),
  (cut_id: 21, mch_id: 1, mode_id: 13, feed_rate: 35.0000, blade_speed: 100.0000, time: 3, energy_Wh: 37),
  (cut_id: 21, mch_id: 2, mode_id: 13, feed_rate: 35.0000, blade_speed: 100.0000, time: 3, energy_Wh: 37),
  (cut_id: 21, mch_id: 3, mode_id: 14, feed_rate: 35.0000, blade_speed: 125.0000, time: 3, energy_Wh: 33),
  (cut_id: 21, mch_id: 1, mode_id: 14, feed_rate: 35.0000, blade_speed: 125.0000, time: 3, energy_Wh: 33),
  (cut_id: 21, mch_id: 2, mode_id: 14, feed_rate: 35.0000, blade_speed: 125.0000, time: 3, energy_Wh: 33),
  (cut_id: 21, mch_id: 3, mode_id: 15, feed_rate: 35.0000, blade_speed: 150.0000, time: 3, energy_Wh: 30),
  (cut_id: 21, mch_id: 1, mode_id: 15, feed_rate: 35.0000, blade_speed: 150.0000, time: 3, energy_Wh: 30),
  (cut_id: 21, mch_id: 2, mode_id: 15, feed_rate: 35.0000, blade_speed: 150.0000, time: 3, energy_Wh: 30),
  (cut_id: 21, mch_id: 3, mode_id: 16, feed_rate: 43.7500, blade_speed: 50.0000, time: 3, energy_Wh: 48),
  (cut_id: 21, mch_id: 1, mode_id: 16, feed_rate: 43.7500, blade_speed: 50.0000, time: 3, energy_Wh: 48),
  (cut_id: 21, mch_id: 2, mode_id: 16, feed_rate: 43.7500, blade_speed: 50.0000, time: 3, energy_Wh: 48),
  (cut_id: 21, mch_id: 3, mode_id: 17, feed_rate: 43.7500, blade_speed: 75.0000, time: 3, energy_Wh: 50),
  (cut_id: 21, mch_id: 1, mode_id: 17, feed_rate: 43.7500, blade_speed: 75.0000, time: 3, energy_Wh: 50),
  (cut_id: 21, mch_id: 2, mode_id: 17, feed_rate: 43.7500, blade_speed: 75.0000, time: 3, energy_Wh: 50),
  (cut_id: 21, mch_id: 3, mode_id: 18, feed_rate: 43.7500, blade_speed: 100.0000, time: 3, energy_Wh: 34),
  (cut_id: 21, mch_id: 1, mode_id: 18, feed_rate: 43.7500, blade_speed: 100.0000, time: 3, energy_Wh: 34),
  (cut_id: 21, mch_id: 2, mode_id: 18, feed_rate: 43.7500, blade_speed: 100.0000, time: 3, energy_Wh: 34),
  (cut_id: 21, mch_id: 3, mode_id: 19, feed_rate: 43.7500, blade_speed: 125.0000, time: 3, energy_Wh: 34),
  (cut_id: 21, mch_id: 1, mode_id: 19, feed_rate: 43.7500, blade_speed: 125.0000, time: 3, energy_Wh: 34),
  (cut_id: 21, mch_id: 2, mode_id: 19, feed_rate: 43.7500, blade_speed: 125.0000, time: 3, energy_Wh: 34),
  (cut_id: 21, mch_id: 3, mode_id: 20, feed_rate: 43.7500, blade_speed: 150.0000, time: 3, energy_Wh: 40),
  (cut_id: 21, mch_id: 1, mode_id: 20, feed_rate: 43.7500, blade_speed: 150.0000, time: 3, energy_Wh: 40),
  (cut_id: 21, mch_id: 2, mode_id: 20, feed_rate: 43.7500, blade_speed: 150.0000, time: 3, energy_Wh: 40),
  (cut_id: 21, mch_id: 3, mode_id: 21, feed_rate: 52.5000, blade_speed: 50.0000, time: 2, energy_Wh: 53),
  (cut_id: 21, mch_id: 1, mode_id: 21, feed_rate: 52.5000, blade_speed: 50.0000, time: 2, energy_Wh: 53),
  (cut_id: 21, mch_id: 2, mode_id: 21, feed_rate: 52.5000, blade_speed: 50.0000, time: 2, energy_Wh: 53),
  (cut_id: 21, mch_id: 3, mode_id: 22, feed_rate: 52.5000, blade_speed: 75.0000, time: 2, energy_Wh: 50),
  (cut_id: 21, mch_id: 1, mode_id: 22, feed_rate: 52.5000, blade_speed: 75.0000, time: 2, energy_Wh: 50),
  (cut_id: 21, mch_id: 2, mode_id: 22, feed_rate: 52.5000, blade_speed: 75.0000, time: 2, energy_Wh: 50),
  (cut_id: 21, mch_id: 3, mode_id: 23, feed_rate: 52.5000, blade_speed: 100.0000, time: 2, energy_Wh: 42),
  (cut_id: 21, mch_id: 1, mode_id: 23, feed_rate: 52.5000, blade_speed: 100.0000, time: 2, energy_Wh: 42),
  (cut_id: 21, mch_id: 2, mode_id: 23, feed_rate: 52.5000, blade_speed: 100.0000, time: 2, energy_Wh: 42),
  (cut_id: 21, mch_id: 3, mode_id: 24, feed_rate: 52.5000, blade_speed: 125.0000, time: 2, energy_Wh: 48),
  (cut_id: 21, mch_id: 1, mode_id: 24, feed_rate: 52.5000, blade_speed: 125.0000, time: 2, energy_Wh: 48),
  (cut_id: 21, mch_id: 2, mode_id: 24, feed_rate: 52.5000, blade_speed: 125.0000, time: 2, energy_Wh: 48),
  (cut_id: 21, mch_id: 3, mode_id: 25, feed_rate: 52.5000, blade_speed: 150.0000, time: 2, energy_Wh: 51),
  (cut_id: 21, mch_id: 1, mode_id: 25, feed_rate: 52.5000, blade_speed: 150.0000, time: 2, energy_Wh: 51),
  (cut_id: 21, mch_id: 2, mode_id: 25, feed_rate: 52.5000, blade_speed: 150.0000, time: 2, energy_Wh: 51),
  (cut_id: 22, mch_id: 2, mode_id: 1, feed_rate: 15.5000, blade_speed: 6.0000, time: 10, energy_Wh: 30),
  (cut_id: 22, mch_id: 1, mode_id: 1, feed_rate: 15.5000, blade_speed: 6.0000, time: 10, energy_Wh: 30),
  (cut_id: 22, mch_id: 3, mode_id: 1, feed_rate: 15.5000, blade_speed: 6.0000, time: 10, energy_Wh: 30),
  (cut_id: 22, mch_id: 2, mode_id: 2, feed_rate: 15.5000, blade_speed: 9.0000, time: 10, energy_Wh: 48),
  (cut_id: 22, mch_id: 1, mode_id: 2, feed_rate: 15.5000, blade_speed: 9.0000, time: 10, energy_Wh: 48),
  (cut_id: 22, mch_id: 3, mode_id: 2, feed_rate: 15.5000, blade_speed: 9.0000, time: 10, energy_Wh: 48),
  (cut_id: 22, mch_id: 2, mode_id: 3, feed_rate: 15.5000, blade_speed: 12.0000, time: 10, energy_Wh: 34),
  (cut_id: 22, mch_id: 1, mode_id: 3, feed_rate: 15.5000, blade_speed: 12.0000, time: 10, energy_Wh: 34),
  (cut_id: 22, mch_id: 3, mode_id: 3, feed_rate: 15.5000, blade_speed: 12.0000, time: 10, energy_Wh: 34),
  (cut_id: 22, mch_id: 2, mode_id: 4, feed_rate: 15.5000, blade_speed: 15.0000, time: 10, energy_Wh: 52),
  (cut_id: 22, mch_id: 1, mode_id: 4, feed_rate: 15.5000, blade_speed: 15.0000, time: 10, energy_Wh: 52),
  (cut_id: 22, mch_id: 3, mode_id: 4, feed_rate: 15.5000, blade_speed: 15.0000, time: 10, energy_Wh: 52),
  (cut_id: 22, mch_id: 2, mode_id: 5, feed_rate: 15.5000, blade_speed: 18.0000, time: 10, energy_Wh: 27),
  (cut_id: 22, mch_id: 1, mode_id: 5, feed_rate: 15.5000, blade_speed: 18.0000, time: 10, energy_Wh: 27),
  (cut_id: 22, mch_id: 3, mode_id: 5, feed_rate: 15.5000, blade_speed: 18.0000, time: 10, energy_Wh: 27),
  (cut_id: 22, mch_id: 2, mode_id: 6, feed_rate: 23.2500, blade_speed: 6.0000, time: 7, energy_Wh: 44),
  (cut_id: 22, mch_id: 1, mode_id: 6, feed_rate: 23.2500, blade_speed: 6.0000, time: 7, energy_Wh: 44),
  (cut_id: 22, mch_id: 3, mode_id: 6, feed_rate: 23.2500, blade_speed: 6.0000, time: 7, energy_Wh: 44),
  (cut_id: 22, mch_id: 2, mode_id: 7, feed_rate: 23.2500, blade_speed: 9.0000, time: 7, energy_Wh: 48),
  (cut_id: 22, mch_id: 1, mode_id: 7, feed_rate: 23.2500, blade_speed: 9.0000, time: 7, energy_Wh: 48),
  (cut_id: 22, mch_id: 3, mode_id: 7, feed_rate: 23.2500, blade_speed: 9.0000, time: 7, energy_Wh: 48),
  (cut_id: 22, mch_id: 2, mode_id: 8, feed_rate: 23.2500, blade_speed: 12.0000, time: 7, energy_Wh: 33),
  (cut_id: 22, mch_id: 1, mode_id: 8, feed_rate: 23.2500, blade_speed: 12.0000, time: 7, energy_Wh: 33),
  (cut_id: 22, mch_id: 3, mode_id: 8, feed_rate: 23.2500, blade_speed: 12.0000, time: 7, energy_Wh: 33),
  (cut_id: 22, mch_id: 2, mode_id: 9, feed_rate: 23.2500, blade_speed: 15.0000, time: 7, energy_Wh: 57),
  (cut_id: 22, mch_id: 1, mode_id: 9, feed_rate: 23.2500, blade_speed: 15.0000, time: 7, energy_Wh: 57),
  (cut_id: 22, mch_id: 3, mode_id: 9, feed_rate: 23.2500, blade_speed: 15.0000, time: 7, energy_Wh: 57),
  (cut_id: 22, mch_id: 2, mode_id: 10, feed_rate: 23.2500, blade_speed: 18.0000, time: 7, energy_Wh: 31),
  (cut_id: 22, mch_id: 1, mode_id: 10, feed_rate: 23.2500, blade_speed: 18.0000, time: 7, energy_Wh: 31),
  (cut_id: 22, mch_id: 3, mode_id: 10, feed_rate: 23.2500, blade_speed: 18.0000, time: 7, energy_Wh: 31),
  (cut_id: 22, mch_id: 2, mode_id: 11, feed_rate: 31.0000, blade_speed: 6.0000, time: 5, energy_Wh: 47),
  (cut_id: 22, mch_id: 1, mode_id: 11, feed_rate: 31.0000, blade_speed: 6.0000, time: 5, energy_Wh: 47),
  (cut_id: 22, mch_id: 3, mode_id: 11, feed_rate: 31.0000, blade_speed: 6.0000, time: 5, energy_Wh: 47),
  (cut_id: 22, mch_id: 2, mode_id: 12, feed_rate: 31.0000, blade_speed: 9.0000, time: 5, energy_Wh: 56),
  (cut_id: 22, mch_id: 1, mode_id: 12, feed_rate: 31.0000, blade_speed: 9.0000, time: 5, energy_Wh: 56),
  (cut_id: 22, mch_id: 3, mode_id: 12, feed_rate: 31.0000, blade_speed: 9.0000, time: 5, energy_Wh: 56),
  (cut_id: 22, mch_id: 2, mode_id: 13, feed_rate: 31.0000, blade_speed: 12.0000, time: 5, energy_Wh: 41),
  (cut_id: 22, mch_id: 1, mode_id: 13, feed_rate: 31.0000, blade_speed: 12.0000, time: 5, energy_Wh: 41),
  (cut_id: 22, mch_id: 3, mode_id: 13, feed_rate: 31.0000, blade_speed: 12.0000, time: 5, energy_Wh: 41),
  (cut_id: 22, mch_id: 2, mode_id: 14, feed_rate: 31.0000, blade_speed: 15.0000, time: 5, energy_Wh: 49),
  (cut_id: 22, mch_id: 1, mode_id: 14, feed_rate: 31.0000, blade_speed: 15.0000, time: 5, energy_Wh: 49),
  (cut_id: 22, mch_id: 3, mode_id: 14, feed_rate: 31.0000, blade_speed: 15.0000, time: 5, energy_Wh: 49),
  (cut_id: 22, mch_id: 2, mode_id: 15, feed_rate: 31.0000, blade_speed: 18.0000, time: 5, energy_Wh: 36),
  (cut_id: 22, mch_id: 1, mode_id: 15, feed_rate: 31.0000, blade_speed: 18.0000, time: 5, energy_Wh: 36),
  (cut_id: 22, mch_id: 3, mode_id: 15, feed_rate: 31.0000, blade_speed: 18.0000, time: 5, energy_Wh: 36),
  (cut_id: 22, mch_id: 2, mode_id: 16, feed_rate: 38.7500, blade_speed: 6.0000, time: 4, energy_Wh: 56),
  (cut_id: 22, mch_id: 1, mode_id: 16, feed_rate: 38.7500, blade_speed: 6.0000, time: 4, energy_Wh: 56),
  (cut_id: 22, mch_id: 3, mode_id: 16, feed_rate: 38.7500, blade_speed: 6.0000, time: 4, energy_Wh: 56),
  (cut_id: 22, mch_id: 2, mode_id: 17, feed_rate: 38.7500, blade_speed: 9.0000, time: 4, energy_Wh: 67),
  (cut_id: 22, mch_id: 1, mode_id: 17, feed_rate: 38.7500, blade_speed: 9.0000, time: 4, energy_Wh: 67),
  (cut_id: 22, mch_id: 3, mode_id: 17, feed_rate: 38.7500, blade_speed: 9.0000, time: 4, energy_Wh: 67),
  (cut_id: 22, mch_id: 2, mode_id: 18, feed_rate: 38.7500, blade_speed: 12.0000, time: 4, energy_Wh: 51),
  (cut_id: 22, mch_id: 1, mode_id: 18, feed_rate: 38.7500, blade_speed: 12.0000, time: 4, energy_Wh: 51),
  (cut_id: 22, mch_id: 3, mode_id: 18, feed_rate: 38.7500, blade_speed: 12.0000, time: 4, energy_Wh: 51),
  (cut_id: 22, mch_id: 2, mode_id: 19, feed_rate: 38.7500, blade_speed: 15.0000, time: 4, energy_Wh: 69),
  (cut_id: 22, mch_id: 1, mode_id: 19, feed_rate: 38.7500, blade_speed: 15.0000, time: 4, energy_Wh: 69),
  (cut_id: 22, mch_id: 3, mode_id: 19, feed_rate: 38.7500, blade_speed: 15.0000, time: 4, energy_Wh: 69),
  (cut_id: 22, mch_id: 2, mode_id: 20, feed_rate: 38.7500, blade_speed: 18.0000, time: 4, energy_Wh: 43),
  (cut_id: 22, mch_id: 1, mode_id: 20, feed_rate: 38.7500, blade_speed: 18.0000, time: 4, energy_Wh: 43),
  (cut_id: 22, mch_id: 3, mode_id: 20, feed_rate: 38.7500, blade_speed: 18.0000, time: 4, energy_Wh: 43),
  (cut_id: 22, mch_id: 2, mode_id: 21, feed_rate: 46.5000, blade_speed: 6.0000, time: 4, energy_Wh: 46),
  (cut_id: 22, mch_id: 1, mode_id: 21, feed_rate: 46.5000, blade_speed: 6.0000, time: 4, energy_Wh: 46),
  (cut_id: 22, mch_id: 3, mode_id: 21, feed_rate: 46.5000, blade_speed: 6.0000, time: 4, energy_Wh: 46),
  (cut_id: 22, mch_id: 2, mode_id: 22, feed_rate: 46.5000, blade_speed: 9.0000, time: 4, energy_Wh: 81),
  (cut_id: 22, mch_id: 1, mode_id: 22, feed_rate: 46.5000, blade_speed: 9.0000, time: 4, energy_Wh: 81),
  (cut_id: 22, mch_id: 3, mode_id: 22, feed_rate: 46.5000, blade_speed: 9.0000, time: 4, energy_Wh: 81),
  (cut_id: 22, mch_id: 2, mode_id: 23, feed_rate: 46.5000, blade_speed: 12.0000, time: 4, energy_Wh: 48),
  (cut_id: 22, mch_id: 1, mode_id: 23, feed_rate: 46.5000, blade_speed: 12.0000, time: 4, energy_Wh: 48),
  (cut_id: 22, mch_id: 3, mode_id: 23, feed_rate: 46.5000, blade_speed: 12.0000, time: 4, energy_Wh: 48),
  (cut_id: 22, mch_id: 2, mode_id: 24, feed_rate: 46.5000, blade_speed: 15.0000, time: 4, energy_Wh: 84),
  (cut_id: 22, mch_id: 1, mode_id: 24, feed_rate: 46.5000, blade_speed: 15.0000, time: 4, energy_Wh: 84),
  (cut_id: 22, mch_id: 3, mode_id: 24, feed_rate: 46.5000, blade_speed: 15.0000, time: 4, energy_Wh: 84),
  (cut_id: 22, mch_id: 2, mode_id: 25, feed_rate: 46.5000, blade_speed: 18.0000, time: 4, energy_Wh: 55),
  (cut_id: 22, mch_id: 1, mode_id: 25, feed_rate: 46.5000, blade_speed: 18.0000, time: 4, energy_Wh: 55),
  (cut_id: 22, mch_id: 3, mode_id: 25, feed_rate: 46.5000, blade_speed: 18.0000, time: 4, energy_Wh: 55),
  (cut_id: 23, mch_id: 2, mode_id: 1, feed_rate: 12.5000, blade_speed: 2.7500, time: 9, energy_Wh: 49),
  (cut_id: 23, mch_id: 3, mode_id: 1, feed_rate: 12.5000, blade_speed: 2.7500, time: 9, energy_Wh: 49),
  (cut_id: 23, mch_id: 1, mode_id: 1, feed_rate: 12.5000, blade_speed: 2.7500, time: 9, energy_Wh: 49),
  (cut_id: 23, mch_id: 2, mode_id: 2, feed_rate: 12.5000, blade_speed: 4.1200, time: 9, energy_Wh: 28),
  (cut_id: 23, mch_id: 3, mode_id: 2, feed_rate: 12.5000, blade_speed: 4.1200, time: 9, energy_Wh: 28),
  (cut_id: 23, mch_id: 1, mode_id: 2, feed_rate: 12.5000, blade_speed: 4.1200, time: 9, energy_Wh: 28),
  (cut_id: 23, mch_id: 2, mode_id: 3, feed_rate: 12.5000, blade_speed: 5.5000, time: 9, energy_Wh: 29),
  (cut_id: 23, mch_id: 3, mode_id: 3, feed_rate: 12.5000, blade_speed: 5.5000, time: 9, energy_Wh: 29),
  (cut_id: 23, mch_id: 1, mode_id: 3, feed_rate: 12.5000, blade_speed: 5.5000, time: 9, energy_Wh: 29),
  (cut_id: 23, mch_id: 2, mode_id: 4, feed_rate: 12.5000, blade_speed: 6.8800, time: 9, energy_Wh: 52),
  (cut_id: 23, mch_id: 3, mode_id: 4, feed_rate: 12.5000, blade_speed: 6.8800, time: 9, energy_Wh: 52),
  (cut_id: 23, mch_id: 1, mode_id: 4, feed_rate: 12.5000, blade_speed: 6.8800, time: 9, energy_Wh: 52),
  (cut_id: 23, mch_id: 2, mode_id: 5, feed_rate: 12.5000, blade_speed: 8.2500, time: 9, energy_Wh: 52),
  (cut_id: 23, mch_id: 3, mode_id: 5, feed_rate: 12.5000, blade_speed: 8.2500, time: 9, energy_Wh: 52),
  (cut_id: 23, mch_id: 1, mode_id: 5, feed_rate: 12.5000, blade_speed: 8.2500, time: 9, energy_Wh: 52),
  (cut_id: 23, mch_id: 2, mode_id: 6, feed_rate: 18.7500, blade_speed: 2.7500, time: 6, energy_Wh: 45),
  (cut_id: 23, mch_id: 3, mode_id: 6, feed_rate: 18.7500, blade_speed: 2.7500, time: 6, energy_Wh: 45),
  (cut_id: 23, mch_id: 1, mode_id: 6, feed_rate: 18.7500, blade_speed: 2.7500, time: 6, energy_Wh: 45),
  (cut_id: 23, mch_id: 2, mode_id: 7, feed_rate: 18.7500, blade_speed: 4.1200, time: 6, energy_Wh: 36),
  (cut_id: 23, mch_id: 3, mode_id: 7, feed_rate: 18.7500, blade_speed: 4.1200, time: 6, energy_Wh: 36),
  (cut_id: 23, mch_id: 1, mode_id: 7, feed_rate: 18.7500, blade_speed: 4.1200, time: 6, energy_Wh: 36),
  (cut_id: 23, mch_id: 2, mode_id: 8, feed_rate: 18.7500, blade_speed: 5.5000, time: 6, energy_Wh: 36),
  (cut_id: 23, mch_id: 3, mode_id: 8, feed_rate: 18.7500, blade_speed: 5.5000, time: 6, energy_Wh: 36),
  (cut_id: 23, mch_id: 1, mode_id: 8, feed_rate: 18.7500, blade_speed: 5.5000, time: 6, energy_Wh: 36),
  (cut_id: 23, mch_id: 2, mode_id: 9, feed_rate: 18.7500, blade_speed: 6.8800, time: 6, energy_Wh: 51),
  (cut_id: 23, mch_id: 3, mode_id: 9, feed_rate: 18.7500, blade_speed: 6.8800, time: 6, energy_Wh: 51),
  (cut_id: 23, mch_id: 1, mode_id: 9, feed_rate: 18.7500, blade_speed: 6.8800, time: 6, energy_Wh: 51),
  (cut_id: 23, mch_id: 2, mode_id: 10, feed_rate: 18.7500, blade_speed: 8.2500, time: 6, energy_Wh: 43),
  (cut_id: 23, mch_id: 3, mode_id: 10, feed_rate: 18.7500, blade_speed: 8.2500, time: 6, energy_Wh: 43),
  (cut_id: 23, mch_id: 1, mode_id: 10, feed_rate: 18.7500, blade_speed: 8.2500, time: 6, energy_Wh: 43),
  (cut_id: 23, mch_id: 2, mode_id: 11, feed_rate: 25.0000, blade_speed: 2.7500, time: 5, energy_Wh: 58),
  (cut_id: 23, mch_id: 3, mode_id: 11, feed_rate: 25.0000, blade_speed: 2.7500, time: 5, energy_Wh: 58),
  (cut_id: 23, mch_id: 1, mode_id: 11, feed_rate: 25.0000, blade_speed: 2.7500, time: 5, energy_Wh: 58),
  (cut_id: 23, mch_id: 2, mode_id: 12, feed_rate: 25.0000, blade_speed: 4.1200, time: 5, energy_Wh: 28),
  (cut_id: 23, mch_id: 3, mode_id: 12, feed_rate: 25.0000, blade_speed: 4.1200, time: 5, energy_Wh: 28),
  (cut_id: 23, mch_id: 1, mode_id: 12, feed_rate: 25.0000, blade_speed: 4.1200, time: 5, energy_Wh: 28),
  (cut_id: 23, mch_id: 2, mode_id: 13, feed_rate: 25.0000, blade_speed: 5.5000, time: 5, energy_Wh: 29),
  (cut_id: 23, mch_id: 3, mode_id: 13, feed_rate: 25.0000, blade_speed: 5.5000, time: 5, energy_Wh: 29),
  (cut_id: 23, mch_id: 1, mode_id: 13, feed_rate: 25.0000, blade_speed: 5.5000, time: 5, energy_Wh: 29),
  (cut_id: 23, mch_id: 2, mode_id: 14, feed_rate: 25.0000, blade_speed: 6.8800, time: 5, energy_Wh: 49),
  (cut_id: 23, mch_id: 3, mode_id: 14, feed_rate: 25.0000, blade_speed: 6.8800, time: 5, energy_Wh: 49),
  (cut_id: 23, mch_id: 1, mode_id: 14, feed_rate: 25.0000, blade_speed: 6.8800, time: 5, energy_Wh: 49),
  (cut_id: 23, mch_id: 2, mode_id: 15, feed_rate: 25.0000, blade_speed: 8.2500, time: 5, energy_Wh: 50),
  (cut_id: 23, mch_id: 3, mode_id: 15, feed_rate: 25.0000, blade_speed: 8.2500, time: 5, energy_Wh: 50),
  (cut_id: 23, mch_id: 1, mode_id: 15, feed_rate: 25.0000, blade_speed: 8.2500, time: 5, energy_Wh: 50),
  (cut_id: 23, mch_id: 2, mode_id: 16, feed_rate: 31.2500, blade_speed: 2.7500, time: 4, energy_Wh: 49),
  (cut_id: 23, mch_id: 3, mode_id: 16, feed_rate: 31.2500, blade_speed: 2.7500, time: 4, energy_Wh: 49),
  (cut_id: 23, mch_id: 1, mode_id: 16, feed_rate: 31.2500, blade_speed: 2.7500, time: 4, energy_Wh: 49),
  (cut_id: 23, mch_id: 2, mode_id: 17, feed_rate: 31.2500, blade_speed: 4.1200, time: 4, energy_Wh: 37),
  (cut_id: 23, mch_id: 3, mode_id: 17, feed_rate: 31.2500, blade_speed: 4.1200, time: 4, energy_Wh: 37),
  (cut_id: 23, mch_id: 1, mode_id: 17, feed_rate: 31.2500, blade_speed: 4.1200, time: 4, energy_Wh: 37),
  (cut_id: 23, mch_id: 2, mode_id: 18, feed_rate: 31.2500, blade_speed: 5.5000, time: 4, energy_Wh: 39),
  (cut_id: 23, mch_id: 3, mode_id: 18, feed_rate: 31.2500, blade_speed: 5.5000, time: 4, energy_Wh: 39),
  (cut_id: 23, mch_id: 1, mode_id: 18, feed_rate: 31.2500, blade_speed: 5.5000, time: 4, energy_Wh: 39),
  (cut_id: 23, mch_id: 2, mode_id: 19, feed_rate: 31.2500, blade_speed: 6.8800, time: 4, energy_Wh: 61),
  (cut_id: 23, mch_id: 3, mode_id: 19, feed_rate: 31.2500, blade_speed: 6.8800, time: 4, energy_Wh: 61),
  (cut_id: 23, mch_id: 1, mode_id: 19, feed_rate: 31.2500, blade_speed: 6.8800, time: 4, energy_Wh: 61),
  (cut_id: 23, mch_id: 2, mode_id: 20, feed_rate: 31.2500, blade_speed: 8.2500, time: 4, energy_Wh: 72),
  (cut_id: 23, mch_id: 3, mode_id: 20, feed_rate: 31.2500, blade_speed: 8.2500, time: 4, energy_Wh: 72),
  (cut_id: 23, mch_id: 1, mode_id: 20, feed_rate: 31.2500, blade_speed: 8.2500, time: 4, energy_Wh: 72),
  (cut_id: 23, mch_id: 2, mode_id: 21, feed_rate: 37.5000, blade_speed: 2.7500, time: 3, energy_Wh: 65),
  (cut_id: 23, mch_id: 3, mode_id: 21, feed_rate: 37.5000, blade_speed: 2.7500, time: 3, energy_Wh: 65),
  (cut_id: 23, mch_id: 1, mode_id: 21, feed_rate: 37.5000, blade_speed: 2.7500, time: 3, energy_Wh: 65),
  (cut_id: 23, mch_id: 2, mode_id: 22, feed_rate: 37.5000, blade_speed: 4.1200, time: 3, energy_Wh: 46),
  (cut_id: 23, mch_id: 3, mode_id: 22, feed_rate: 37.5000, blade_speed: 4.1200, time: 3, energy_Wh: 46),
  (cut_id: 23, mch_id: 1, mode_id: 22, feed_rate: 37.5000, blade_speed: 4.1200, time: 3, energy_Wh: 46),
  (cut_id: 23, mch_id: 2, mode_id: 23, feed_rate: 37.5000, blade_speed: 5.5000, time: 3, energy_Wh: 41),
  (cut_id: 23, mch_id: 3, mode_id: 23, feed_rate: 37.5000, blade_speed: 5.5000, time: 3, energy_Wh: 41),
  (cut_id: 23, mch_id: 1, mode_id: 23, feed_rate: 37.5000, blade_speed: 5.5000, time: 3, energy_Wh: 41),
  (cut_id: 23, mch_id: 2, mode_id: 24, feed_rate: 37.5000, blade_speed: 6.8800, time: 3, energy_Wh: 54),
  (cut_id: 23, mch_id: 3, mode_id: 24, feed_rate: 37.5000, blade_speed: 6.8800, time: 3, energy_Wh: 54),
  (cut_id: 23, mch_id: 1, mode_id: 24, feed_rate: 37.5000, blade_speed: 6.8800, time: 3, energy_Wh: 54),
  (cut_id: 23, mch_id: 2, mode_id: 25, feed_rate: 37.5000, blade_speed: 8.2500, time: 3, energy_Wh: 75),
  (cut_id: 23, mch_id: 3, mode_id: 25, feed_rate: 37.5000, blade_speed: 8.2500, time: 3, energy_Wh: 75),
  (cut_id: 23, mch_id: 1, mode_id: 25, feed_rate: 37.5000, blade_speed: 8.2500, time: 3, energy_Wh: 75),
  (cut_id: 24, mch_id: 1, mode_id: 1, feed_rate: 15.6600, blade_speed: 7.1600, time: 38, energy_Wh: 60),
  (cut_id: 24, mch_id: 3, mode_id: 1, feed_rate: 15.6600, blade_speed: 7.1600, time: 38, energy_Wh: 60),
  (cut_id: 24, mch_id: 2, mode_id: 1, feed_rate: 15.6600, blade_speed: 7.1600, time: 38, energy_Wh: 60),
  (cut_id: 24, mch_id: 1, mode_id: 2, feed_rate: 15.6600, blade_speed: 10.7300, time: 38, energy_Wh: 42),
  (cut_id: 24, mch_id: 3, mode_id: 2, feed_rate: 15.6600, blade_speed: 10.7300, time: 38, energy_Wh: 42),
  (cut_id: 24, mch_id: 2, mode_id: 2, feed_rate: 15.6600, blade_speed: 10.7300, time: 38, energy_Wh: 42),
  (cut_id: 24, mch_id: 1, mode_id: 3, feed_rate: 15.6600, blade_speed: 14.3100, time: 38, energy_Wh: 73),
  (cut_id: 24, mch_id: 3, mode_id: 3, feed_rate: 15.6600, blade_speed: 14.3100, time: 38, energy_Wh: 73),
  (cut_id: 24, mch_id: 2, mode_id: 3, feed_rate: 15.6600, blade_speed: 14.3100, time: 38, energy_Wh: 73),
  (cut_id: 24, mch_id: 1, mode_id: 4, feed_rate: 15.6600, blade_speed: 17.8900, time: 38, energy_Wh: 43),
  (cut_id: 24, mch_id: 3, mode_id: 4, feed_rate: 15.6600, blade_speed: 17.8900, time: 38, energy_Wh: 43),
  (cut_id: 24, mch_id: 2, mode_id: 4, feed_rate: 15.6600, blade_speed: 17.8900, time: 38, energy_Wh: 43),
  (cut_id: 24, mch_id: 1, mode_id: 5, feed_rate: 15.6600, blade_speed: 21.4700, time: 38, energy_Wh: 76),
  (cut_id: 24, mch_id: 3, mode_id: 5, feed_rate: 15.6600, blade_speed: 21.4700, time: 38, energy_Wh: 76),
  (cut_id: 24, mch_id: 2, mode_id: 5, feed_rate: 15.6600, blade_speed: 21.4700, time: 38, energy_Wh: 76),
  (cut_id: 24, mch_id: 1, mode_id: 6, feed_rate: 23.4800, blade_speed: 7.1600, time: 25, energy_Wh: 70),
  (cut_id: 24, mch_id: 3, mode_id: 6, feed_rate: 23.4800, blade_speed: 7.1600, time: 25, energy_Wh: 70),
  (cut_id: 24, mch_id: 2, mode_id: 6, feed_rate: 23.4800, blade_speed: 7.1600, time: 25, energy_Wh: 70),
  (cut_id: 24, mch_id: 1, mode_id: 7, feed_rate: 23.4800, blade_speed: 10.7300, time: 25, energy_Wh: 46),
  (cut_id: 24, mch_id: 3, mode_id: 7, feed_rate: 23.4800, blade_speed: 10.7300, time: 25, energy_Wh: 46),
  (cut_id: 24, mch_id: 2, mode_id: 7, feed_rate: 23.4800, blade_speed: 10.7300, time: 25, energy_Wh: 46),
  (cut_id: 24, mch_id: 1, mode_id: 8, feed_rate: 23.4800, blade_speed: 14.3100, time: 25, energy_Wh: 109),
  (cut_id: 24, mch_id: 3, mode_id: 8, feed_rate: 23.4800, blade_speed: 14.3100, time: 25, energy_Wh: 109),
  (cut_id: 24, mch_id: 2, mode_id: 8, feed_rate: 23.4800, blade_speed: 14.3100, time: 25, energy_Wh: 109),
  (cut_id: 24, mch_id: 1, mode_id: 9, feed_rate: 23.4800, blade_speed: 17.8900, time: 25, energy_Wh: 53),
  (cut_id: 24, mch_id: 3, mode_id: 9, feed_rate: 23.4800, blade_speed: 17.8900, time: 25, energy_Wh: 53),
  (cut_id: 24, mch_id: 2, mode_id: 9, feed_rate: 23.4800, blade_speed: 17.8900, time: 25, energy_Wh: 53),
  (cut_id: 24, mch_id: 1, mode_id: 10, feed_rate: 23.4800, blade_speed: 21.4700, time: 25, energy_Wh: 66),
  (cut_id: 24, mch_id: 3, mode_id: 10, feed_rate: 23.4800, blade_speed: 21.4700, time: 25, energy_Wh: 66),
  (cut_id: 24, mch_id: 2, mode_id: 10, feed_rate: 23.4800, blade_speed: 21.4700, time: 25, energy_Wh: 66),
  (cut_id: 24, mch_id: 1, mode_id: 11, feed_rate: 31.3100, blade_speed: 7.1600, time: 19, energy_Wh: 102),
  (cut_id: 24, mch_id: 3, mode_id: 11, feed_rate: 31.3100, blade_speed: 7.1600, time: 19, energy_Wh: 102),
  (cut_id: 24, mch_id: 2, mode_id: 11, feed_rate: 31.3100, blade_speed: 7.1600, time: 19, energy_Wh: 102),
  (cut_id: 24, mch_id: 1, mode_id: 12, feed_rate: 31.3100, blade_speed: 10.7300, time: 19, energy_Wh: 60),
  (cut_id: 24, mch_id: 3, mode_id: 12, feed_rate: 31.3100, blade_speed: 10.7300, time: 19, energy_Wh: 60),
  (cut_id: 24, mch_id: 2, mode_id: 12, feed_rate: 31.3100, blade_speed: 10.7300, time: 19, energy_Wh: 60),
  (cut_id: 24, mch_id: 1, mode_id: 13, feed_rate: 31.3100, blade_speed: 14.3100, time: 19, energy_Wh: 120),
  (cut_id: 24, mch_id: 3, mode_id: 13, feed_rate: 31.3100, blade_speed: 14.3100, time: 19, energy_Wh: 120),
  (cut_id: 24, mch_id: 2, mode_id: 13, feed_rate: 31.3100, blade_speed: 14.3100, time: 19, energy_Wh: 120),
  (cut_id: 24, mch_id: 1, mode_id: 14, feed_rate: 31.3100, blade_speed: 17.8900, time: 19, energy_Wh: 69),
  (cut_id: 24, mch_id: 3, mode_id: 14, feed_rate: 31.3100, blade_speed: 17.8900, time: 19, energy_Wh: 69),
  (cut_id: 24, mch_id: 2, mode_id: 14, feed_rate: 31.3100, blade_speed: 17.8900, time: 19, energy_Wh: 69),
  (cut_id: 24, mch_id: 1, mode_id: 15, feed_rate: 31.3100, blade_speed: 21.4700, time: 19, energy_Wh: 107),
  (cut_id: 24, mch_id: 3, mode_id: 15, feed_rate: 31.3100, blade_speed: 21.4700, time: 19, energy_Wh: 107),
  (cut_id: 24, mch_id: 2, mode_id: 15, feed_rate: 31.3100, blade_speed: 21.4700, time: 19, energy_Wh: 107),
  (cut_id: 24, mch_id: 1, mode_id: 16, feed_rate: 39.1400, blade_speed: 7.1600, time: 15, energy_Wh: 97),
  (cut_id: 24, mch_id: 3, mode_id: 16, feed_rate: 39.1400, blade_speed: 7.1600, time: 15, energy_Wh: 97),
  (cut_id: 24, mch_id: 2, mode_id: 16, feed_rate: 39.1400, blade_speed: 7.1600, time: 15, energy_Wh: 97),
  (cut_id: 24, mch_id: 1, mode_id: 17, feed_rate: 39.1400, blade_speed: 10.7300, time: 15, energy_Wh: 57),
  (cut_id: 24, mch_id: 3, mode_id: 17, feed_rate: 39.1400, blade_speed: 10.7300, time: 15, energy_Wh: 57),
  (cut_id: 24, mch_id: 2, mode_id: 17, feed_rate: 39.1400, blade_speed: 10.7300, time: 15, energy_Wh: 57),
  (cut_id: 24, mch_id: 1, mode_id: 18, feed_rate: 39.1400, blade_speed: 14.3100, time: 15, energy_Wh: 121),
  (cut_id: 24, mch_id: 3, mode_id: 18, feed_rate: 39.1400, blade_speed: 14.3100, time: 15, energy_Wh: 121),
  (cut_id: 24, mch_id: 2, mode_id: 18, feed_rate: 39.1400, blade_speed: 14.3100, time: 15, energy_Wh: 121),
  (cut_id: 24, mch_id: 1, mode_id: 19, feed_rate: 39.1400, blade_speed: 17.8900, time: 15, energy_Wh: 61),
  (cut_id: 24, mch_id: 3, mode_id: 19, feed_rate: 39.1400, blade_speed: 17.8900, time: 15, energy_Wh: 61),
  (cut_id: 24, mch_id: 2, mode_id: 19, feed_rate: 39.1400, blade_speed: 17.8900, time: 15, energy_Wh: 61),
  (cut_id: 24, mch_id: 1, mode_id: 20, feed_rate: 39.1400, blade_speed: 21.4700, time: 15, energy_Wh: 95),
  (cut_id: 24, mch_id: 3, mode_id: 20, feed_rate: 39.1400, blade_speed: 21.4700, time: 15, energy_Wh: 95),
  (cut_id: 24, mch_id: 2, mode_id: 20, feed_rate: 39.1400, blade_speed: 21.4700, time: 15, energy_Wh: 95),
  (cut_id: 24, mch_id: 1, mode_id: 21, feed_rate: 46.9700, blade_speed: 7.1600, time: 13, energy_Wh: 95),
  (cut_id: 24, mch_id: 3, mode_id: 21, feed_rate: 46.9700, blade_speed: 7.1600, time: 13, energy_Wh: 95),
  (cut_id: 24, mch_id: 2, mode_id: 21, feed_rate: 46.9700, blade_speed: 7.1600, time: 13, energy_Wh: 95),
  (cut_id: 24, mch_id: 1, mode_id: 22, feed_rate: 46.9700, blade_speed: 10.7300, time: 13, energy_Wh: 59),
  (cut_id: 24, mch_id: 3, mode_id: 22, feed_rate: 46.9700, blade_speed: 10.7300, time: 13, energy_Wh: 59),
  (cut_id: 24, mch_id: 2, mode_id: 22, feed_rate: 46.9700, blade_speed: 10.7300, time: 13, energy_Wh: 59),
  (cut_id: 24, mch_id: 1, mode_id: 23, feed_rate: 46.9700, blade_speed: 14.3100, time: 13, energy_Wh: 105),
  (cut_id: 24, mch_id: 3, mode_id: 23, feed_rate: 46.9700, blade_speed: 14.3100, time: 13, energy_Wh: 105),
  (cut_id: 24, mch_id: 2, mode_id: 23, feed_rate: 46.9700, blade_speed: 14.3100, time: 13, energy_Wh: 105),
  (cut_id: 24, mch_id: 1, mode_id: 24, feed_rate: 46.9700, blade_speed: 17.8900, time: 13, energy_Wh: 68),
  (cut_id: 24, mch_id: 3, mode_id: 24, feed_rate: 46.9700, blade_speed: 17.8900, time: 13, energy_Wh: 68),
  (cut_id: 24, mch_id: 2, mode_id: 24, feed_rate: 46.9700, blade_speed: 17.8900, time: 13, energy_Wh: 68),
  (cut_id: 24, mch_id: 1, mode_id: 25, feed_rate: 46.9700, blade_speed: 21.4700, time: 13, energy_Wh: 118),
  (cut_id: 24, mch_id: 3, mode_id: 25, feed_rate: 46.9700, blade_speed: 21.4700, time: 13, energy_Wh: 118),
  (cut_id: 24, mch_id: 2, mode_id: 25, feed_rate: 46.9700, blade_speed: 21.4700, time: 13, energy_Wh: 118),
  (cut_id: 25, mch_id: 1, mode_id: 1, feed_rate: 30.0000, blade_speed: 12.0000, time: 9, energy_Wh: 59),
  (cut_id: 25, mch_id: 3, mode_id: 1, feed_rate: 30.0000, blade_speed: 12.0000, time: 9, energy_Wh: 59),
  (cut_id: 25, mch_id: 2, mode_id: 1, feed_rate: 30.0000, blade_speed: 12.0000, time: 9, energy_Wh: 59),
  (cut_id: 25, mch_id: 1, mode_id: 2, feed_rate: 30.0000, blade_speed: 18.0000, time: 9, energy_Wh: 57),
  (cut_id: 25, mch_id: 3, mode_id: 2, feed_rate: 30.0000, blade_speed: 18.0000, time: 9, energy_Wh: 57),
  (cut_id: 25, mch_id: 2, mode_id: 2, feed_rate: 30.0000, blade_speed: 18.0000, time: 9, energy_Wh: 57),
  (cut_id: 25, mch_id: 1, mode_id: 3, feed_rate: 30.0000, blade_speed: 24.0000, time: 9, energy_Wh: 59),
  (cut_id: 25, mch_id: 3, mode_id: 3, feed_rate: 30.0000, blade_speed: 24.0000, time: 9, energy_Wh: 59),
  (cut_id: 25, mch_id: 2, mode_id: 3, feed_rate: 30.0000, blade_speed: 24.0000, time: 9, energy_Wh: 59),
  (cut_id: 25, mch_id: 1, mode_id: 4, feed_rate: 30.0000, blade_speed: 30.0000, time: 9, energy_Wh: 51),
  (cut_id: 25, mch_id: 3, mode_id: 4, feed_rate: 30.0000, blade_speed: 30.0000, time: 9, energy_Wh: 51),
  (cut_id: 25, mch_id: 2, mode_id: 4, feed_rate: 30.0000, blade_speed: 30.0000, time: 9, energy_Wh: 51),
  (cut_id: 25, mch_id: 1, mode_id: 5, feed_rate: 30.0000, blade_speed: 36.0000, time: 9, energy_Wh: 53),
  (cut_id: 25, mch_id: 3, mode_id: 5, feed_rate: 30.0000, blade_speed: 36.0000, time: 9, energy_Wh: 53),
  (cut_id: 25, mch_id: 2, mode_id: 5, feed_rate: 30.0000, blade_speed: 36.0000, time: 9, energy_Wh: 53),
  (cut_id: 25, mch_id: 1, mode_id: 6, feed_rate: 45.0000, blade_speed: 12.0000, time: 6, energy_Wh: 71),
  (cut_id: 25, mch_id: 3, mode_id: 6, feed_rate: 45.0000, blade_speed: 12.0000, time: 6, energy_Wh: 71),
  (cut_id: 25, mch_id: 2, mode_id: 6, feed_rate: 45.0000, blade_speed: 12.0000, time: 6, energy_Wh: 71),
  (cut_id: 25, mch_id: 1, mode_id: 7, feed_rate: 45.0000, blade_speed: 18.0000, time: 6, energy_Wh: 69),
  (cut_id: 25, mch_id: 3, mode_id: 7, feed_rate: 45.0000, blade_speed: 18.0000, time: 6, energy_Wh: 69),
  (cut_id: 25, mch_id: 2, mode_id: 7, feed_rate: 45.0000, blade_speed: 18.0000, time: 6, energy_Wh: 69),
  (cut_id: 25, mch_id: 1, mode_id: 8, feed_rate: 45.0000, blade_speed: 24.0000, time: 6, energy_Wh: 67),
  (cut_id: 25, mch_id: 3, mode_id: 8, feed_rate: 45.0000, blade_speed: 24.0000, time: 6, energy_Wh: 67),
  (cut_id: 25, mch_id: 2, mode_id: 8, feed_rate: 45.0000, blade_speed: 24.0000, time: 6, energy_Wh: 67),
  (cut_id: 25, mch_id: 1, mode_id: 9, feed_rate: 45.0000, blade_speed: 30.0000, time: 6, energy_Wh: 46),
  (cut_id: 25, mch_id: 3, mode_id: 9, feed_rate: 45.0000, blade_speed: 30.0000, time: 6, energy_Wh: 46),
  (cut_id: 25, mch_id: 2, mode_id: 9, feed_rate: 45.0000, blade_speed: 30.0000, time: 6, energy_Wh: 46),
  (cut_id: 25, mch_id: 1, mode_id: 10, feed_rate: 45.0000, blade_speed: 36.0000, time: 6, energy_Wh: 47),
  (cut_id: 25, mch_id: 3, mode_id: 10, feed_rate: 45.0000, blade_speed: 36.0000, time: 6, energy_Wh: 47),
  (cut_id: 25, mch_id: 2, mode_id: 10, feed_rate: 45.0000, blade_speed: 36.0000, time: 6, energy_Wh: 47),
  (cut_id: 25, mch_id: 1, mode_id: 11, feed_rate: 60.0000, blade_speed: 12.0000, time: 5, energy_Wh: 83),
  (cut_id: 25, mch_id: 3, mode_id: 11, feed_rate: 60.0000, blade_speed: 12.0000, time: 5, energy_Wh: 83),
  (cut_id: 25, mch_id: 2, mode_id: 11, feed_rate: 60.0000, blade_speed: 12.0000, time: 5, energy_Wh: 83),
  (cut_id: 25, mch_id: 1, mode_id: 12, feed_rate: 60.0000, blade_speed: 18.0000, time: 5, energy_Wh: 83),
  (cut_id: 25, mch_id: 3, mode_id: 12, feed_rate: 60.0000, blade_speed: 18.0000, time: 5, energy_Wh: 83),
  (cut_id: 25, mch_id: 2, mode_id: 12, feed_rate: 60.0000, blade_speed: 18.0000, time: 5, energy_Wh: 83),
  (cut_id: 25, mch_id: 1, mode_id: 13, feed_rate: 60.0000, blade_speed: 24.0000, time: 5, energy_Wh: 71),
  (cut_id: 25, mch_id: 3, mode_id: 13, feed_rate: 60.0000, blade_speed: 24.0000, time: 5, energy_Wh: 71),
  (cut_id: 25, mch_id: 2, mode_id: 13, feed_rate: 60.0000, blade_speed: 24.0000, time: 5, energy_Wh: 71),
  (cut_id: 25, mch_id: 1, mode_id: 14, feed_rate: 60.0000, blade_speed: 30.0000, time: 5, energy_Wh: 77),
  (cut_id: 25, mch_id: 3, mode_id: 14, feed_rate: 60.0000, blade_speed: 30.0000, time: 5, energy_Wh: 77),
  (cut_id: 25, mch_id: 2, mode_id: 14, feed_rate: 60.0000, blade_speed: 30.0000, time: 5, energy_Wh: 77),
  (cut_id: 25, mch_id: 1, mode_id: 15, feed_rate: 60.0000, blade_speed: 36.0000, time: 5, energy_Wh: 58),
  (cut_id: 25, mch_id: 3, mode_id: 15, feed_rate: 60.0000, blade_speed: 36.0000, time: 5, energy_Wh: 58),
  (cut_id: 25, mch_id: 2, mode_id: 15, feed_rate: 60.0000, blade_speed: 36.0000, time: 5, energy_Wh: 58),
  (cut_id: 25, mch_id: 1, mode_id: 16, feed_rate: 75.0000, blade_speed: 12.0000, time: 4, energy_Wh: 104),
  (cut_id: 25, mch_id: 3, mode_id: 16, feed_rate: 75.0000, blade_speed: 12.0000, time: 4, energy_Wh: 104),
  (cut_id: 25, mch_id: 2, mode_id: 16, feed_rate: 75.0000, blade_speed: 12.0000, time: 4, energy_Wh: 104),
  (cut_id: 25, mch_id: 1, mode_id: 17, feed_rate: 75.0000, blade_speed: 18.0000, time: 4, energy_Wh: 91),
  (cut_id: 25, mch_id: 3, mode_id: 17, feed_rate: 75.0000, blade_speed: 18.0000, time: 4, energy_Wh: 91),
  (cut_id: 25, mch_id: 2, mode_id: 17, feed_rate: 75.0000, blade_speed: 18.0000, time: 4, energy_Wh: 91),
  (cut_id: 25, mch_id: 1, mode_id: 18, feed_rate: 75.0000, blade_speed: 24.0000, time: 4, energy_Wh: 98),
  (cut_id: 25, mch_id: 3, mode_id: 18, feed_rate: 75.0000, blade_speed: 24.0000, time: 4, energy_Wh: 98),
  (cut_id: 25, mch_id: 2, mode_id: 18, feed_rate: 75.0000, blade_speed: 24.0000, time: 4, energy_Wh: 98),
  (cut_id: 25, mch_id: 1, mode_id: 19, feed_rate: 75.0000, blade_speed: 30.0000, time: 4, energy_Wh: 74),
  (cut_id: 25, mch_id: 3, mode_id: 19, feed_rate: 75.0000, blade_speed: 30.0000, time: 4, energy_Wh: 74),
  (cut_id: 25, mch_id: 2, mode_id: 19, feed_rate: 75.0000, blade_speed: 30.0000, time: 4, energy_Wh: 74),
  (cut_id: 25, mch_id: 1, mode_id: 20, feed_rate: 75.0000, blade_speed: 36.0000, time: 4, energy_Wh: 82),
  (cut_id: 25, mch_id: 3, mode_id: 20, feed_rate: 75.0000, blade_speed: 36.0000, time: 4, energy_Wh: 82),
  (cut_id: 25, mch_id: 2, mode_id: 20, feed_rate: 75.0000, blade_speed: 36.0000, time: 4, energy_Wh: 82),
  (cut_id: 25, mch_id: 1, mode_id: 21, feed_rate: 90.0000, blade_speed: 12.0000, time: 3, energy_Wh: 114),
  (cut_id: 25, mch_id: 3, mode_id: 21, feed_rate: 90.0000, blade_speed: 12.0000, time: 3, energy_Wh: 114),
  (cut_id: 25, mch_id: 2, mode_id: 21, feed_rate: 90.0000, blade_speed: 12.0000, time: 3, energy_Wh: 114),
  (cut_id: 25, mch_id: 1, mode_id: 22, feed_rate: 90.0000, blade_speed: 18.0000, time: 3, energy_Wh: 120),
  (cut_id: 25, mch_id: 3, mode_id: 22, feed_rate: 90.0000, blade_speed: 18.0000, time: 3, energy_Wh: 120),
  (cut_id: 25, mch_id: 2, mode_id: 22, feed_rate: 90.0000, blade_speed: 18.0000, time: 3, energy_Wh: 120),
  (cut_id: 25, mch_id: 1, mode_id: 23, feed_rate: 90.0000, blade_speed: 24.0000, time: 3, energy_Wh: 93),
  (cut_id: 25, mch_id: 3, mode_id: 23, feed_rate: 90.0000, blade_speed: 24.0000, time: 3, energy_Wh: 93),
  (cut_id: 25, mch_id: 2, mode_id: 23, feed_rate: 90.0000, blade_speed: 24.0000, time: 3, energy_Wh: 93),
  (cut_id: 25, mch_id: 1, mode_id: 24, feed_rate: 90.0000, blade_speed: 30.0000, time: 3, energy_Wh: 119),
  (cut_id: 25, mch_id: 3, mode_id: 24, feed_rate: 90.0000, blade_speed: 30.0000, time: 3, energy_Wh: 119),
  (cut_id: 25, mch_id: 2, mode_id: 24, feed_rate: 90.0000, blade_speed: 30.0000, time: 3, energy_Wh: 119),
  (cut_id: 25, mch_id: 1, mode_id: 25, feed_rate: 90.0000, blade_speed: 36.0000, time: 3, energy_Wh: 116),
  (cut_id: 25, mch_id: 3, mode_id: 25, feed_rate: 90.0000, blade_speed: 36.0000, time: 3, energy_Wh: 116),
  (cut_id: 25, mch_id: 2, mode_id: 25, feed_rate: 90.0000, blade_speed: 36.0000, time: 3, energy_Wh: 116),
  (cut_id: 26, mch_id: 3, mode_id: 1, feed_rate: 19.1000, blade_speed: 11.1000, time: 6, energy_Wh: 21),
  (cut_id: 26, mch_id: 1, mode_id: 1, feed_rate: 19.1000, blade_speed: 11.1000, time: 6, energy_Wh: 21),
  (cut_id: 26, mch_id: 2, mode_id: 1, feed_rate: 19.1000, blade_speed: 11.1000, time: 6, energy_Wh: 21),
  (cut_id: 26, mch_id: 3, mode_id: 2, feed_rate: 19.1000, blade_speed: 16.6500, time: 6, energy_Wh: 25),
  (cut_id: 26, mch_id: 1, mode_id: 2, feed_rate: 19.1000, blade_speed: 16.6500, time: 6, energy_Wh: 25),
  (cut_id: 26, mch_id: 2, mode_id: 2, feed_rate: 19.1000, blade_speed: 16.6500, time: 6, energy_Wh: 25),
  (cut_id: 26, mch_id: 3, mode_id: 3, feed_rate: 19.1000, blade_speed: 22.2000, time: 6, energy_Wh: 36),
  (cut_id: 26, mch_id: 1, mode_id: 3, feed_rate: 19.1000, blade_speed: 22.2000, time: 6, energy_Wh: 36),
  (cut_id: 26, mch_id: 2, mode_id: 3, feed_rate: 19.1000, blade_speed: 22.2000, time: 6, energy_Wh: 36),
  (cut_id: 26, mch_id: 3, mode_id: 4, feed_rate: 19.1000, blade_speed: 27.7500, time: 6, energy_Wh: 39),
  (cut_id: 26, mch_id: 1, mode_id: 4, feed_rate: 19.1000, blade_speed: 27.7500, time: 6, energy_Wh: 39),
  (cut_id: 26, mch_id: 2, mode_id: 4, feed_rate: 19.1000, blade_speed: 27.7500, time: 6, energy_Wh: 39),
  (cut_id: 26, mch_id: 3, mode_id: 5, feed_rate: 19.1000, blade_speed: 33.3000, time: 6, energy_Wh: 36),
  (cut_id: 26, mch_id: 1, mode_id: 5, feed_rate: 19.1000, blade_speed: 33.3000, time: 6, energy_Wh: 36),
  (cut_id: 26, mch_id: 2, mode_id: 5, feed_rate: 19.1000, blade_speed: 33.3000, time: 6, energy_Wh: 36),
  (cut_id: 26, mch_id: 3, mode_id: 6, feed_rate: 28.6500, blade_speed: 11.1000, time: 4, energy_Wh: 27),
  (cut_id: 26, mch_id: 1, mode_id: 6, feed_rate: 28.6500, blade_speed: 11.1000, time: 4, energy_Wh: 27),
  (cut_id: 26, mch_id: 2, mode_id: 6, feed_rate: 28.6500, blade_speed: 11.1000, time: 4, energy_Wh: 27),
  (cut_id: 26, mch_id: 3, mode_id: 7, feed_rate: 28.6500, blade_speed: 16.6500, time: 4, energy_Wh: 26),
  (cut_id: 26, mch_id: 1, mode_id: 7, feed_rate: 28.6500, blade_speed: 16.6500, time: 4, energy_Wh: 26),
  (cut_id: 26, mch_id: 2, mode_id: 7, feed_rate: 28.6500, blade_speed: 16.6500, time: 4, energy_Wh: 26),
  (cut_id: 26, mch_id: 3, mode_id: 8, feed_rate: 28.6500, blade_speed: 22.2000, time: 4, energy_Wh: 31),
  (cut_id: 26, mch_id: 1, mode_id: 8, feed_rate: 28.6500, blade_speed: 22.2000, time: 4, energy_Wh: 31),
  (cut_id: 26, mch_id: 2, mode_id: 8, feed_rate: 28.6500, blade_speed: 22.2000, time: 4, energy_Wh: 31),
  (cut_id: 26, mch_id: 3, mode_id: 9, feed_rate: 28.6500, blade_speed: 27.7500, time: 4, energy_Wh: 38),
  (cut_id: 26, mch_id: 1, mode_id: 9, feed_rate: 28.6500, blade_speed: 27.7500, time: 4, energy_Wh: 38),
  (cut_id: 26, mch_id: 2, mode_id: 9, feed_rate: 28.6500, blade_speed: 27.7500, time: 4, energy_Wh: 38),
  (cut_id: 26, mch_id: 3, mode_id: 10, feed_rate: 28.6500, blade_speed: 33.3000, time: 4, energy_Wh: 53),
  (cut_id: 26, mch_id: 1, mode_id: 10, feed_rate: 28.6500, blade_speed: 33.3000, time: 4, energy_Wh: 53),
  (cut_id: 26, mch_id: 2, mode_id: 10, feed_rate: 28.6500, blade_speed: 33.3000, time: 4, energy_Wh: 53),
  (cut_id: 26, mch_id: 3, mode_id: 11, feed_rate: 38.2000, blade_speed: 11.1000, time: 3, energy_Wh: 33),
  (cut_id: 26, mch_id: 1, mode_id: 11, feed_rate: 38.2000, blade_speed: 11.1000, time: 3, energy_Wh: 33),
  (cut_id: 26, mch_id: 2, mode_id: 11, feed_rate: 38.2000, blade_speed: 11.1000, time: 3, energy_Wh: 33),
  (cut_id: 26, mch_id: 3, mode_id: 12, feed_rate: 38.2000, blade_speed: 16.6500, time: 3, energy_Wh: 33),
  (cut_id: 26, mch_id: 1, mode_id: 12, feed_rate: 38.2000, blade_speed: 16.6500, time: 3, energy_Wh: 33),
  (cut_id: 26, mch_id: 2, mode_id: 12, feed_rate: 38.2000, blade_speed: 16.6500, time: 3, energy_Wh: 33),
  (cut_id: 26, mch_id: 3, mode_id: 13, feed_rate: 38.2000, blade_speed: 22.2000, time: 3, energy_Wh: 42),
  (cut_id: 26, mch_id: 1, mode_id: 13, feed_rate: 38.2000, blade_speed: 22.2000, time: 3, energy_Wh: 42),
  (cut_id: 26, mch_id: 2, mode_id: 13, feed_rate: 38.2000, blade_speed: 22.2000, time: 3, energy_Wh: 42),
  (cut_id: 26, mch_id: 3, mode_id: 14, feed_rate: 38.2000, blade_speed: 27.7500, time: 3, energy_Wh: 50),
  (cut_id: 26, mch_id: 1, mode_id: 14, feed_rate: 38.2000, blade_speed: 27.7500, time: 3, energy_Wh: 50),
  (cut_id: 26, mch_id: 2, mode_id: 14, feed_rate: 38.2000, blade_speed: 27.7500, time: 3, energy_Wh: 50),
  (cut_id: 26, mch_id: 3, mode_id: 15, feed_rate: 38.2000, blade_speed: 33.3000, time: 3, energy_Wh: 70),
  (cut_id: 26, mch_id: 1, mode_id: 15, feed_rate: 38.2000, blade_speed: 33.3000, time: 3, energy_Wh: 70),
  (cut_id: 26, mch_id: 2, mode_id: 15, feed_rate: 38.2000, blade_speed: 33.3000, time: 3, energy_Wh: 70),
  (cut_id: 26, mch_id: 3, mode_id: 16, feed_rate: 47.7500, blade_speed: 11.1000, time: 3, energy_Wh: 33),
  (cut_id: 26, mch_id: 1, mode_id: 16, feed_rate: 47.7500, blade_speed: 11.1000, time: 3, energy_Wh: 33),
  (cut_id: 26, mch_id: 2, mode_id: 16, feed_rate: 47.7500, blade_speed: 11.1000, time: 3, energy_Wh: 33),
  (cut_id: 26, mch_id: 3, mode_id: 17, feed_rate: 47.7500, blade_speed: 16.6500, time: 3, energy_Wh: 48),
  (cut_id: 26, mch_id: 1, mode_id: 17, feed_rate: 47.7500, blade_speed: 16.6500, time: 3, energy_Wh: 48),
  (cut_id: 26, mch_id: 2, mode_id: 17, feed_rate: 47.7500, blade_speed: 16.6500, time: 3, energy_Wh: 48),
  (cut_id: 26, mch_id: 3, mode_id: 18, feed_rate: 47.7500, blade_speed: 22.2000, time: 3, energy_Wh: 61),
  (cut_id: 26, mch_id: 1, mode_id: 18, feed_rate: 47.7500, blade_speed: 22.2000, time: 3, energy_Wh: 61),
  (cut_id: 26, mch_id: 2, mode_id: 18, feed_rate: 47.7500, blade_speed: 22.2000, time: 3, energy_Wh: 61),
  (cut_id: 26, mch_id: 3, mode_id: 19, feed_rate: 47.7500, blade_speed: 27.7500, time: 3, energy_Wh: 64),
  (cut_id: 26, mch_id: 1, mode_id: 19, feed_rate: 47.7500, blade_speed: 27.7500, time: 3, energy_Wh: 64),
  (cut_id: 26, mch_id: 2, mode_id: 19, feed_rate: 47.7500, blade_speed: 27.7500, time: 3, energy_Wh: 64),
  (cut_id: 26, mch_id: 3, mode_id: 20, feed_rate: 47.7500, blade_speed: 33.3000, time: 3, energy_Wh: 74),
  (cut_id: 26, mch_id: 1, mode_id: 20, feed_rate: 47.7500, blade_speed: 33.3000, time: 3, energy_Wh: 74),
  (cut_id: 26, mch_id: 2, mode_id: 20, feed_rate: 47.7500, blade_speed: 33.3000, time: 3, energy_Wh: 74),
  (cut_id: 26, mch_id: 3, mode_id: 21, feed_rate: 57.3000, blade_speed: 11.1000, time: 2, energy_Wh: 54),
  (cut_id: 26, mch_id: 1, mode_id: 21, feed_rate: 57.3000, blade_speed: 11.1000, time: 2, energy_Wh: 54),
  (cut_id: 26, mch_id: 2, mode_id: 21, feed_rate: 57.3000, blade_speed: 11.1000, time: 2, energy_Wh: 54),
  (cut_id: 26, mch_id: 3, mode_id: 22, feed_rate: 57.3000, blade_speed: 16.6500, time: 2, energy_Wh: 43),
  (cut_id: 26, mch_id: 1, mode_id: 22, feed_rate: 57.3000, blade_speed: 16.6500, time: 2, energy_Wh: 43),
  (cut_id: 26, mch_id: 2, mode_id: 22, feed_rate: 57.3000, blade_speed: 16.6500, time: 2, energy_Wh: 43),
  (cut_id: 26, mch_id: 3, mode_id: 23, feed_rate: 57.3000, blade_speed: 22.2000, time: 2, energy_Wh: 50),
  (cut_id: 26, mch_id: 1, mode_id: 23, feed_rate: 57.3000, blade_speed: 22.2000, time: 2, energy_Wh: 50),
  (cut_id: 26, mch_id: 2, mode_id: 23, feed_rate: 57.3000, blade_speed: 22.2000, time: 2, energy_Wh: 50),
  (cut_id: 26, mch_id: 3, mode_id: 24, feed_rate: 57.3000, blade_speed: 27.7500, time: 2, energy_Wh: 71),
  (cut_id: 26, mch_id: 1, mode_id: 24, feed_rate: 57.3000, blade_speed: 27.7500, time: 2, energy_Wh: 71),
  (cut_id: 26, mch_id: 2, mode_id: 24, feed_rate: 57.3000, blade_speed: 27.7500, time: 2, energy_Wh: 71),
  (cut_id: 26, mch_id: 3, mode_id: 25, feed_rate: 57.3000, blade_speed: 33.3000, time: 2, energy_Wh: 101),
  (cut_id: 26, mch_id: 1, mode_id: 25, feed_rate: 57.3000, blade_speed: 33.3000, time: 2, energy_Wh: 101),
  (cut_id: 26, mch_id: 2, mode_id: 25, feed_rate: 57.3000, blade_speed: 33.3000, time: 2, energy_Wh: 101),
  (cut_id: 27, mch_id: 1, mode_id: 1, feed_rate: 11.5000, blade_speed: 3.7500, time: 9, energy_Wh: 24),
  (cut_id: 27, mch_id: 2, mode_id: 1, feed_rate: 11.5000, blade_speed: 3.7500, time: 9, energy_Wh: 24),
  (cut_id: 27, mch_id: 3, mode_id: 1, feed_rate: 11.5000, blade_speed: 3.7500, time: 9, energy_Wh: 24),
  (cut_id: 27, mch_id: 1, mode_id: 2, feed_rate: 11.5000, blade_speed: 5.6200, time: 9, energy_Wh: 26),
  (cut_id: 27, mch_id: 2, mode_id: 2, feed_rate: 11.5000, blade_speed: 5.6200, time: 9, energy_Wh: 26),
  (cut_id: 27, mch_id: 3, mode_id: 2, feed_rate: 11.5000, blade_speed: 5.6200, time: 9, energy_Wh: 26),
  (cut_id: 27, mch_id: 1, mode_id: 3, feed_rate: 11.5000, blade_speed: 7.5000, time: 9, energy_Wh: 38),
  (cut_id: 27, mch_id: 2, mode_id: 3, feed_rate: 11.5000, blade_speed: 7.5000, time: 9, energy_Wh: 38),
  (cut_id: 27, mch_id: 3, mode_id: 3, feed_rate: 11.5000, blade_speed: 7.5000, time: 9, energy_Wh: 38),
  (cut_id: 27, mch_id: 1, mode_id: 4, feed_rate: 11.5000, blade_speed: 9.3800, time: 9, energy_Wh: 31),
  (cut_id: 27, mch_id: 2, mode_id: 4, feed_rate: 11.5000, blade_speed: 9.3800, time: 9, energy_Wh: 31),
  (cut_id: 27, mch_id: 3, mode_id: 4, feed_rate: 11.5000, blade_speed: 9.3800, time: 9, energy_Wh: 31),
  (cut_id: 27, mch_id: 1, mode_id: 5, feed_rate: 11.5000, blade_speed: 11.2500, time: 9, energy_Wh: 22),
  (cut_id: 27, mch_id: 2, mode_id: 5, feed_rate: 11.5000, blade_speed: 11.2500, time: 9, energy_Wh: 22),
  (cut_id: 27, mch_id: 3, mode_id: 5, feed_rate: 11.5000, blade_speed: 11.2500, time: 9, energy_Wh: 22),
  (cut_id: 27, mch_id: 1, mode_id: 6, feed_rate: 17.2500, blade_speed: 3.7500, time: 6, energy_Wh: 23),
  (cut_id: 27, mch_id: 2, mode_id: 6, feed_rate: 17.2500, blade_speed: 3.7500, time: 6, energy_Wh: 23),
  (cut_id: 27, mch_id: 3, mode_id: 6, feed_rate: 17.2500, blade_speed: 3.7500, time: 6, energy_Wh: 23),
  (cut_id: 27, mch_id: 1, mode_id: 7, feed_rate: 17.2500, blade_speed: 5.6200, time: 6, energy_Wh: 29),
  (cut_id: 27, mch_id: 2, mode_id: 7, feed_rate: 17.2500, blade_speed: 5.6200, time: 6, energy_Wh: 29),
  (cut_id: 27, mch_id: 3, mode_id: 7, feed_rate: 17.2500, blade_speed: 5.6200, time: 6, energy_Wh: 29),
  (cut_id: 27, mch_id: 1, mode_id: 8, feed_rate: 17.2500, blade_speed: 7.5000, time: 6, energy_Wh: 40),
  (cut_id: 27, mch_id: 2, mode_id: 8, feed_rate: 17.2500, blade_speed: 7.5000, time: 6, energy_Wh: 40),
  (cut_id: 27, mch_id: 3, mode_id: 8, feed_rate: 17.2500, blade_speed: 7.5000, time: 6, energy_Wh: 40),
  (cut_id: 27, mch_id: 1, mode_id: 9, feed_rate: 17.2500, blade_speed: 9.3800, time: 6, energy_Wh: 30),
  (cut_id: 27, mch_id: 2, mode_id: 9, feed_rate: 17.2500, blade_speed: 9.3800, time: 6, energy_Wh: 30),
  (cut_id: 27, mch_id: 3, mode_id: 9, feed_rate: 17.2500, blade_speed: 9.3800, time: 6, energy_Wh: 30),
  (cut_id: 27, mch_id: 1, mode_id: 10, feed_rate: 17.2500, blade_speed: 11.2500, time: 6, energy_Wh: 21),
  (cut_id: 27, mch_id: 2, mode_id: 10, feed_rate: 17.2500, blade_speed: 11.2500, time: 6, energy_Wh: 21),
  (cut_id: 27, mch_id: 3, mode_id: 10, feed_rate: 17.2500, blade_speed: 11.2500, time: 6, energy_Wh: 21),
  (cut_id: 27, mch_id: 1, mode_id: 11, feed_rate: 23.0000, blade_speed: 3.7500, time: 5, energy_Wh: 27),
  (cut_id: 27, mch_id: 2, mode_id: 11, feed_rate: 23.0000, blade_speed: 3.7500, time: 5, energy_Wh: 27),
  (cut_id: 27, mch_id: 3, mode_id: 11, feed_rate: 23.0000, blade_speed: 3.7500, time: 5, energy_Wh: 27),
  (cut_id: 27, mch_id: 1, mode_id: 12, feed_rate: 23.0000, blade_speed: 5.6200, time: 5, energy_Wh: 26),
  (cut_id: 27, mch_id: 2, mode_id: 12, feed_rate: 23.0000, blade_speed: 5.6200, time: 5, energy_Wh: 26),
  (cut_id: 27, mch_id: 3, mode_id: 12, feed_rate: 23.0000, blade_speed: 5.6200, time: 5, energy_Wh: 26),
  (cut_id: 27, mch_id: 1, mode_id: 13, feed_rate: 23.0000, blade_speed: 7.5000, time: 5, energy_Wh: 46),
  (cut_id: 27, mch_id: 2, mode_id: 13, feed_rate: 23.0000, blade_speed: 7.5000, time: 5, energy_Wh: 46),
  (cut_id: 27, mch_id: 3, mode_id: 13, feed_rate: 23.0000, blade_speed: 7.5000, time: 5, energy_Wh: 46),
  (cut_id: 27, mch_id: 1, mode_id: 14, feed_rate: 23.0000, blade_speed: 9.3800, time: 5, energy_Wh: 30),
  (cut_id: 27, mch_id: 2, mode_id: 14, feed_rate: 23.0000, blade_speed: 9.3800, time: 5, energy_Wh: 30),
  (cut_id: 27, mch_id: 3, mode_id: 14, feed_rate: 23.0000, blade_speed: 9.3800, time: 5, energy_Wh: 30),
  (cut_id: 27, mch_id: 1, mode_id: 15, feed_rate: 23.0000, blade_speed: 11.2500, time: 5, energy_Wh: 23),
  (cut_id: 27, mch_id: 2, mode_id: 15, feed_rate: 23.0000, blade_speed: 11.2500, time: 5, energy_Wh: 23),
  (cut_id: 27, mch_id: 3, mode_id: 15, feed_rate: 23.0000, blade_speed: 11.2500, time: 5, energy_Wh: 23),
  (cut_id: 27, mch_id: 1, mode_id: 16, feed_rate: 28.7500, blade_speed: 3.7500, time: 4, energy_Wh: 32),
  (cut_id: 27, mch_id: 2, mode_id: 16, feed_rate: 28.7500, blade_speed: 3.7500, time: 4, energy_Wh: 32),
  (cut_id: 27, mch_id: 3, mode_id: 16, feed_rate: 28.7500, blade_speed: 3.7500, time: 4, energy_Wh: 32),
  (cut_id: 27, mch_id: 1, mode_id: 17, feed_rate: 28.7500, blade_speed: 5.6200, time: 4, energy_Wh: 36),
  (cut_id: 27, mch_id: 2, mode_id: 17, feed_rate: 28.7500, blade_speed: 5.6200, time: 4, energy_Wh: 36),
  (cut_id: 27, mch_id: 3, mode_id: 17, feed_rate: 28.7500, blade_speed: 5.6200, time: 4, energy_Wh: 36),
  (cut_id: 27, mch_id: 1, mode_id: 18, feed_rate: 28.7500, blade_speed: 7.5000, time: 4, energy_Wh: 51),
  (cut_id: 27, mch_id: 2, mode_id: 18, feed_rate: 28.7500, blade_speed: 7.5000, time: 4, energy_Wh: 51),
  (cut_id: 27, mch_id: 3, mode_id: 18, feed_rate: 28.7500, blade_speed: 7.5000, time: 4, energy_Wh: 51),
  (cut_id: 27, mch_id: 1, mode_id: 19, feed_rate: 28.7500, blade_speed: 9.3800, time: 4, energy_Wh: 38),
  (cut_id: 27, mch_id: 2, mode_id: 19, feed_rate: 28.7500, blade_speed: 9.3800, time: 4, energy_Wh: 38),
  (cut_id: 27, mch_id: 3, mode_id: 19, feed_rate: 28.7500, blade_speed: 9.3800, time: 4, energy_Wh: 38),
  (cut_id: 27, mch_id: 1, mode_id: 20, feed_rate: 28.7500, blade_speed: 11.2500, time: 4, energy_Wh: 25),
  (cut_id: 27, mch_id: 2, mode_id: 20, feed_rate: 28.7500, blade_speed: 11.2500, time: 4, energy_Wh: 25),
  (cut_id: 27, mch_id: 3, mode_id: 20, feed_rate: 28.7500, blade_speed: 11.2500, time: 4, energy_Wh: 25),
  (cut_id: 27, mch_id: 1, mode_id: 21, feed_rate: 34.5000, blade_speed: 3.7500, time: 3, energy_Wh: 36),
  (cut_id: 27, mch_id: 2, mode_id: 21, feed_rate: 34.5000, blade_speed: 3.7500, time: 3, energy_Wh: 36),
  (cut_id: 27, mch_id: 3, mode_id: 21, feed_rate: 34.5000, blade_speed: 3.7500, time: 3, energy_Wh: 36),
  (cut_id: 27, mch_id: 1, mode_id: 22, feed_rate: 34.5000, blade_speed: 5.6200, time: 3, energy_Wh: 39),
  (cut_id: 27, mch_id: 2, mode_id: 22, feed_rate: 34.5000, blade_speed: 5.6200, time: 3, energy_Wh: 39),
  (cut_id: 27, mch_id: 3, mode_id: 22, feed_rate: 34.5000, blade_speed: 5.6200, time: 3, energy_Wh: 39),
  (cut_id: 27, mch_id: 1, mode_id: 23, feed_rate: 34.5000, blade_speed: 7.5000, time: 3, energy_Wh: 42),
  (cut_id: 27, mch_id: 2, mode_id: 23, feed_rate: 34.5000, blade_speed: 7.5000, time: 3, energy_Wh: 42),
  (cut_id: 27, mch_id: 3, mode_id: 23, feed_rate: 34.5000, blade_speed: 7.5000, time: 3, energy_Wh: 42),
  (cut_id: 27, mch_id: 1, mode_id: 24, feed_rate: 34.5000, blade_speed: 9.3800, time: 3, energy_Wh: 40),
  (cut_id: 27, mch_id: 2, mode_id: 24, feed_rate: 34.5000, blade_speed: 9.3800, time: 3, energy_Wh: 40),
  (cut_id: 27, mch_id: 3, mode_id: 24, feed_rate: 34.5000, blade_speed: 9.3800, time: 3, energy_Wh: 40),
  (cut_id: 27, mch_id: 1, mode_id: 25, feed_rate: 34.5000, blade_speed: 11.2500, time: 3, energy_Wh: 26),
  (cut_id: 27, mch_id: 2, mode_id: 25, feed_rate: 34.5000, blade_speed: 11.2500, time: 3, energy_Wh: 26),
  (cut_id: 27, mch_id: 3, mode_id: 25, feed_rate: 34.5000, blade_speed: 11.2500, time: 3, energy_Wh: 26),
  (cut_id: 28, mch_id: 2, mode_id: 1, feed_rate: 16.3200, blade_speed: 7.8200, time: 18, energy_Wh: 57),
  (cut_id: 28, mch_id: 1, mode_id: 1, feed_rate: 16.3200, blade_speed: 7.8200, time: 18, energy_Wh: 57),
  (cut_id: 28, mch_id: 3, mode_id: 1, feed_rate: 16.3200, blade_speed: 7.8200, time: 18, energy_Wh: 57),
  (cut_id: 28, mch_id: 2, mode_id: 2, feed_rate: 16.3200, blade_speed: 11.7300, time: 18, energy_Wh: 30),
  (cut_id: 28, mch_id: 1, mode_id: 2, feed_rate: 16.3200, blade_speed: 11.7300, time: 18, energy_Wh: 30),
  (cut_id: 28, mch_id: 3, mode_id: 2, feed_rate: 16.3200, blade_speed: 11.7300, time: 18, energy_Wh: 30),
  (cut_id: 28, mch_id: 2, mode_id: 3, feed_rate: 16.3200, blade_speed: 15.6400, time: 18, energy_Wh: 35),
  (cut_id: 28, mch_id: 1, mode_id: 3, feed_rate: 16.3200, blade_speed: 15.6400, time: 18, energy_Wh: 35),
  (cut_id: 28, mch_id: 3, mode_id: 3, feed_rate: 16.3200, blade_speed: 15.6400, time: 18, energy_Wh: 35),
  (cut_id: 28, mch_id: 2, mode_id: 4, feed_rate: 16.3200, blade_speed: 19.5500, time: 18, energy_Wh: 47),
  (cut_id: 28, mch_id: 1, mode_id: 4, feed_rate: 16.3200, blade_speed: 19.5500, time: 18, energy_Wh: 47),
  (cut_id: 28, mch_id: 3, mode_id: 4, feed_rate: 16.3200, blade_speed: 19.5500, time: 18, energy_Wh: 47),
  (cut_id: 28, mch_id: 2, mode_id: 5, feed_rate: 16.3200, blade_speed: 23.4600, time: 18, energy_Wh: 25),
  (cut_id: 28, mch_id: 1, mode_id: 5, feed_rate: 16.3200, blade_speed: 23.4600, time: 18, energy_Wh: 25),
  (cut_id: 28, mch_id: 3, mode_id: 5, feed_rate: 16.3200, blade_speed: 23.4600, time: 18, energy_Wh: 25),
  (cut_id: 28, mch_id: 2, mode_id: 6, feed_rate: 24.4800, blade_speed: 7.8200, time: 12, energy_Wh: 71),
  (cut_id: 28, mch_id: 1, mode_id: 6, feed_rate: 24.4800, blade_speed: 7.8200, time: 12, energy_Wh: 71),
  (cut_id: 28, mch_id: 3, mode_id: 6, feed_rate: 24.4800, blade_speed: 7.8200, time: 12, energy_Wh: 71),
  (cut_id: 28, mch_id: 2, mode_id: 7, feed_rate: 24.4800, blade_speed: 11.7300, time: 12, energy_Wh: 30),
  (cut_id: 28, mch_id: 1, mode_id: 7, feed_rate: 24.4800, blade_speed: 11.7300, time: 12, energy_Wh: 30),
  (cut_id: 28, mch_id: 3, mode_id: 7, feed_rate: 24.4800, blade_speed: 11.7300, time: 12, energy_Wh: 30),
  (cut_id: 28, mch_id: 2, mode_id: 8, feed_rate: 24.4800, blade_speed: 15.6400, time: 12, energy_Wh: 41),
  (cut_id: 28, mch_id: 1, mode_id: 8, feed_rate: 24.4800, blade_speed: 15.6400, time: 12, energy_Wh: 41),
  (cut_id: 28, mch_id: 3, mode_id: 8, feed_rate: 24.4800, blade_speed: 15.6400, time: 12, energy_Wh: 41),
  (cut_id: 28, mch_id: 2, mode_id: 9, feed_rate: 24.4800, blade_speed: 19.5500, time: 12, energy_Wh: 66),
  (cut_id: 28, mch_id: 1, mode_id: 9, feed_rate: 24.4800, blade_speed: 19.5500, time: 12, energy_Wh: 66),
  (cut_id: 28, mch_id: 3, mode_id: 9, feed_rate: 24.4800, blade_speed: 19.5500, time: 12, energy_Wh: 66),
  (cut_id: 28, mch_id: 2, mode_id: 10, feed_rate: 24.4800, blade_speed: 23.4600, time: 12, energy_Wh: 28),
  (cut_id: 28, mch_id: 1, mode_id: 10, feed_rate: 24.4800, blade_speed: 23.4600, time: 12, energy_Wh: 28),
  (cut_id: 28, mch_id: 3, mode_id: 10, feed_rate: 24.4800, blade_speed: 23.4600, time: 12, energy_Wh: 28),
  (cut_id: 28, mch_id: 2, mode_id: 11, feed_rate: 32.6400, blade_speed: 7.8200, time: 9, energy_Wh: 76),
  (cut_id: 28, mch_id: 1, mode_id: 11, feed_rate: 32.6400, blade_speed: 7.8200, time: 9, energy_Wh: 76),
  (cut_id: 28, mch_id: 3, mode_id: 11, feed_rate: 32.6400, blade_speed: 7.8200, time: 9, energy_Wh: 76),
  (cut_id: 28, mch_id: 2, mode_id: 12, feed_rate: 32.6400, blade_speed: 11.7300, time: 9, energy_Wh: 44),
  (cut_id: 28, mch_id: 1, mode_id: 12, feed_rate: 32.6400, blade_speed: 11.7300, time: 9, energy_Wh: 44),
  (cut_id: 28, mch_id: 3, mode_id: 12, feed_rate: 32.6400, blade_speed: 11.7300, time: 9, energy_Wh: 44),
  (cut_id: 28, mch_id: 2, mode_id: 13, feed_rate: 32.6400, blade_speed: 15.6400, time: 9, energy_Wh: 53),
  (cut_id: 28, mch_id: 1, mode_id: 13, feed_rate: 32.6400, blade_speed: 15.6400, time: 9, energy_Wh: 53),
  (cut_id: 28, mch_id: 3, mode_id: 13, feed_rate: 32.6400, blade_speed: 15.6400, time: 9, energy_Wh: 53),
  (cut_id: 28, mch_id: 2, mode_id: 14, feed_rate: 32.6400, blade_speed: 19.5500, time: 9, energy_Wh: 76),
  (cut_id: 28, mch_id: 1, mode_id: 14, feed_rate: 32.6400, blade_speed: 19.5500, time: 9, energy_Wh: 76),
  (cut_id: 28, mch_id: 3, mode_id: 14, feed_rate: 32.6400, blade_speed: 19.5500, time: 9, energy_Wh: 76),
  (cut_id: 28, mch_id: 2, mode_id: 15, feed_rate: 32.6400, blade_speed: 23.4600, time: 9, energy_Wh: 35),
  (cut_id: 28, mch_id: 1, mode_id: 15, feed_rate: 32.6400, blade_speed: 23.4600, time: 9, energy_Wh: 35),
  (cut_id: 28, mch_id: 3, mode_id: 15, feed_rate: 32.6400, blade_speed: 23.4600, time: 9, energy_Wh: 35),
  (cut_id: 28, mch_id: 2, mode_id: 16, feed_rate: 40.8000, blade_speed: 7.8200, time: 7, energy_Wh: 73),
  (cut_id: 28, mch_id: 1, mode_id: 16, feed_rate: 40.8000, blade_speed: 7.8200, time: 7, energy_Wh: 73),
  (cut_id: 28, mch_id: 3, mode_id: 16, feed_rate: 40.8000, blade_speed: 7.8200, time: 7, energy_Wh: 73),
  (cut_id: 28, mch_id: 2, mode_id: 17, feed_rate: 40.8000, blade_speed: 11.7300, time: 7, energy_Wh: 54),
  (cut_id: 28, mch_id: 1, mode_id: 17, feed_rate: 40.8000, blade_speed: 11.7300, time: 7, energy_Wh: 54),
  (cut_id: 28, mch_id: 3, mode_id: 17, feed_rate: 40.8000, blade_speed: 11.7300, time: 7, energy_Wh: 54),
  (cut_id: 28, mch_id: 2, mode_id: 18, feed_rate: 40.8000, blade_speed: 15.6400, time: 7, energy_Wh: 57),
  (cut_id: 28, mch_id: 1, mode_id: 18, feed_rate: 40.8000, blade_speed: 15.6400, time: 7, energy_Wh: 57),
  (cut_id: 28, mch_id: 3, mode_id: 18, feed_rate: 40.8000, blade_speed: 15.6400, time: 7, energy_Wh: 57),
  (cut_id: 28, mch_id: 2, mode_id: 19, feed_rate: 40.8000, blade_speed: 19.5500, time: 7, energy_Wh: 61),
  (cut_id: 28, mch_id: 1, mode_id: 19, feed_rate: 40.8000, blade_speed: 19.5500, time: 7, energy_Wh: 61),
  (cut_id: 28, mch_id: 3, mode_id: 19, feed_rate: 40.8000, blade_speed: 19.5500, time: 7, energy_Wh: 61),
  (cut_id: 28, mch_id: 2, mode_id: 20, feed_rate: 40.8000, blade_speed: 23.4600, time: 7, energy_Wh: 44),
  (cut_id: 28, mch_id: 1, mode_id: 20, feed_rate: 40.8000, blade_speed: 23.4600, time: 7, energy_Wh: 44),
  (cut_id: 28, mch_id: 3, mode_id: 20, feed_rate: 40.8000, blade_speed: 23.4600, time: 7, energy_Wh: 44),
  (cut_id: 28, mch_id: 2, mode_id: 21, feed_rate: 48.9600, blade_speed: 7.8200, time: 6, energy_Wh: 100),
  (cut_id: 28, mch_id: 1, mode_id: 21, feed_rate: 48.9600, blade_speed: 7.8200, time: 6, energy_Wh: 100),
  (cut_id: 28, mch_id: 3, mode_id: 21, feed_rate: 48.9600, blade_speed: 7.8200, time: 6, energy_Wh: 100),
  (cut_id: 28, mch_id: 2, mode_id: 22, feed_rate: 48.9600, blade_speed: 11.7300, time: 6, energy_Wh: 51),
  (cut_id: 28, mch_id: 1, mode_id: 22, feed_rate: 48.9600, blade_speed: 11.7300, time: 6, energy_Wh: 51),
  (cut_id: 28, mch_id: 3, mode_id: 22, feed_rate: 48.9600, blade_speed: 11.7300, time: 6, energy_Wh: 51),
  (cut_id: 28, mch_id: 2, mode_id: 23, feed_rate: 48.9600, blade_speed: 15.6400, time: 6, energy_Wh: 68),
  (cut_id: 28, mch_id: 1, mode_id: 23, feed_rate: 48.9600, blade_speed: 15.6400, time: 6, energy_Wh: 68),
  (cut_id: 28, mch_id: 3, mode_id: 23, feed_rate: 48.9600, blade_speed: 15.6400, time: 6, energy_Wh: 68),
  (cut_id: 28, mch_id: 2, mode_id: 24, feed_rate: 48.9600, blade_speed: 19.5500, time: 6, energy_Wh: 77),
  (cut_id: 28, mch_id: 1, mode_id: 24, feed_rate: 48.9600, blade_speed: 19.5500, time: 6, energy_Wh: 77),
  (cut_id: 28, mch_id: 3, mode_id: 24, feed_rate: 48.9600, blade_speed: 19.5500, time: 6, energy_Wh: 77),
  (cut_id: 28, mch_id: 2, mode_id: 25, feed_rate: 48.9600, blade_speed: 23.4600, time: 6, energy_Wh: 52),
  (cut_id: 28, mch_id: 1, mode_id: 25, feed_rate: 48.9600, blade_speed: 23.4600, time: 6, energy_Wh: 52),
  (cut_id: 28, mch_id: 3, mode_id: 25, feed_rate: 48.9600, blade_speed: 23.4600, time: 6, energy_Wh: 52),
  (cut_id: 29, mch_id: 2, mode_id: 1, feed_rate: 16.0000, blade_speed: 6.5000, time: 4, energy_Wh: 29),
  (cut_id: 29, mch_id: 1, mode_id: 1, feed_rate: 16.0000, blade_speed: 6.5000, time: 4, energy_Wh: 29),
  (cut_id: 29, mch_id: 3, mode_id: 1, feed_rate: 16.0000, blade_speed: 6.5000, time: 4, energy_Wh: 29),
  (cut_id: 29, mch_id: 2, mode_id: 2, feed_rate: 16.0000, blade_speed: 9.7500, time: 4, energy_Wh: 21),
  (cut_id: 29, mch_id: 1, mode_id: 2, feed_rate: 16.0000, blade_speed: 9.7500, time: 4, energy_Wh: 21),
  (cut_id: 29, mch_id: 3, mode_id: 2, feed_rate: 16.0000, blade_speed: 9.7500, time: 4, energy_Wh: 21),
  (cut_id: 29, mch_id: 2, mode_id: 3, feed_rate: 16.0000, blade_speed: 13.0000, time: 4, energy_Wh: 29),
  (cut_id: 29, mch_id: 1, mode_id: 3, feed_rate: 16.0000, blade_speed: 13.0000, time: 4, energy_Wh: 29),
  (cut_id: 29, mch_id: 3, mode_id: 3, feed_rate: 16.0000, blade_speed: 13.0000, time: 4, energy_Wh: 29),
  (cut_id: 29, mch_id: 2, mode_id: 4, feed_rate: 16.0000, blade_speed: 16.2500, time: 4, energy_Wh: 24),
  (cut_id: 29, mch_id: 1, mode_id: 4, feed_rate: 16.0000, blade_speed: 16.2500, time: 4, energy_Wh: 24),
  (cut_id: 29, mch_id: 3, mode_id: 4, feed_rate: 16.0000, blade_speed: 16.2500, time: 4, energy_Wh: 24),
  (cut_id: 29, mch_id: 2, mode_id: 5, feed_rate: 16.0000, blade_speed: 19.5000, time: 4, energy_Wh: 35),
  (cut_id: 29, mch_id: 1, mode_id: 5, feed_rate: 16.0000, blade_speed: 19.5000, time: 4, energy_Wh: 35),
  (cut_id: 29, mch_id: 3, mode_id: 5, feed_rate: 16.0000, blade_speed: 19.5000, time: 4, energy_Wh: 35),
  (cut_id: 29, mch_id: 2, mode_id: 6, feed_rate: 24.0000, blade_speed: 6.5000, time: 3, energy_Wh: 32),
  (cut_id: 29, mch_id: 1, mode_id: 6, feed_rate: 24.0000, blade_speed: 6.5000, time: 3, energy_Wh: 32),
  (cut_id: 29, mch_id: 3, mode_id: 6, feed_rate: 24.0000, blade_speed: 6.5000, time: 3, energy_Wh: 32),
  (cut_id: 29, mch_id: 2, mode_id: 7, feed_rate: 24.0000, blade_speed: 9.7500, time: 3, energy_Wh: 26),
  (cut_id: 29, mch_id: 1, mode_id: 7, feed_rate: 24.0000, blade_speed: 9.7500, time: 3, energy_Wh: 26),
  (cut_id: 29, mch_id: 3, mode_id: 7, feed_rate: 24.0000, blade_speed: 9.7500, time: 3, energy_Wh: 26),
  (cut_id: 29, mch_id: 2, mode_id: 8, feed_rate: 24.0000, blade_speed: 13.0000, time: 3, energy_Wh: 40),
  (cut_id: 29, mch_id: 1, mode_id: 8, feed_rate: 24.0000, blade_speed: 13.0000, time: 3, energy_Wh: 40),
  (cut_id: 29, mch_id: 3, mode_id: 8, feed_rate: 24.0000, blade_speed: 13.0000, time: 3, energy_Wh: 40),
  (cut_id: 29, mch_id: 2, mode_id: 9, feed_rate: 24.0000, blade_speed: 16.2500, time: 3, energy_Wh: 27),
  (cut_id: 29, mch_id: 1, mode_id: 9, feed_rate: 24.0000, blade_speed: 16.2500, time: 3, energy_Wh: 27),
  (cut_id: 29, mch_id: 3, mode_id: 9, feed_rate: 24.0000, blade_speed: 16.2500, time: 3, energy_Wh: 27),
  (cut_id: 29, mch_id: 2, mode_id: 10, feed_rate: 24.0000, blade_speed: 19.5000, time: 3, energy_Wh: 43),
  (cut_id: 29, mch_id: 1, mode_id: 10, feed_rate: 24.0000, blade_speed: 19.5000, time: 3, energy_Wh: 43),
  (cut_id: 29, mch_id: 3, mode_id: 10, feed_rate: 24.0000, blade_speed: 19.5000, time: 3, energy_Wh: 43),
  (cut_id: 29, mch_id: 2, mode_id: 11, feed_rate: 32.0000, blade_speed: 6.5000, time: 2, energy_Wh: 44),
  (cut_id: 29, mch_id: 1, mode_id: 11, feed_rate: 32.0000, blade_speed: 6.5000, time: 2, energy_Wh: 44),
  (cut_id: 29, mch_id: 3, mode_id: 11, feed_rate: 32.0000, blade_speed: 6.5000, time: 2, energy_Wh: 44),
  (cut_id: 29, mch_id: 2, mode_id: 12, feed_rate: 32.0000, blade_speed: 9.7500, time: 2, energy_Wh: 32),
  (cut_id: 29, mch_id: 1, mode_id: 12, feed_rate: 32.0000, blade_speed: 9.7500, time: 2, energy_Wh: 32),
  (cut_id: 29, mch_id: 3, mode_id: 12, feed_rate: 32.0000, blade_speed: 9.7500, time: 2, energy_Wh: 32),
  (cut_id: 29, mch_id: 2, mode_id: 13, feed_rate: 32.0000, blade_speed: 13.0000, time: 2, energy_Wh: 38),
  (cut_id: 29, mch_id: 1, mode_id: 13, feed_rate: 32.0000, blade_speed: 13.0000, time: 2, energy_Wh: 38),
  (cut_id: 29, mch_id: 3, mode_id: 13, feed_rate: 32.0000, blade_speed: 13.0000, time: 2, energy_Wh: 38),
  (cut_id: 29, mch_id: 2, mode_id: 14, feed_rate: 32.0000, blade_speed: 16.2500, time: 2, energy_Wh: 33),
  (cut_id: 29, mch_id: 1, mode_id: 14, feed_rate: 32.0000, blade_speed: 16.2500, time: 2, energy_Wh: 33),
  (cut_id: 29, mch_id: 3, mode_id: 14, feed_rate: 32.0000, blade_speed: 16.2500, time: 2, energy_Wh: 33),
  (cut_id: 29, mch_id: 2, mode_id: 15, feed_rate: 32.0000, blade_speed: 19.5000, time: 2, energy_Wh: 46),
  (cut_id: 29, mch_id: 1, mode_id: 15, feed_rate: 32.0000, blade_speed: 19.5000, time: 2, energy_Wh: 46),
  (cut_id: 29, mch_id: 3, mode_id: 15, feed_rate: 32.0000, blade_speed: 19.5000, time: 2, energy_Wh: 46),
  (cut_id: 29, mch_id: 2, mode_id: 16, feed_rate: 40.0000, blade_speed: 6.5000, time: 2, energy_Wh: 41),
  (cut_id: 29, mch_id: 1, mode_id: 16, feed_rate: 40.0000, blade_speed: 6.5000, time: 2, energy_Wh: 41),
  (cut_id: 29, mch_id: 3, mode_id: 16, feed_rate: 40.0000, blade_speed: 6.5000, time: 2, energy_Wh: 41),
  (cut_id: 29, mch_id: 2, mode_id: 17, feed_rate: 40.0000, blade_speed: 9.7500, time: 2, energy_Wh: 34),
  (cut_id: 29, mch_id: 1, mode_id: 17, feed_rate: 40.0000, blade_speed: 9.7500, time: 2, energy_Wh: 34),
  (cut_id: 29, mch_id: 3, mode_id: 17, feed_rate: 40.0000, blade_speed: 9.7500, time: 2, energy_Wh: 34),
  (cut_id: 29, mch_id: 2, mode_id: 18, feed_rate: 40.0000, blade_speed: 13.0000, time: 2, energy_Wh: 43),
  (cut_id: 29, mch_id: 1, mode_id: 18, feed_rate: 40.0000, blade_speed: 13.0000, time: 2, energy_Wh: 43),
  (cut_id: 29, mch_id: 3, mode_id: 18, feed_rate: 40.0000, blade_speed: 13.0000, time: 2, energy_Wh: 43),
  (cut_id: 29, mch_id: 2, mode_id: 19, feed_rate: 40.0000, blade_speed: 16.2500, time: 2, energy_Wh: 32),
  (cut_id: 29, mch_id: 1, mode_id: 19, feed_rate: 40.0000, blade_speed: 16.2500, time: 2, energy_Wh: 32),
  (cut_id: 29, mch_id: 3, mode_id: 19, feed_rate: 40.0000, blade_speed: 16.2500, time: 2, energy_Wh: 32),
  (cut_id: 29, mch_id: 2, mode_id: 20, feed_rate: 40.0000, blade_speed: 19.5000, time: 2, energy_Wh: 47),
  (cut_id: 29, mch_id: 1, mode_id: 20, feed_rate: 40.0000, blade_speed: 19.5000, time: 2, energy_Wh: 47),
  (cut_id: 29, mch_id: 3, mode_id: 20, feed_rate: 40.0000, blade_speed: 19.5000, time: 2, energy_Wh: 47),
  (cut_id: 29, mch_id: 2, mode_id: 21, feed_rate: 48.0000, blade_speed: 6.5000, time: 2, energy_Wh: 52),
  (cut_id: 29, mch_id: 1, mode_id: 21, feed_rate: 48.0000, blade_speed: 6.5000, time: 2, energy_Wh: 52),
  (cut_id: 29, mch_id: 3, mode_id: 21, feed_rate: 48.0000, blade_speed: 6.5000, time: 2, energy_Wh: 52),
  (cut_id: 29, mch_id: 2, mode_id: 22, feed_rate: 48.0000, blade_speed: 9.7500, time: 2, energy_Wh: 49),
  (cut_id: 29, mch_id: 1, mode_id: 22, feed_rate: 48.0000, blade_speed: 9.7500, time: 2, energy_Wh: 49),
  (cut_id: 29, mch_id: 3, mode_id: 22, feed_rate: 48.0000, blade_speed: 9.7500, time: 2, energy_Wh: 49),
  (cut_id: 29, mch_id: 2, mode_id: 23, feed_rate: 48.0000, blade_speed: 13.0000, time: 2, energy_Wh: 45),
  (cut_id: 29, mch_id: 1, mode_id: 23, feed_rate: 48.0000, blade_speed: 13.0000, time: 2, energy_Wh: 45),
  (cut_id: 29, mch_id: 3, mode_id: 23, feed_rate: 48.0000, blade_speed: 13.0000, time: 2, energy_Wh: 45),
  (cut_id: 29, mch_id: 2, mode_id: 24, feed_rate: 48.0000, blade_speed: 16.2500, time: 2, energy_Wh: 40),
  (cut_id: 29, mch_id: 1, mode_id: 24, feed_rate: 48.0000, blade_speed: 16.2500, time: 2, energy_Wh: 40),
  (cut_id: 29, mch_id: 3, mode_id: 24, feed_rate: 48.0000, blade_speed: 16.2500, time: 2, energy_Wh: 40),
  (cut_id: 29, mch_id: 2, mode_id: 25, feed_rate: 48.0000, blade_speed: 19.5000, time: 2, energy_Wh: 53),
  (cut_id: 29, mch_id: 1, mode_id: 25, feed_rate: 48.0000, blade_speed: 19.5000, time: 2, energy_Wh: 53),
  (cut_id: 29, mch_id: 3, mode_id: 25, feed_rate: 48.0000, blade_speed: 19.5000, time: 2, energy_Wh: 53),
  (cut_id: 30, mch_id: 2, mode_id: 1, feed_rate: 31.5000, blade_speed: 22.5000, time: 1, energy_Wh: 31),
  (cut_id: 30, mch_id: 3, mode_id: 1, feed_rate: 31.5000, blade_speed: 22.5000, time: 1, energy_Wh: 31),
  (cut_id: 30, mch_id: 1, mode_id: 1, feed_rate: 31.5000, blade_speed: 22.5000, time: 1, energy_Wh: 31),
  (cut_id: 30, mch_id: 2, mode_id: 2, feed_rate: 31.5000, blade_speed: 33.7500, time: 1, energy_Wh: 46),
  (cut_id: 30, mch_id: 3, mode_id: 2, feed_rate: 31.5000, blade_speed: 33.7500, time: 1, energy_Wh: 46),
  (cut_id: 30, mch_id: 1, mode_id: 2, feed_rate: 31.5000, blade_speed: 33.7500, time: 1, energy_Wh: 46),
  (cut_id: 30, mch_id: 2, mode_id: 3, feed_rate: 31.5000, blade_speed: 45.0000, time: 1, energy_Wh: 42),
  (cut_id: 30, mch_id: 3, mode_id: 3, feed_rate: 31.5000, blade_speed: 45.0000, time: 1, energy_Wh: 42),
  (cut_id: 30, mch_id: 1, mode_id: 3, feed_rate: 31.5000, blade_speed: 45.0000, time: 1, energy_Wh: 42),
  (cut_id: 30, mch_id: 2, mode_id: 4, feed_rate: 31.5000, blade_speed: 56.2500, time: 1, energy_Wh: 35),
  (cut_id: 30, mch_id: 3, mode_id: 4, feed_rate: 31.5000, blade_speed: 56.2500, time: 1, energy_Wh: 35),
  (cut_id: 30, mch_id: 1, mode_id: 4, feed_rate: 31.5000, blade_speed: 56.2500, time: 1, energy_Wh: 35),
  (cut_id: 30, mch_id: 2, mode_id: 5, feed_rate: 31.5000, blade_speed: 67.5000, time: 1, energy_Wh: 28),
  (cut_id: 30, mch_id: 3, mode_id: 5, feed_rate: 31.5000, blade_speed: 67.5000, time: 1, energy_Wh: 28),
  (cut_id: 30, mch_id: 1, mode_id: 5, feed_rate: 31.5000, blade_speed: 67.5000, time: 1, energy_Wh: 28),
  (cut_id: 30, mch_id: 2, mode_id: 6, feed_rate: 47.2500, blade_speed: 22.5000, time: 1, energy_Wh: 35),
  (cut_id: 30, mch_id: 3, mode_id: 6, feed_rate: 47.2500, blade_speed: 22.5000, time: 1, energy_Wh: 35),
  (cut_id: 30, mch_id: 1, mode_id: 6, feed_rate: 47.2500, blade_speed: 22.5000, time: 1, energy_Wh: 35),
  (cut_id: 30, mch_id: 2, mode_id: 7, feed_rate: 47.2500, blade_speed: 33.7500, time: 1, energy_Wh: 51),
  (cut_id: 30, mch_id: 3, mode_id: 7, feed_rate: 47.2500, blade_speed: 33.7500, time: 1, energy_Wh: 51),
  (cut_id: 30, mch_id: 1, mode_id: 7, feed_rate: 47.2500, blade_speed: 33.7500, time: 1, energy_Wh: 51),
  (cut_id: 30, mch_id: 2, mode_id: 8, feed_rate: 47.2500, blade_speed: 45.0000, time: 1, energy_Wh: 63),
  (cut_id: 30, mch_id: 3, mode_id: 8, feed_rate: 47.2500, blade_speed: 45.0000, time: 1, energy_Wh: 63),
  (cut_id: 30, mch_id: 1, mode_id: 8, feed_rate: 47.2500, blade_speed: 45.0000, time: 1, energy_Wh: 63),
  (cut_id: 30, mch_id: 2, mode_id: 9, feed_rate: 47.2500, blade_speed: 56.2500, time: 1, energy_Wh: 38),
  (cut_id: 30, mch_id: 3, mode_id: 9, feed_rate: 47.2500, blade_speed: 56.2500, time: 1, energy_Wh: 38),
  (cut_id: 30, mch_id: 1, mode_id: 9, feed_rate: 47.2500, blade_speed: 56.2500, time: 1, energy_Wh: 38),
  (cut_id: 30, mch_id: 2, mode_id: 10, feed_rate: 47.2500, blade_speed: 67.5000, time: 1, energy_Wh: 32),
  (cut_id: 30, mch_id: 3, mode_id: 10, feed_rate: 47.2500, blade_speed: 67.5000, time: 1, energy_Wh: 32),
  (cut_id: 30, mch_id: 1, mode_id: 10, feed_rate: 47.2500, blade_speed: 67.5000, time: 1, energy_Wh: 32),
  (cut_id: 30, mch_id: 2, mode_id: 11, feed_rate: 63.0000, blade_speed: 22.5000, time: 1, energy_Wh: 52),
  (cut_id: 30, mch_id: 3, mode_id: 11, feed_rate: 63.0000, blade_speed: 22.5000, time: 1, energy_Wh: 52),
  (cut_id: 30, mch_id: 1, mode_id: 11, feed_rate: 63.0000, blade_speed: 22.5000, time: 1, energy_Wh: 52),
  (cut_id: 30, mch_id: 2, mode_id: 12, feed_rate: 63.0000, blade_speed: 33.7500, time: 1, energy_Wh: 83),
  (cut_id: 30, mch_id: 3, mode_id: 12, feed_rate: 63.0000, blade_speed: 33.7500, time: 1, energy_Wh: 83),
  (cut_id: 30, mch_id: 1, mode_id: 12, feed_rate: 63.0000, blade_speed: 33.7500, time: 1, energy_Wh: 83),
  (cut_id: 30, mch_id: 2, mode_id: 13, feed_rate: 63.0000, blade_speed: 45.0000, time: 1, energy_Wh: 87),
  (cut_id: 30, mch_id: 3, mode_id: 13, feed_rate: 63.0000, blade_speed: 45.0000, time: 1, energy_Wh: 87),
  (cut_id: 30, mch_id: 1, mode_id: 13, feed_rate: 63.0000, blade_speed: 45.0000, time: 1, energy_Wh: 87),
  (cut_id: 30, mch_id: 2, mode_id: 14, feed_rate: 63.0000, blade_speed: 56.2500, time: 1, energy_Wh: 67),
  (cut_id: 30, mch_id: 3, mode_id: 14, feed_rate: 63.0000, blade_speed: 56.2500, time: 1, energy_Wh: 67),
  (cut_id: 30, mch_id: 1, mode_id: 14, feed_rate: 63.0000, blade_speed: 56.2500, time: 1, energy_Wh: 67),
  (cut_id: 30, mch_id: 2, mode_id: 15, feed_rate: 63.0000, blade_speed: 67.5000, time: 1, energy_Wh: 51),
  (cut_id: 30, mch_id: 3, mode_id: 15, feed_rate: 63.0000, blade_speed: 67.5000, time: 1, energy_Wh: 51),
  (cut_id: 30, mch_id: 1, mode_id: 15, feed_rate: 63.0000, blade_speed: 67.5000, time: 1, energy_Wh: 51),
  (cut_id: 30, mch_id: 2, mode_id: 16, feed_rate: 78.7500, blade_speed: 22.5000, time: 1, energy_Wh: 82),
  (cut_id: 30, mch_id: 3, mode_id: 16, feed_rate: 78.7500, blade_speed: 22.5000, time: 1, energy_Wh: 82),
  (cut_id: 30, mch_id: 1, mode_id: 16, feed_rate: 78.7500, blade_speed: 22.5000, time: 1, energy_Wh: 82),
  (cut_id: 30, mch_id: 2, mode_id: 17, feed_rate: 78.7500, blade_speed: 33.7500, time: 1, energy_Wh: 114),
  (cut_id: 30, mch_id: 3, mode_id: 17, feed_rate: 78.7500, blade_speed: 33.7500, time: 1, energy_Wh: 114),
  (cut_id: 30, mch_id: 1, mode_id: 17, feed_rate: 78.7500, blade_speed: 33.7500, time: 1, energy_Wh: 114),
  (cut_id: 30, mch_id: 2, mode_id: 18, feed_rate: 78.7500, blade_speed: 45.0000, time: 1, energy_Wh: 118),
  (cut_id: 30, mch_id: 3, mode_id: 18, feed_rate: 78.7500, blade_speed: 45.0000, time: 1, energy_Wh: 118),
  (cut_id: 30, mch_id: 1, mode_id: 18, feed_rate: 78.7500, blade_speed: 45.0000, time: 1, energy_Wh: 118),
  (cut_id: 30, mch_id: 2, mode_id: 19, feed_rate: 78.7500, blade_speed: 56.2500, time: 1, energy_Wh: 64),
  (cut_id: 30, mch_id: 3, mode_id: 19, feed_rate: 78.7500, blade_speed: 56.2500, time: 1, energy_Wh: 64),
  (cut_id: 30, mch_id: 1, mode_id: 19, feed_rate: 78.7500, blade_speed: 56.2500, time: 1, energy_Wh: 64),
  (cut_id: 30, mch_id: 2, mode_id: 20, feed_rate: 78.7500, blade_speed: 67.5000, time: 1, energy_Wh: 68),
  (cut_id: 30, mch_id: 3, mode_id: 20, feed_rate: 78.7500, blade_speed: 67.5000, time: 1, energy_Wh: 68),
  (cut_id: 30, mch_id: 1, mode_id: 20, feed_rate: 78.7500, blade_speed: 67.5000, time: 1, energy_Wh: 68),
  (cut_id: 30, mch_id: 2, mode_id: 21, feed_rate: 94.5000, blade_speed: 22.5000, time: 1, energy_Wh: 79),
  (cut_id: 30, mch_id: 3, mode_id: 21, feed_rate: 94.5000, blade_speed: 22.5000, time: 1, energy_Wh: 79),
  (cut_id: 30, mch_id: 1, mode_id: 21, feed_rate: 94.5000, blade_speed: 22.5000, time: 1, energy_Wh: 79),
  (cut_id: 30, mch_id: 2, mode_id: 22, feed_rate: 94.5000, blade_speed: 33.7500, time: 1, energy_Wh: 164),
  (cut_id: 30, mch_id: 3, mode_id: 22, feed_rate: 94.5000, blade_speed: 33.7500, time: 1, energy_Wh: 164),
  (cut_id: 30, mch_id: 1, mode_id: 22, feed_rate: 94.5000, blade_speed: 33.7500, time: 1, energy_Wh: 164),
  (cut_id: 30, mch_id: 2, mode_id: 23, feed_rate: 94.5000, blade_speed: 45.0000, time: 1, energy_Wh: 117),
  (cut_id: 30, mch_id: 3, mode_id: 23, feed_rate: 94.5000, blade_speed: 45.0000, time: 1, energy_Wh: 117),
  (cut_id: 30, mch_id: 1, mode_id: 23, feed_rate: 94.5000, blade_speed: 45.0000, time: 1, energy_Wh: 117),
  (cut_id: 30, mch_id: 2, mode_id: 24, feed_rate: 94.5000, blade_speed: 56.2500, time: 1, energy_Wh: 90),
  (cut_id: 30, mch_id: 3, mode_id: 24, feed_rate: 94.5000, blade_speed: 56.2500, time: 1, energy_Wh: 90),
  (cut_id: 30, mch_id: 1, mode_id: 24, feed_rate: 94.5000, blade_speed: 56.2500, time: 1, energy_Wh: 90),
  (cut_id: 30, mch_id: 2, mode_id: 25, feed_rate: 94.5000, blade_speed: 67.5000, time: 1, energy_Wh: 72),
  (cut_id: 30, mch_id: 3, mode_id: 25, feed_rate: 94.5000, blade_speed: 67.5000, time: 1, energy_Wh: 72),
  (cut_id: 30, mch_id: 1, mode_id: 25, feed_rate: 94.5000, blade_speed: 67.5000, time: 1, energy_Wh: 72),
  (cut_id: 31, mch_id: 1, mode_id: 1, feed_rate: 17.5000, blade_speed: 12.7900, time: 6, energy_Wh: 39),
  (cut_id: 31, mch_id: 3, mode_id: 1, feed_rate: 17.5000, blade_speed: 12.7900, time: 6, energy_Wh: 39),
  (cut_id: 31, mch_id: 2, mode_id: 1, feed_rate: 17.5000, blade_speed: 12.7900, time: 6, energy_Wh: 39),
  (cut_id: 31, mch_id: 1, mode_id: 2, feed_rate: 17.5000, blade_speed: 19.1800, time: 6, energy_Wh: 38),
  (cut_id: 31, mch_id: 3, mode_id: 2, feed_rate: 17.5000, blade_speed: 19.1800, time: 6, energy_Wh: 38),
  (cut_id: 31, mch_id: 2, mode_id: 2, feed_rate: 17.5000, blade_speed: 19.1800, time: 6, energy_Wh: 38),
  (cut_id: 31, mch_id: 1, mode_id: 3, feed_rate: 17.5000, blade_speed: 25.5800, time: 6, energy_Wh: 35),
  (cut_id: 31, mch_id: 3, mode_id: 3, feed_rate: 17.5000, blade_speed: 25.5800, time: 6, energy_Wh: 35),
  (cut_id: 31, mch_id: 2, mode_id: 3, feed_rate: 17.5000, blade_speed: 25.5800, time: 6, energy_Wh: 35),
  (cut_id: 31, mch_id: 1, mode_id: 4, feed_rate: 17.5000, blade_speed: 31.9700, time: 6, energy_Wh: 35),
  (cut_id: 31, mch_id: 3, mode_id: 4, feed_rate: 17.5000, blade_speed: 31.9700, time: 6, energy_Wh: 35),
  (cut_id: 31, mch_id: 2, mode_id: 4, feed_rate: 17.5000, blade_speed: 31.9700, time: 6, energy_Wh: 35),
  (cut_id: 31, mch_id: 1, mode_id: 5, feed_rate: 17.5000, blade_speed: 38.3700, time: 6, energy_Wh: 39),
  (cut_id: 31, mch_id: 3, mode_id: 5, feed_rate: 17.5000, blade_speed: 38.3700, time: 6, energy_Wh: 39),
  (cut_id: 31, mch_id: 2, mode_id: 5, feed_rate: 17.5000, blade_speed: 38.3700, time: 6, energy_Wh: 39),
  (cut_id: 31, mch_id: 1, mode_id: 6, feed_rate: 26.2500, blade_speed: 12.7900, time: 4, energy_Wh: 33),
  (cut_id: 31, mch_id: 3, mode_id: 6, feed_rate: 26.2500, blade_speed: 12.7900, time: 4, energy_Wh: 33),
  (cut_id: 31, mch_id: 2, mode_id: 6, feed_rate: 26.2500, blade_speed: 12.7900, time: 4, energy_Wh: 33),
  (cut_id: 31, mch_id: 1, mode_id: 7, feed_rate: 26.2500, blade_speed: 19.1800, time: 4, energy_Wh: 43),
  (cut_id: 31, mch_id: 3, mode_id: 7, feed_rate: 26.2500, blade_speed: 19.1800, time: 4, energy_Wh: 43),
  (cut_id: 31, mch_id: 2, mode_id: 7, feed_rate: 26.2500, blade_speed: 19.1800, time: 4, energy_Wh: 43),
  (cut_id: 31, mch_id: 1, mode_id: 8, feed_rate: 26.2500, blade_speed: 25.5800, time: 4, energy_Wh: 36),
  (cut_id: 31, mch_id: 3, mode_id: 8, feed_rate: 26.2500, blade_speed: 25.5800, time: 4, energy_Wh: 36),
  (cut_id: 31, mch_id: 2, mode_id: 8, feed_rate: 26.2500, blade_speed: 25.5800, time: 4, energy_Wh: 36),
  (cut_id: 31, mch_id: 1, mode_id: 9, feed_rate: 26.2500, blade_speed: 31.9700, time: 4, energy_Wh: 43),
  (cut_id: 31, mch_id: 3, mode_id: 9, feed_rate: 26.2500, blade_speed: 31.9700, time: 4, energy_Wh: 43),
  (cut_id: 31, mch_id: 2, mode_id: 9, feed_rate: 26.2500, blade_speed: 31.9700, time: 4, energy_Wh: 43),
  (cut_id: 31, mch_id: 1, mode_id: 10, feed_rate: 26.2500, blade_speed: 38.3700, time: 4, energy_Wh: 41),
  (cut_id: 31, mch_id: 3, mode_id: 10, feed_rate: 26.2500, blade_speed: 38.3700, time: 4, energy_Wh: 41),
  (cut_id: 31, mch_id: 2, mode_id: 10, feed_rate: 26.2500, blade_speed: 38.3700, time: 4, energy_Wh: 41),
  (cut_id: 31, mch_id: 1, mode_id: 11, feed_rate: 35.0000, blade_speed: 12.7900, time: 3, energy_Wh: 55),
  (cut_id: 31, mch_id: 3, mode_id: 11, feed_rate: 35.0000, blade_speed: 12.7900, time: 3, energy_Wh: 55),
  (cut_id: 31, mch_id: 2, mode_id: 11, feed_rate: 35.0000, blade_speed: 12.7900, time: 3, energy_Wh: 55),
  (cut_id: 31, mch_id: 1, mode_id: 12, feed_rate: 35.0000, blade_speed: 19.1800, time: 3, energy_Wh: 41),
  (cut_id: 31, mch_id: 3, mode_id: 12, feed_rate: 35.0000, blade_speed: 19.1800, time: 3, energy_Wh: 41),
  (cut_id: 31, mch_id: 2, mode_id: 12, feed_rate: 35.0000, blade_speed: 19.1800, time: 3, energy_Wh: 41),
  (cut_id: 31, mch_id: 1, mode_id: 13, feed_rate: 35.0000, blade_speed: 25.5800, time: 3, energy_Wh: 51),
  (cut_id: 31, mch_id: 3, mode_id: 13, feed_rate: 35.0000, blade_speed: 25.5800, time: 3, energy_Wh: 51),
  (cut_id: 31, mch_id: 2, mode_id: 13, feed_rate: 35.0000, blade_speed: 25.5800, time: 3, energy_Wh: 51),
  (cut_id: 31, mch_id: 1, mode_id: 14, feed_rate: 35.0000, blade_speed: 31.9700, time: 3, energy_Wh: 41),
  (cut_id: 31, mch_id: 3, mode_id: 14, feed_rate: 35.0000, blade_speed: 31.9700, time: 3, energy_Wh: 41),
  (cut_id: 31, mch_id: 2, mode_id: 14, feed_rate: 35.0000, blade_speed: 31.9700, time: 3, energy_Wh: 41),
  (cut_id: 31, mch_id: 1, mode_id: 15, feed_rate: 35.0000, blade_speed: 38.3700, time: 3, energy_Wh: 53),
  (cut_id: 31, mch_id: 3, mode_id: 15, feed_rate: 35.0000, blade_speed: 38.3700, time: 3, energy_Wh: 53),
  (cut_id: 31, mch_id: 2, mode_id: 15, feed_rate: 35.0000, blade_speed: 38.3700, time: 3, energy_Wh: 53),
  (cut_id: 31, mch_id: 1, mode_id: 16, feed_rate: 43.7500, blade_speed: 12.7900, time: 3, energy_Wh: 46),
  (cut_id: 31, mch_id: 3, mode_id: 16, feed_rate: 43.7500, blade_speed: 12.7900, time: 3, energy_Wh: 46),
  (cut_id: 31, mch_id: 2, mode_id: 16, feed_rate: 43.7500, blade_speed: 12.7900, time: 3, energy_Wh: 46),
  (cut_id: 31, mch_id: 1, mode_id: 17, feed_rate: 43.7500, blade_speed: 19.1800, time: 3, energy_Wh: 52),
  (cut_id: 31, mch_id: 3, mode_id: 17, feed_rate: 43.7500, blade_speed: 19.1800, time: 3, energy_Wh: 52),
  (cut_id: 31, mch_id: 2, mode_id: 17, feed_rate: 43.7500, blade_speed: 19.1800, time: 3, energy_Wh: 52),
  (cut_id: 31, mch_id: 1, mode_id: 18, feed_rate: 43.7500, blade_speed: 25.5800, time: 3, energy_Wh: 65),
  (cut_id: 31, mch_id: 3, mode_id: 18, feed_rate: 43.7500, blade_speed: 25.5800, time: 3, energy_Wh: 65),
  (cut_id: 31, mch_id: 2, mode_id: 18, feed_rate: 43.7500, blade_speed: 25.5800, time: 3, energy_Wh: 65),
  (cut_id: 31, mch_id: 1, mode_id: 19, feed_rate: 43.7500, blade_speed: 31.9700, time: 3, energy_Wh: 54),
  (cut_id: 31, mch_id: 3, mode_id: 19, feed_rate: 43.7500, blade_speed: 31.9700, time: 3, energy_Wh: 54),
  (cut_id: 31, mch_id: 2, mode_id: 19, feed_rate: 43.7500, blade_speed: 31.9700, time: 3, energy_Wh: 54),
  (cut_id: 31, mch_id: 1, mode_id: 20, feed_rate: 43.7500, blade_speed: 38.3700, time: 3, energy_Wh: 66),
  (cut_id: 31, mch_id: 3, mode_id: 20, feed_rate: 43.7500, blade_speed: 38.3700, time: 3, energy_Wh: 66),
  (cut_id: 31, mch_id: 2, mode_id: 20, feed_rate: 43.7500, blade_speed: 38.3700, time: 3, energy_Wh: 66),
  (cut_id: 31, mch_id: 1, mode_id: 21, feed_rate: 52.5000, blade_speed: 12.7900, time: 2, energy_Wh: 70),
  (cut_id: 31, mch_id: 3, mode_id: 21, feed_rate: 52.5000, blade_speed: 12.7900, time: 2, energy_Wh: 70),
  (cut_id: 31, mch_id: 2, mode_id: 21, feed_rate: 52.5000, blade_speed: 12.7900, time: 2, energy_Wh: 70),
  (cut_id: 31, mch_id: 1, mode_id: 22, feed_rate: 52.5000, blade_speed: 19.1800, time: 2, energy_Wh: 58),
  (cut_id: 31, mch_id: 3, mode_id: 22, feed_rate: 52.5000, blade_speed: 19.1800, time: 2, energy_Wh: 58),
  (cut_id: 31, mch_id: 2, mode_id: 22, feed_rate: 52.5000, blade_speed: 19.1800, time: 2, energy_Wh: 58),
  (cut_id: 31, mch_id: 1, mode_id: 23, feed_rate: 52.5000, blade_speed: 25.5800, time: 2, energy_Wh: 72),
  (cut_id: 31, mch_id: 3, mode_id: 23, feed_rate: 52.5000, blade_speed: 25.5800, time: 2, energy_Wh: 72),
  (cut_id: 31, mch_id: 2, mode_id: 23, feed_rate: 52.5000, blade_speed: 25.5800, time: 2, energy_Wh: 72),
  (cut_id: 31, mch_id: 1, mode_id: 24, feed_rate: 52.5000, blade_speed: 31.9700, time: 2, energy_Wh: 73),
  (cut_id: 31, mch_id: 3, mode_id: 24, feed_rate: 52.5000, blade_speed: 31.9700, time: 2, energy_Wh: 73),
  (cut_id: 31, mch_id: 2, mode_id: 24, feed_rate: 52.5000, blade_speed: 31.9700, time: 2, energy_Wh: 73),
  (cut_id: 31, mch_id: 1, mode_id: 25, feed_rate: 52.5000, blade_speed: 38.3700, time: 2, energy_Wh: 82),
  (cut_id: 31, mch_id: 3, mode_id: 25, feed_rate: 52.5000, blade_speed: 38.3700, time: 2, energy_Wh: 82),
  (cut_id: 31, mch_id: 2, mode_id: 25, feed_rate: 52.5000, blade_speed: 38.3700, time: 2, energy_Wh: 82),
  (cut_id: 32, mch_id: 1, mode_id: 1, feed_rate: 21.0000, blade_speed: 13.0000, time: 24, energy_Wh: 63),
  (cut_id: 32, mch_id: 2, mode_id: 1, feed_rate: 21.0000, blade_speed: 13.0000, time: 24, energy_Wh: 63),
  (cut_id: 32, mch_id: 3, mode_id: 1, feed_rate: 21.0000, blade_speed: 13.0000, time: 24, energy_Wh: 63),
  (cut_id: 32, mch_id: 1, mode_id: 2, feed_rate: 21.0000, blade_speed: 19.5000, time: 24, energy_Wh: 73),
  (cut_id: 32, mch_id: 2, mode_id: 2, feed_rate: 21.0000, blade_speed: 19.5000, time: 24, energy_Wh: 73),
  (cut_id: 32, mch_id: 3, mode_id: 2, feed_rate: 21.0000, blade_speed: 19.5000, time: 24, energy_Wh: 73),
  (cut_id: 32, mch_id: 1, mode_id: 3, feed_rate: 21.0000, blade_speed: 26.0000, time: 24, energy_Wh: 75),
  (cut_id: 32, mch_id: 2, mode_id: 3, feed_rate: 21.0000, blade_speed: 26.0000, time: 24, energy_Wh: 75),
  (cut_id: 32, mch_id: 3, mode_id: 3, feed_rate: 21.0000, blade_speed: 26.0000, time: 24, energy_Wh: 75),
  (cut_id: 32, mch_id: 1, mode_id: 4, feed_rate: 21.0000, blade_speed: 32.5000, time: 24, energy_Wh: 74),
  (cut_id: 32, mch_id: 2, mode_id: 4, feed_rate: 21.0000, blade_speed: 32.5000, time: 24, energy_Wh: 74),
  (cut_id: 32, mch_id: 3, mode_id: 4, feed_rate: 21.0000, blade_speed: 32.5000, time: 24, energy_Wh: 74),
  (cut_id: 32, mch_id: 1, mode_id: 5, feed_rate: 21.0000, blade_speed: 39.0000, time: 24, energy_Wh: 81),
  (cut_id: 32, mch_id: 2, mode_id: 5, feed_rate: 21.0000, blade_speed: 39.0000, time: 24, energy_Wh: 81),
  (cut_id: 32, mch_id: 3, mode_id: 5, feed_rate: 21.0000, blade_speed: 39.0000, time: 24, energy_Wh: 81),
  (cut_id: 32, mch_id: 1, mode_id: 6, feed_rate: 31.5000, blade_speed: 13.0000, time: 16, energy_Wh: 93),
  (cut_id: 32, mch_id: 2, mode_id: 6, feed_rate: 31.5000, blade_speed: 13.0000, time: 16, energy_Wh: 93),
  (cut_id: 32, mch_id: 3, mode_id: 6, feed_rate: 31.5000, blade_speed: 13.0000, time: 16, energy_Wh: 93),
  (cut_id: 32, mch_id: 1, mode_id: 7, feed_rate: 31.5000, blade_speed: 19.5000, time: 16, energy_Wh: 80),
  (cut_id: 32, mch_id: 2, mode_id: 7, feed_rate: 31.5000, blade_speed: 19.5000, time: 16, energy_Wh: 80),
  (cut_id: 32, mch_id: 3, mode_id: 7, feed_rate: 31.5000, blade_speed: 19.5000, time: 16, energy_Wh: 80),
  (cut_id: 32, mch_id: 1, mode_id: 8, feed_rate: 31.5000, blade_speed: 26.0000, time: 16, energy_Wh: 74),
  (cut_id: 32, mch_id: 2, mode_id: 8, feed_rate: 31.5000, blade_speed: 26.0000, time: 16, energy_Wh: 74),
  (cut_id: 32, mch_id: 3, mode_id: 8, feed_rate: 31.5000, blade_speed: 26.0000, time: 16, energy_Wh: 74),
  (cut_id: 32, mch_id: 1, mode_id: 9, feed_rate: 31.5000, blade_speed: 32.5000, time: 16, energy_Wh: 79),
  (cut_id: 32, mch_id: 2, mode_id: 9, feed_rate: 31.5000, blade_speed: 32.5000, time: 16, energy_Wh: 79),
  (cut_id: 32, mch_id: 3, mode_id: 9, feed_rate: 31.5000, blade_speed: 32.5000, time: 16, energy_Wh: 79),
  (cut_id: 32, mch_id: 1, mode_id: 10, feed_rate: 31.5000, blade_speed: 39.0000, time: 16, energy_Wh: 102),
  (cut_id: 32, mch_id: 2, mode_id: 10, feed_rate: 31.5000, blade_speed: 39.0000, time: 16, energy_Wh: 102),
  (cut_id: 32, mch_id: 3, mode_id: 10, feed_rate: 31.5000, blade_speed: 39.0000, time: 16, energy_Wh: 102),
  (cut_id: 32, mch_id: 1, mode_id: 11, feed_rate: 42.0000, blade_speed: 13.0000, time: 12, energy_Wh: 97),
  (cut_id: 32, mch_id: 2, mode_id: 11, feed_rate: 42.0000, blade_speed: 13.0000, time: 12, energy_Wh: 97),
  (cut_id: 32, mch_id: 3, mode_id: 11, feed_rate: 42.0000, blade_speed: 13.0000, time: 12, energy_Wh: 97),
  (cut_id: 32, mch_id: 1, mode_id: 12, feed_rate: 42.0000, blade_speed: 19.5000, time: 12, energy_Wh: 93),
  (cut_id: 32, mch_id: 2, mode_id: 12, feed_rate: 42.0000, blade_speed: 19.5000, time: 12, energy_Wh: 93),
  (cut_id: 32, mch_id: 3, mode_id: 12, feed_rate: 42.0000, blade_speed: 19.5000, time: 12, energy_Wh: 93),
  (cut_id: 32, mch_id: 1, mode_id: 13, feed_rate: 42.0000, blade_speed: 26.0000, time: 12, energy_Wh: 104),
  (cut_id: 32, mch_id: 2, mode_id: 13, feed_rate: 42.0000, blade_speed: 26.0000, time: 12, energy_Wh: 104),
  (cut_id: 32, mch_id: 3, mode_id: 13, feed_rate: 42.0000, blade_speed: 26.0000, time: 12, energy_Wh: 104),
  (cut_id: 32, mch_id: 1, mode_id: 14, feed_rate: 42.0000, blade_speed: 32.5000, time: 12, energy_Wh: 84),
  (cut_id: 32, mch_id: 2, mode_id: 14, feed_rate: 42.0000, blade_speed: 32.5000, time: 12, energy_Wh: 84),
  (cut_id: 32, mch_id: 3, mode_id: 14, feed_rate: 42.0000, blade_speed: 32.5000, time: 12, energy_Wh: 84),
  (cut_id: 32, mch_id: 1, mode_id: 15, feed_rate: 42.0000, blade_speed: 39.0000, time: 12, energy_Wh: 100),
  (cut_id: 32, mch_id: 2, mode_id: 15, feed_rate: 42.0000, blade_speed: 39.0000, time: 12, energy_Wh: 100),
  (cut_id: 32, mch_id: 3, mode_id: 15, feed_rate: 42.0000, blade_speed: 39.0000, time: 12, energy_Wh: 100),
  (cut_id: 32, mch_id: 1, mode_id: 16, feed_rate: 52.5000, blade_speed: 13.0000, time: 10, energy_Wh: 100),
  (cut_id: 32, mch_id: 2, mode_id: 16, feed_rate: 52.5000, blade_speed: 13.0000, time: 10, energy_Wh: 100),
  (cut_id: 32, mch_id: 3, mode_id: 16, feed_rate: 52.5000, blade_speed: 13.0000, time: 10, energy_Wh: 100),
  (cut_id: 32, mch_id: 1, mode_id: 17, feed_rate: 52.5000, blade_speed: 19.5000, time: 10, energy_Wh: 115),
  (cut_id: 32, mch_id: 2, mode_id: 17, feed_rate: 52.5000, blade_speed: 19.5000, time: 10, energy_Wh: 115),
  (cut_id: 32, mch_id: 3, mode_id: 17, feed_rate: 52.5000, blade_speed: 19.5000, time: 10, energy_Wh: 115),
  (cut_id: 32, mch_id: 1, mode_id: 18, feed_rate: 52.5000, blade_speed: 26.0000, time: 10, energy_Wh: 113),
  (cut_id: 32, mch_id: 2, mode_id: 18, feed_rate: 52.5000, blade_speed: 26.0000, time: 10, energy_Wh: 113),
  (cut_id: 32, mch_id: 3, mode_id: 18, feed_rate: 52.5000, blade_speed: 26.0000, time: 10, energy_Wh: 113),
  (cut_id: 32, mch_id: 1, mode_id: 19, feed_rate: 52.5000, blade_speed: 32.5000, time: 10, energy_Wh: 99),
  (cut_id: 32, mch_id: 2, mode_id: 19, feed_rate: 52.5000, blade_speed: 32.5000, time: 10, energy_Wh: 99),
  (cut_id: 32, mch_id: 3, mode_id: 19, feed_rate: 52.5000, blade_speed: 32.5000, time: 10, energy_Wh: 99),
  (cut_id: 32, mch_id: 1, mode_id: 20, feed_rate: 52.5000, blade_speed: 39.0000, time: 10, energy_Wh: 131),
  (cut_id: 32, mch_id: 2, mode_id: 20, feed_rate: 52.5000, blade_speed: 39.0000, time: 10, energy_Wh: 131),
  (cut_id: 32, mch_id: 3, mode_id: 20, feed_rate: 52.5000, blade_speed: 39.0000, time: 10, energy_Wh: 131),
  (cut_id: 32, mch_id: 1, mode_id: 21, feed_rate: 63.0000, blade_speed: 13.0000, time: 8, energy_Wh: 101),
  (cut_id: 32, mch_id: 2, mode_id: 21, feed_rate: 63.0000, blade_speed: 13.0000, time: 8, energy_Wh: 101),
  (cut_id: 32, mch_id: 3, mode_id: 21, feed_rate: 63.0000, blade_speed: 13.0000, time: 8, energy_Wh: 101),
  (cut_id: 32, mch_id: 1, mode_id: 22, feed_rate: 63.0000, blade_speed: 19.5000, time: 8, energy_Wh: 100),
  (cut_id: 32, mch_id: 2, mode_id: 22, feed_rate: 63.0000, blade_speed: 19.5000, time: 8, energy_Wh: 100),
  (cut_id: 32, mch_id: 3, mode_id: 22, feed_rate: 63.0000, blade_speed: 19.5000, time: 8, energy_Wh: 100),
  (cut_id: 32, mch_id: 1, mode_id: 23, feed_rate: 63.0000, blade_speed: 26.0000, time: 8, energy_Wh: 146),
  (cut_id: 32, mch_id: 2, mode_id: 23, feed_rate: 63.0000, blade_speed: 26.0000, time: 8, energy_Wh: 146),
  (cut_id: 32, mch_id: 3, mode_id: 23, feed_rate: 63.0000, blade_speed: 26.0000, time: 8, energy_Wh: 146),
  (cut_id: 32, mch_id: 1, mode_id: 24, feed_rate: 63.0000, blade_speed: 32.5000, time: 8, energy_Wh: 142),
  (cut_id: 32, mch_id: 2, mode_id: 24, feed_rate: 63.0000, blade_speed: 32.5000, time: 8, energy_Wh: 142),
  (cut_id: 32, mch_id: 3, mode_id: 24, feed_rate: 63.0000, blade_speed: 32.5000, time: 8, energy_Wh: 142),
  (cut_id: 32, mch_id: 1, mode_id: 25, feed_rate: 63.0000, blade_speed: 39.0000, time: 8, energy_Wh: 148),
  (cut_id: 32, mch_id: 2, mode_id: 25, feed_rate: 63.0000, blade_speed: 39.0000, time: 8, energy_Wh: 148),
  (cut_id: 32, mch_id: 3, mode_id: 25, feed_rate: 63.0000, blade_speed: 39.0000, time: 8, energy_Wh: 148),
  (cut_id: 33, mch_id: 3, mode_id: 1, feed_rate: 11.6000, blade_speed: 3.3000, time: 2, energy_Wh: 30),
  (cut_id: 33, mch_id: 2, mode_id: 1, feed_rate: 11.6000, blade_speed: 3.3000, time: 2, energy_Wh: 30),
  (cut_id: 33, mch_id: 1, mode_id: 1, feed_rate: 11.6000, blade_speed: 3.3000, time: 2, energy_Wh: 30),
  (cut_id: 33, mch_id: 3, mode_id: 2, feed_rate: 11.6000, blade_speed: 4.9500, time: 2, energy_Wh: 22),
  (cut_id: 33, mch_id: 2, mode_id: 2, feed_rate: 11.6000, blade_speed: 4.9500, time: 2, energy_Wh: 22),
  (cut_id: 33, mch_id: 1, mode_id: 2, feed_rate: 11.6000, blade_speed: 4.9500, time: 2, energy_Wh: 22),
  (cut_id: 33, mch_id: 3, mode_id: 3, feed_rate: 11.6000, blade_speed: 6.6000, time: 2, energy_Wh: 28),
  (cut_id: 33, mch_id: 2, mode_id: 3, feed_rate: 11.6000, blade_speed: 6.6000, time: 2, energy_Wh: 28),
  (cut_id: 33, mch_id: 1, mode_id: 3, feed_rate: 11.6000, blade_speed: 6.6000, time: 2, energy_Wh: 28),
  (cut_id: 33, mch_id: 3, mode_id: 4, feed_rate: 11.6000, blade_speed: 8.2500, time: 2, energy_Wh: 33),
  (cut_id: 33, mch_id: 2, mode_id: 4, feed_rate: 11.6000, blade_speed: 8.2500, time: 2, energy_Wh: 33),
  (cut_id: 33, mch_id: 1, mode_id: 4, feed_rate: 11.6000, blade_speed: 8.2500, time: 2, energy_Wh: 33),
  (cut_id: 33, mch_id: 3, mode_id: 5, feed_rate: 11.6000, blade_speed: 9.9000, time: 2, energy_Wh: 30),
  (cut_id: 33, mch_id: 2, mode_id: 5, feed_rate: 11.6000, blade_speed: 9.9000, time: 2, energy_Wh: 30),
  (cut_id: 33, mch_id: 1, mode_id: 5, feed_rate: 11.6000, blade_speed: 9.9000, time: 2, energy_Wh: 30),
  (cut_id: 33, mch_id: 3, mode_id: 6, feed_rate: 17.4000, blade_speed: 3.3000, time: 2, energy_Wh: 37),
  (cut_id: 33, mch_id: 2, mode_id: 6, feed_rate: 17.4000, blade_speed: 3.3000, time: 2, energy_Wh: 37),
  (cut_id: 33, mch_id: 1, mode_id: 6, feed_rate: 17.4000, blade_speed: 3.3000, time: 2, energy_Wh: 37),
  (cut_id: 33, mch_id: 3, mode_id: 7, feed_rate: 17.4000, blade_speed: 4.9500, time: 2, energy_Wh: 27),
  (cut_id: 33, mch_id: 2, mode_id: 7, feed_rate: 17.4000, blade_speed: 4.9500, time: 2, energy_Wh: 27),
  (cut_id: 33, mch_id: 1, mode_id: 7, feed_rate: 17.4000, blade_speed: 4.9500, time: 2, energy_Wh: 27),
  (cut_id: 33, mch_id: 3, mode_id: 8, feed_rate: 17.4000, blade_speed: 6.6000, time: 2, energy_Wh: 35),
  (cut_id: 33, mch_id: 2, mode_id: 8, feed_rate: 17.4000, blade_speed: 6.6000, time: 2, energy_Wh: 35),
  (cut_id: 33, mch_id: 1, mode_id: 8, feed_rate: 17.4000, blade_speed: 6.6000, time: 2, energy_Wh: 35),
  (cut_id: 33, mch_id: 3, mode_id: 9, feed_rate: 17.4000, blade_speed: 8.2500, time: 2, energy_Wh: 44),
  (cut_id: 33, mch_id: 2, mode_id: 9, feed_rate: 17.4000, blade_speed: 8.2500, time: 2, energy_Wh: 44),
  (cut_id: 33, mch_id: 1, mode_id: 9, feed_rate: 17.4000, blade_speed: 8.2500, time: 2, energy_Wh: 44),
  (cut_id: 33, mch_id: 3, mode_id: 10, feed_rate: 17.4000, blade_speed: 9.9000, time: 2, energy_Wh: 24),
  (cut_id: 33, mch_id: 2, mode_id: 10, feed_rate: 17.4000, blade_speed: 9.9000, time: 2, energy_Wh: 24),
  (cut_id: 33, mch_id: 1, mode_id: 10, feed_rate: 17.4000, blade_speed: 9.9000, time: 2, energy_Wh: 24),
  (cut_id: 33, mch_id: 3, mode_id: 11, feed_rate: 23.1900, blade_speed: 3.3000, time: 1, energy_Wh: 35),
  (cut_id: 33, mch_id: 2, mode_id: 11, feed_rate: 23.1900, blade_speed: 3.3000, time: 1, energy_Wh: 35),
  (cut_id: 33, mch_id: 1, mode_id: 11, feed_rate: 23.1900, blade_speed: 3.3000, time: 1, energy_Wh: 35),
  (cut_id: 33, mch_id: 3, mode_id: 12, feed_rate: 23.1900, blade_speed: 4.9500, time: 1, energy_Wh: 27),
  (cut_id: 33, mch_id: 2, mode_id: 12, feed_rate: 23.1900, blade_speed: 4.9500, time: 1, energy_Wh: 27),
  (cut_id: 33, mch_id: 1, mode_id: 12, feed_rate: 23.1900, blade_speed: 4.9500, time: 1, energy_Wh: 27),
  (cut_id: 33, mch_id: 3, mode_id: 13, feed_rate: 23.1900, blade_speed: 6.6000, time: 1, energy_Wh: 41),
  (cut_id: 33, mch_id: 2, mode_id: 13, feed_rate: 23.1900, blade_speed: 6.6000, time: 1, energy_Wh: 41),
  (cut_id: 33, mch_id: 1, mode_id: 13, feed_rate: 23.1900, blade_speed: 6.6000, time: 1, energy_Wh: 41),
  (cut_id: 33, mch_id: 3, mode_id: 14, feed_rate: 23.1900, blade_speed: 8.2500, time: 1, energy_Wh: 53),
  (cut_id: 33, mch_id: 2, mode_id: 14, feed_rate: 23.1900, blade_speed: 8.2500, time: 1, energy_Wh: 53),
  (cut_id: 33, mch_id: 1, mode_id: 14, feed_rate: 23.1900, blade_speed: 8.2500, time: 1, energy_Wh: 53),
  (cut_id: 33, mch_id: 3, mode_id: 15, feed_rate: 23.1900, blade_speed: 9.9000, time: 1, energy_Wh: 25),
  (cut_id: 33, mch_id: 2, mode_id: 15, feed_rate: 23.1900, blade_speed: 9.9000, time: 1, energy_Wh: 25),
  (cut_id: 33, mch_id: 1, mode_id: 15, feed_rate: 23.1900, blade_speed: 9.9000, time: 1, energy_Wh: 25),
  (cut_id: 33, mch_id: 3, mode_id: 16, feed_rate: 28.9900, blade_speed: 3.3000, time: 1, energy_Wh: 37),
  (cut_id: 33, mch_id: 2, mode_id: 16, feed_rate: 28.9900, blade_speed: 3.3000, time: 1, energy_Wh: 37),
  (cut_id: 33, mch_id: 1, mode_id: 16, feed_rate: 28.9900, blade_speed: 3.3000, time: 1, energy_Wh: 37),
  (cut_id: 33, mch_id: 3, mode_id: 17, feed_rate: 28.9900, blade_speed: 4.9500, time: 1, energy_Wh: 24),
  (cut_id: 33, mch_id: 2, mode_id: 17, feed_rate: 28.9900, blade_speed: 4.9500, time: 1, energy_Wh: 24),
  (cut_id: 33, mch_id: 1, mode_id: 17, feed_rate: 28.9900, blade_speed: 4.9500, time: 1, energy_Wh: 24),
  (cut_id: 33, mch_id: 3, mode_id: 18, feed_rate: 28.9900, blade_speed: 6.6000, time: 1, energy_Wh: 44),
  (cut_id: 33, mch_id: 2, mode_id: 18, feed_rate: 28.9900, blade_speed: 6.6000, time: 1, energy_Wh: 44),
  (cut_id: 33, mch_id: 1, mode_id: 18, feed_rate: 28.9900, blade_speed: 6.6000, time: 1, energy_Wh: 44),
  (cut_id: 33, mch_id: 3, mode_id: 19, feed_rate: 28.9900, blade_speed: 8.2500, time: 1, energy_Wh: 52),
  (cut_id: 33, mch_id: 2, mode_id: 19, feed_rate: 28.9900, blade_speed: 8.2500, time: 1, energy_Wh: 52),
  (cut_id: 33, mch_id: 1, mode_id: 19, feed_rate: 28.9900, blade_speed: 8.2500, time: 1, energy_Wh: 52),
  (cut_id: 33, mch_id: 3, mode_id: 20, feed_rate: 28.9900, blade_speed: 9.9000, time: 1, energy_Wh: 36),
  (cut_id: 33, mch_id: 2, mode_id: 20, feed_rate: 28.9900, blade_speed: 9.9000, time: 1, energy_Wh: 36),
  (cut_id: 33, mch_id: 1, mode_id: 20, feed_rate: 28.9900, blade_speed: 9.9000, time: 1, energy_Wh: 36),
  (cut_id: 33, mch_id: 3, mode_id: 21, feed_rate: 34.7900, blade_speed: 3.3000, time: 1, energy_Wh: 42),
  (cut_id: 33, mch_id: 2, mode_id: 21, feed_rate: 34.7900, blade_speed: 3.3000, time: 1, energy_Wh: 42),
  (cut_id: 33, mch_id: 1, mode_id: 21, feed_rate: 34.7900, blade_speed: 3.3000, time: 1, energy_Wh: 42),
  (cut_id: 33, mch_id: 3, mode_id: 22, feed_rate: 34.7900, blade_speed: 4.9500, time: 1, energy_Wh: 26),
  (cut_id: 33, mch_id: 2, mode_id: 22, feed_rate: 34.7900, blade_speed: 4.9500, time: 1, energy_Wh: 26),
  (cut_id: 33, mch_id: 1, mode_id: 22, feed_rate: 34.7900, blade_speed: 4.9500, time: 1, energy_Wh: 26),
  (cut_id: 33, mch_id: 3, mode_id: 23, feed_rate: 34.7900, blade_speed: 6.6000, time: 1, energy_Wh: 53),
  (cut_id: 33, mch_id: 2, mode_id: 23, feed_rate: 34.7900, blade_speed: 6.6000, time: 1, energy_Wh: 53),
  (cut_id: 33, mch_id: 1, mode_id: 23, feed_rate: 34.7900, blade_speed: 6.6000, time: 1, energy_Wh: 53),
  (cut_id: 33, mch_id: 3, mode_id: 24, feed_rate: 34.7900, blade_speed: 8.2500, time: 1, energy_Wh: 48),
  (cut_id: 33, mch_id: 2, mode_id: 24, feed_rate: 34.7900, blade_speed: 8.2500, time: 1, energy_Wh: 48),
  (cut_id: 33, mch_id: 1, mode_id: 24, feed_rate: 34.7900, blade_speed: 8.2500, time: 1, energy_Wh: 48),
  (cut_id: 33, mch_id: 3, mode_id: 25, feed_rate: 34.7900, blade_speed: 9.9000, time: 1, energy_Wh: 32),
  (cut_id: 33, mch_id: 2, mode_id: 25, feed_rate: 34.7900, blade_speed: 9.9000, time: 1, energy_Wh: 32),
  (cut_id: 33, mch_id: 1, mode_id: 25, feed_rate: 34.7900, blade_speed: 9.9000, time: 1, energy_Wh: 32),
  (cut_id: 34, mch_id: 3, mode_id: 1, feed_rate: 12.5000, blade_speed: 3.5000, time: 78, energy_Wh: 81),
  (cut_id: 34, mch_id: 2, mode_id: 1, feed_rate: 12.5000, blade_speed: 3.5000, time: 78, energy_Wh: 81),
  (cut_id: 34, mch_id: 1, mode_id: 1, feed_rate: 12.5000, blade_speed: 3.5000, time: 78, energy_Wh: 81),
  (cut_id: 34, mch_id: 3, mode_id: 2, feed_rate: 12.5000, blade_speed: 5.2500, time: 78, energy_Wh: 52),
  (cut_id: 34, mch_id: 2, mode_id: 2, feed_rate: 12.5000, blade_speed: 5.2500, time: 78, energy_Wh: 52),
  (cut_id: 34, mch_id: 1, mode_id: 2, feed_rate: 12.5000, blade_speed: 5.2500, time: 78, energy_Wh: 52),
  (cut_id: 34, mch_id: 3, mode_id: 3, feed_rate: 12.5000, blade_speed: 7.0000, time: 78, energy_Wh: 96),
  (cut_id: 34, mch_id: 2, mode_id: 3, feed_rate: 12.5000, blade_speed: 7.0000, time: 78, energy_Wh: 96),
  (cut_id: 34, mch_id: 1, mode_id: 3, feed_rate: 12.5000, blade_speed: 7.0000, time: 78, energy_Wh: 96),
  (cut_id: 34, mch_id: 3, mode_id: 4, feed_rate: 12.5000, blade_speed: 8.7500, time: 78, energy_Wh: 80),
  (cut_id: 34, mch_id: 2, mode_id: 4, feed_rate: 12.5000, blade_speed: 8.7500, time: 78, energy_Wh: 80),
  (cut_id: 34, mch_id: 1, mode_id: 4, feed_rate: 12.5000, blade_speed: 8.7500, time: 78, energy_Wh: 80),
  (cut_id: 34, mch_id: 3, mode_id: 5, feed_rate: 12.5000, blade_speed: 10.5000, time: 78, energy_Wh: 58),
  (cut_id: 34, mch_id: 2, mode_id: 5, feed_rate: 12.5000, blade_speed: 10.5000, time: 78, energy_Wh: 58),
  (cut_id: 34, mch_id: 1, mode_id: 5, feed_rate: 12.5000, blade_speed: 10.5000, time: 78, energy_Wh: 58),
  (cut_id: 34, mch_id: 3, mode_id: 6, feed_rate: 18.7500, blade_speed: 3.5000, time: 52, energy_Wh: 89),
  (cut_id: 34, mch_id: 2, mode_id: 6, feed_rate: 18.7500, blade_speed: 3.5000, time: 52, energy_Wh: 89),
  (cut_id: 34, mch_id: 1, mode_id: 6, feed_rate: 18.7500, blade_speed: 3.5000, time: 52, energy_Wh: 89),
  (cut_id: 34, mch_id: 3, mode_id: 7, feed_rate: 18.7500, blade_speed: 5.2500, time: 52, energy_Wh: 63),
  (cut_id: 34, mch_id: 2, mode_id: 7, feed_rate: 18.7500, blade_speed: 5.2500, time: 52, energy_Wh: 63),
  (cut_id: 34, mch_id: 1, mode_id: 7, feed_rate: 18.7500, blade_speed: 5.2500, time: 52, energy_Wh: 63),
  (cut_id: 34, mch_id: 3, mode_id: 8, feed_rate: 18.7500, blade_speed: 7.0000, time: 52, energy_Wh: 130),
  (cut_id: 34, mch_id: 2, mode_id: 8, feed_rate: 18.7500, blade_speed: 7.0000, time: 52, energy_Wh: 130),
  (cut_id: 34, mch_id: 1, mode_id: 8, feed_rate: 18.7500, blade_speed: 7.0000, time: 52, energy_Wh: 130),
  (cut_id: 34, mch_id: 3, mode_id: 9, feed_rate: 18.7500, blade_speed: 8.7500, time: 52, energy_Wh: 101),
  (cut_id: 34, mch_id: 2, mode_id: 9, feed_rate: 18.7500, blade_speed: 8.7500, time: 52, energy_Wh: 101),
  (cut_id: 34, mch_id: 1, mode_id: 9, feed_rate: 18.7500, blade_speed: 8.7500, time: 52, energy_Wh: 101),
  (cut_id: 34, mch_id: 3, mode_id: 10, feed_rate: 18.7500, blade_speed: 10.5000, time: 52, energy_Wh: 63),
  (cut_id: 34, mch_id: 2, mode_id: 10, feed_rate: 18.7500, blade_speed: 10.5000, time: 52, energy_Wh: 63),
  (cut_id: 34, mch_id: 1, mode_id: 10, feed_rate: 18.7500, blade_speed: 10.5000, time: 52, energy_Wh: 63),
  (cut_id: 34, mch_id: 3, mode_id: 11, feed_rate: 25.0000, blade_speed: 3.5000, time: 39, energy_Wh: 97),
  (cut_id: 34, mch_id: 2, mode_id: 11, feed_rate: 25.0000, blade_speed: 3.5000, time: 39, energy_Wh: 97),
  (cut_id: 34, mch_id: 1, mode_id: 11, feed_rate: 25.0000, blade_speed: 3.5000, time: 39, energy_Wh: 97),
  (cut_id: 34, mch_id: 3, mode_id: 12, feed_rate: 25.0000, blade_speed: 5.2500, time: 39, energy_Wh: 74),
  (cut_id: 34, mch_id: 2, mode_id: 12, feed_rate: 25.0000, blade_speed: 5.2500, time: 39, energy_Wh: 74),
  (cut_id: 34, mch_id: 1, mode_id: 12, feed_rate: 25.0000, blade_speed: 5.2500, time: 39, energy_Wh: 74),
  (cut_id: 34, mch_id: 3, mode_id: 13, feed_rate: 25.0000, blade_speed: 7.0000, time: 39, energy_Wh: 123),
  (cut_id: 34, mch_id: 2, mode_id: 13, feed_rate: 25.0000, blade_speed: 7.0000, time: 39, energy_Wh: 123),
  (cut_id: 34, mch_id: 1, mode_id: 13, feed_rate: 25.0000, blade_speed: 7.0000, time: 39, energy_Wh: 123),
  (cut_id: 34, mch_id: 3, mode_id: 14, feed_rate: 25.0000, blade_speed: 8.7500, time: 39, energy_Wh: 99),
  (cut_id: 34, mch_id: 2, mode_id: 14, feed_rate: 25.0000, blade_speed: 8.7500, time: 39, energy_Wh: 99),
  (cut_id: 34, mch_id: 1, mode_id: 14, feed_rate: 25.0000, blade_speed: 8.7500, time: 39, energy_Wh: 99),
  (cut_id: 34, mch_id: 3, mode_id: 15, feed_rate: 25.0000, blade_speed: 10.5000, time: 39, energy_Wh: 86),
  (cut_id: 34, mch_id: 2, mode_id: 15, feed_rate: 25.0000, blade_speed: 10.5000, time: 39, energy_Wh: 86),
  (cut_id: 34, mch_id: 1, mode_id: 15, feed_rate: 25.0000, blade_speed: 10.5000, time: 39, energy_Wh: 86),
  (cut_id: 34, mch_id: 3, mode_id: 16, feed_rate: 31.2500, blade_speed: 3.5000, time: 32, energy_Wh: 86),
  (cut_id: 34, mch_id: 2, mode_id: 16, feed_rate: 31.2500, blade_speed: 3.5000, time: 32, energy_Wh: 86),
  (cut_id: 34, mch_id: 1, mode_id: 16, feed_rate: 31.2500, blade_speed: 3.5000, time: 32, energy_Wh: 86),
  (cut_id: 34, mch_id: 3, mode_id: 17, feed_rate: 31.2500, blade_speed: 5.2500, time: 32, energy_Wh: 91),
  (cut_id: 34, mch_id: 2, mode_id: 17, feed_rate: 31.2500, blade_speed: 5.2500, time: 32, energy_Wh: 91),
  (cut_id: 34, mch_id: 1, mode_id: 17, feed_rate: 31.2500, blade_speed: 5.2500, time: 32, energy_Wh: 91),
  (cut_id: 34, mch_id: 3, mode_id: 18, feed_rate: 31.2500, blade_speed: 7.0000, time: 32, energy_Wh: 138),
  (cut_id: 34, mch_id: 2, mode_id: 18, feed_rate: 31.2500, blade_speed: 7.0000, time: 32, energy_Wh: 138),
  (cut_id: 34, mch_id: 1, mode_id: 18, feed_rate: 31.2500, blade_speed: 7.0000, time: 32, energy_Wh: 138),
  (cut_id: 34, mch_id: 3, mode_id: 19, feed_rate: 31.2500, blade_speed: 8.7500, time: 32, energy_Wh: 112),
  (cut_id: 34, mch_id: 2, mode_id: 19, feed_rate: 31.2500, blade_speed: 8.7500, time: 32, energy_Wh: 112),
  (cut_id: 34, mch_id: 1, mode_id: 19, feed_rate: 31.2500, blade_speed: 8.7500, time: 32, energy_Wh: 112),
  (cut_id: 34, mch_id: 3, mode_id: 20, feed_rate: 31.2500, blade_speed: 10.5000, time: 32, energy_Wh: 91),
  (cut_id: 34, mch_id: 2, mode_id: 20, feed_rate: 31.2500, blade_speed: 10.5000, time: 32, energy_Wh: 91),
  (cut_id: 34, mch_id: 1, mode_id: 20, feed_rate: 31.2500, blade_speed: 10.5000, time: 32, energy_Wh: 91),
  (cut_id: 34, mch_id: 3, mode_id: 21, feed_rate: 37.5000, blade_speed: 3.5000, time: 26, energy_Wh: 125),
  (cut_id: 34, mch_id: 2, mode_id: 21, feed_rate: 37.5000, blade_speed: 3.5000, time: 26, energy_Wh: 125),
  (cut_id: 34, mch_id: 1, mode_id: 21, feed_rate: 37.5000, blade_speed: 3.5000, time: 26, energy_Wh: 125),
  (cut_id: 34, mch_id: 3, mode_id: 22, feed_rate: 37.5000, blade_speed: 5.2500, time: 26, energy_Wh: 91),
  (cut_id: 34, mch_id: 2, mode_id: 22, feed_rate: 37.5000, blade_speed: 5.2500, time: 26, energy_Wh: 91),
  (cut_id: 34, mch_id: 1, mode_id: 22, feed_rate: 37.5000, blade_speed: 5.2500, time: 26, energy_Wh: 91),
  (cut_id: 34, mch_id: 3, mode_id: 23, feed_rate: 37.5000, blade_speed: 7.0000, time: 26, energy_Wh: 154),
  (cut_id: 34, mch_id: 2, mode_id: 23, feed_rate: 37.5000, blade_speed: 7.0000, time: 26, energy_Wh: 154),
  (cut_id: 34, mch_id: 1, mode_id: 23, feed_rate: 37.5000, blade_speed: 7.0000, time: 26, energy_Wh: 154),
  (cut_id: 34, mch_id: 3, mode_id: 24, feed_rate: 37.5000, blade_speed: 8.7500, time: 26, energy_Wh: 134),
  (cut_id: 34, mch_id: 2, mode_id: 24, feed_rate: 37.5000, blade_speed: 8.7500, time: 26, energy_Wh: 134),
  (cut_id: 34, mch_id: 1, mode_id: 24, feed_rate: 37.5000, blade_speed: 8.7500, time: 26, energy_Wh: 134),
  (cut_id: 34, mch_id: 3, mode_id: 25, feed_rate: 37.5000, blade_speed: 10.5000, time: 26, energy_Wh: 81),
  (cut_id: 34, mch_id: 2, mode_id: 25, feed_rate: 37.5000, blade_speed: 10.5000, time: 26, energy_Wh: 81),
  (cut_id: 34, mch_id: 1, mode_id: 25, feed_rate: 37.5000, blade_speed: 10.5000, time: 26, energy_Wh: 81),
  (cut_id: 35, mch_id: 2, mode_id: 1, feed_rate: 15.0000, blade_speed: 3.5000, time: 6, energy_Wh: 45),
  (cut_id: 35, mch_id: 1, mode_id: 1, feed_rate: 15.0000, blade_speed: 3.5000, time: 6, energy_Wh: 45),
  (cut_id: 35, mch_id: 3, mode_id: 1, feed_rate: 15.0000, blade_speed: 3.5000, time: 6, energy_Wh: 45),
  (cut_id: 35, mch_id: 2, mode_id: 2, feed_rate: 15.0000, blade_speed: 5.2500, time: 6, energy_Wh: 41),
  (cut_id: 35, mch_id: 1, mode_id: 2, feed_rate: 15.0000, blade_speed: 5.2500, time: 6, energy_Wh: 41),
  (cut_id: 35, mch_id: 3, mode_id: 2, feed_rate: 15.0000, blade_speed: 5.2500, time: 6, energy_Wh: 41),
  (cut_id: 35, mch_id: 2, mode_id: 3, feed_rate: 15.0000, blade_speed: 7.0000, time: 6, energy_Wh: 59),
  (cut_id: 35, mch_id: 1, mode_id: 3, feed_rate: 15.0000, blade_speed: 7.0000, time: 6, energy_Wh: 59),
  (cut_id: 35, mch_id: 3, mode_id: 3, feed_rate: 15.0000, blade_speed: 7.0000, time: 6, energy_Wh: 59),
  (cut_id: 35, mch_id: 2, mode_id: 4, feed_rate: 15.0000, blade_speed: 8.7500, time: 6, energy_Wh: 50),
  (cut_id: 35, mch_id: 1, mode_id: 4, feed_rate: 15.0000, blade_speed: 8.7500, time: 6, energy_Wh: 50),
  (cut_id: 35, mch_id: 3, mode_id: 4, feed_rate: 15.0000, blade_speed: 8.7500, time: 6, energy_Wh: 50),
  (cut_id: 35, mch_id: 2, mode_id: 5, feed_rate: 15.0000, blade_speed: 10.5000, time: 6, energy_Wh: 36),
  (cut_id: 35, mch_id: 1, mode_id: 5, feed_rate: 15.0000, blade_speed: 10.5000, time: 6, energy_Wh: 36),
  (cut_id: 35, mch_id: 3, mode_id: 5, feed_rate: 15.0000, blade_speed: 10.5000, time: 6, energy_Wh: 36),
  (cut_id: 35, mch_id: 2, mode_id: 6, feed_rate: 22.5000, blade_speed: 3.5000, time: 4, energy_Wh: 50),
  (cut_id: 35, mch_id: 1, mode_id: 6, feed_rate: 22.5000, blade_speed: 3.5000, time: 4, energy_Wh: 50),
  (cut_id: 35, mch_id: 3, mode_id: 6, feed_rate: 22.5000, blade_speed: 3.5000, time: 4, energy_Wh: 50),
  (cut_id: 35, mch_id: 2, mode_id: 7, feed_rate: 22.5000, blade_speed: 5.2500, time: 4, energy_Wh: 32),
  (cut_id: 35, mch_id: 1, mode_id: 7, feed_rate: 22.5000, blade_speed: 5.2500, time: 4, energy_Wh: 32),
  (cut_id: 35, mch_id: 3, mode_id: 7, feed_rate: 22.5000, blade_speed: 5.2500, time: 4, energy_Wh: 32),
  (cut_id: 35, mch_id: 2, mode_id: 8, feed_rate: 22.5000, blade_speed: 7.0000, time: 4, energy_Wh: 68),
  (cut_id: 35, mch_id: 1, mode_id: 8, feed_rate: 22.5000, blade_speed: 7.0000, time: 4, energy_Wh: 68),
  (cut_id: 35, mch_id: 3, mode_id: 8, feed_rate: 22.5000, blade_speed: 7.0000, time: 4, energy_Wh: 68),
  (cut_id: 35, mch_id: 2, mode_id: 9, feed_rate: 22.5000, blade_speed: 8.7500, time: 4, energy_Wh: 63),
  (cut_id: 35, mch_id: 1, mode_id: 9, feed_rate: 22.5000, blade_speed: 8.7500, time: 4, energy_Wh: 63),
  (cut_id: 35, mch_id: 3, mode_id: 9, feed_rate: 22.5000, blade_speed: 8.7500, time: 4, energy_Wh: 63),
  (cut_id: 35, mch_id: 2, mode_id: 10, feed_rate: 22.5000, blade_speed: 10.5000, time: 4, energy_Wh: 39),
  (cut_id: 35, mch_id: 1, mode_id: 10, feed_rate: 22.5000, blade_speed: 10.5000, time: 4, energy_Wh: 39),
  (cut_id: 35, mch_id: 3, mode_id: 10, feed_rate: 22.5000, blade_speed: 10.5000, time: 4, energy_Wh: 39),
  (cut_id: 35, mch_id: 2, mode_id: 11, feed_rate: 30.0000, blade_speed: 3.5000, time: 3, energy_Wh: 52),
  (cut_id: 35, mch_id: 1, mode_id: 11, feed_rate: 30.0000, blade_speed: 3.5000, time: 3, energy_Wh: 52),
  (cut_id: 35, mch_id: 3, mode_id: 11, feed_rate: 30.0000, blade_speed: 3.5000, time: 3, energy_Wh: 52),
  (cut_id: 35, mch_id: 2, mode_id: 12, feed_rate: 30.0000, blade_speed: 5.2500, time: 3, energy_Wh: 43),
  (cut_id: 35, mch_id: 1, mode_id: 12, feed_rate: 30.0000, blade_speed: 5.2500, time: 3, energy_Wh: 43),
  (cut_id: 35, mch_id: 3, mode_id: 12, feed_rate: 30.0000, blade_speed: 5.2500, time: 3, energy_Wh: 43),
  (cut_id: 35, mch_id: 2, mode_id: 13, feed_rate: 30.0000, blade_speed: 7.0000, time: 3, energy_Wh: 57),
  (cut_id: 35, mch_id: 1, mode_id: 13, feed_rate: 30.0000, blade_speed: 7.0000, time: 3, energy_Wh: 57),
  (cut_id: 35, mch_id: 3, mode_id: 13, feed_rate: 30.0000, blade_speed: 7.0000, time: 3, energy_Wh: 57),
  (cut_id: 35, mch_id: 2, mode_id: 14, feed_rate: 30.0000, blade_speed: 8.7500, time: 3, energy_Wh: 56),
  (cut_id: 35, mch_id: 1, mode_id: 14, feed_rate: 30.0000, blade_speed: 8.7500, time: 3, energy_Wh: 56),
  (cut_id: 35, mch_id: 3, mode_id: 14, feed_rate: 30.0000, blade_speed: 8.7500, time: 3, energy_Wh: 56),
  (cut_id: 35, mch_id: 2, mode_id: 15, feed_rate: 30.0000, blade_speed: 10.5000, time: 3, energy_Wh: 33),
  (cut_id: 35, mch_id: 1, mode_id: 15, feed_rate: 30.0000, blade_speed: 10.5000, time: 3, energy_Wh: 33),
  (cut_id: 35, mch_id: 3, mode_id: 15, feed_rate: 30.0000, blade_speed: 10.5000, time: 3, energy_Wh: 33),
  (cut_id: 35, mch_id: 2, mode_id: 16, feed_rate: 37.5000, blade_speed: 3.5000, time: 3, energy_Wh: 50),
  (cut_id: 35, mch_id: 1, mode_id: 16, feed_rate: 37.5000, blade_speed: 3.5000, time: 3, energy_Wh: 50),
  (cut_id: 35, mch_id: 3, mode_id: 16, feed_rate: 37.5000, blade_speed: 3.5000, time: 3, energy_Wh: 50),
  (cut_id: 35, mch_id: 2, mode_id: 17, feed_rate: 37.5000, blade_speed: 5.2500, time: 3, energy_Wh: 40),
  (cut_id: 35, mch_id: 1, mode_id: 17, feed_rate: 37.5000, blade_speed: 5.2500, time: 3, energy_Wh: 40),
  (cut_id: 35, mch_id: 3, mode_id: 17, feed_rate: 37.5000, blade_speed: 5.2500, time: 3, energy_Wh: 40),
  (cut_id: 35, mch_id: 2, mode_id: 18, feed_rate: 37.5000, blade_speed: 7.0000, time: 3, energy_Wh: 75),
  (cut_id: 35, mch_id: 1, mode_id: 18, feed_rate: 37.5000, blade_speed: 7.0000, time: 3, energy_Wh: 75),
  (cut_id: 35, mch_id: 3, mode_id: 18, feed_rate: 37.5000, blade_speed: 7.0000, time: 3, energy_Wh: 75),
  (cut_id: 35, mch_id: 2, mode_id: 19, feed_rate: 37.5000, blade_speed: 8.7500, time: 3, energy_Wh: 60),
  (cut_id: 35, mch_id: 1, mode_id: 19, feed_rate: 37.5000, blade_speed: 8.7500, time: 3, energy_Wh: 60),
  (cut_id: 35, mch_id: 3, mode_id: 19, feed_rate: 37.5000, blade_speed: 8.7500, time: 3, energy_Wh: 60),
  (cut_id: 35, mch_id: 2, mode_id: 20, feed_rate: 37.5000, blade_speed: 10.5000, time: 3, energy_Wh: 38),
  (cut_id: 35, mch_id: 1, mode_id: 20, feed_rate: 37.5000, blade_speed: 10.5000, time: 3, energy_Wh: 38),
  (cut_id: 35, mch_id: 3, mode_id: 20, feed_rate: 37.5000, blade_speed: 10.5000, time: 3, energy_Wh: 38),
  (cut_id: 35, mch_id: 2, mode_id: 21, feed_rate: 45.0000, blade_speed: 3.5000, time: 2, energy_Wh: 61),
  (cut_id: 35, mch_id: 1, mode_id: 21, feed_rate: 45.0000, blade_speed: 3.5000, time: 2, energy_Wh: 61),
  (cut_id: 35, mch_id: 3, mode_id: 21, feed_rate: 45.0000, blade_speed: 3.5000, time: 2, energy_Wh: 61),
  (cut_id: 35, mch_id: 2, mode_id: 22, feed_rate: 45.0000, blade_speed: 5.2500, time: 2, energy_Wh: 56),
  (cut_id: 35, mch_id: 1, mode_id: 22, feed_rate: 45.0000, blade_speed: 5.2500, time: 2, energy_Wh: 56),
  (cut_id: 35, mch_id: 3, mode_id: 22, feed_rate: 45.0000, blade_speed: 5.2500, time: 2, energy_Wh: 56),
  (cut_id: 35, mch_id: 2, mode_id: 23, feed_rate: 45.0000, blade_speed: 7.0000, time: 2, energy_Wh: 80),
  (cut_id: 35, mch_id: 1, mode_id: 23, feed_rate: 45.0000, blade_speed: 7.0000, time: 2, energy_Wh: 80),
  (cut_id: 35, mch_id: 3, mode_id: 23, feed_rate: 45.0000, blade_speed: 7.0000, time: 2, energy_Wh: 80),
  (cut_id: 35, mch_id: 2, mode_id: 24, feed_rate: 45.0000, blade_speed: 8.7500, time: 2, energy_Wh: 66),
  (cut_id: 35, mch_id: 1, mode_id: 24, feed_rate: 45.0000, blade_speed: 8.7500, time: 2, energy_Wh: 66),
  (cut_id: 35, mch_id: 3, mode_id: 24, feed_rate: 45.0000, blade_speed: 8.7500, time: 2, energy_Wh: 66),
  (cut_id: 35, mch_id: 2, mode_id: 25, feed_rate: 45.0000, blade_speed: 10.5000, time: 2, energy_Wh: 58),
  (cut_id: 35, mch_id: 1, mode_id: 25, feed_rate: 45.0000, blade_speed: 10.5000, time: 2, energy_Wh: 58),
  (cut_id: 35, mch_id: 3, mode_id: 25, feed_rate: 45.0000, blade_speed: 10.5000, time: 2, energy_Wh: 58),
  (cut_id: 36, mch_id: 3, mode_id: 1, feed_rate: 11.5000, blade_speed: 3.7500, time: 19, energy_Wh: 30),
  (cut_id: 36, mch_id: 1, mode_id: 1, feed_rate: 11.5000, blade_speed: 3.7500, time: 19, energy_Wh: 30),
  (cut_id: 36, mch_id: 2, mode_id: 1, feed_rate: 11.5000, blade_speed: 3.7500, time: 19, energy_Wh: 30),
  (cut_id: 36, mch_id: 3, mode_id: 2, feed_rate: 11.5000, blade_speed: 5.6200, time: 19, energy_Wh: 29),
  (cut_id: 36, mch_id: 1, mode_id: 2, feed_rate: 11.5000, blade_speed: 5.6200, time: 19, energy_Wh: 29),
  (cut_id: 36, mch_id: 2, mode_id: 2, feed_rate: 11.5000, blade_speed: 5.6200, time: 19, energy_Wh: 29),
  (cut_id: 36, mch_id: 3, mode_id: 3, feed_rate: 11.5000, blade_speed: 7.5000, time: 19, energy_Wh: 47),
  (cut_id: 36, mch_id: 1, mode_id: 3, feed_rate: 11.5000, blade_speed: 7.5000, time: 19, energy_Wh: 47),
  (cut_id: 36, mch_id: 2, mode_id: 3, feed_rate: 11.5000, blade_speed: 7.5000, time: 19, energy_Wh: 47),
  (cut_id: 36, mch_id: 3, mode_id: 4, feed_rate: 11.5000, blade_speed: 9.3800, time: 19, energy_Wh: 35),
  (cut_id: 36, mch_id: 1, mode_id: 4, feed_rate: 11.5000, blade_speed: 9.3800, time: 19, energy_Wh: 35),
  (cut_id: 36, mch_id: 2, mode_id: 4, feed_rate: 11.5000, blade_speed: 9.3800, time: 19, energy_Wh: 35),
  (cut_id: 36, mch_id: 3, mode_id: 5, feed_rate: 11.5000, blade_speed: 11.2500, time: 19, energy_Wh: 27),
  (cut_id: 36, mch_id: 1, mode_id: 5, feed_rate: 11.5000, blade_speed: 11.2500, time: 19, energy_Wh: 27),
  (cut_id: 36, mch_id: 2, mode_id: 5, feed_rate: 11.5000, blade_speed: 11.2500, time: 19, energy_Wh: 27),
  (cut_id: 36, mch_id: 3, mode_id: 6, feed_rate: 17.2500, blade_speed: 3.7500, time: 13, energy_Wh: 36),
  (cut_id: 36, mch_id: 1, mode_id: 6, feed_rate: 17.2500, blade_speed: 3.7500, time: 13, energy_Wh: 36),
  (cut_id: 36, mch_id: 2, mode_id: 6, feed_rate: 17.2500, blade_speed: 3.7500, time: 13, energy_Wh: 36),
  (cut_id: 36, mch_id: 3, mode_id: 7, feed_rate: 17.2500, blade_speed: 5.6200, time: 13, energy_Wh: 26),
  (cut_id: 36, mch_id: 1, mode_id: 7, feed_rate: 17.2500, blade_speed: 5.6200, time: 13, energy_Wh: 26),
  (cut_id: 36, mch_id: 2, mode_id: 7, feed_rate: 17.2500, blade_speed: 5.6200, time: 13, energy_Wh: 26),
  (cut_id: 36, mch_id: 3, mode_id: 8, feed_rate: 17.2500, blade_speed: 7.5000, time: 13, energy_Wh: 47),
  (cut_id: 36, mch_id: 1, mode_id: 8, feed_rate: 17.2500, blade_speed: 7.5000, time: 13, energy_Wh: 47),
  (cut_id: 36, mch_id: 2, mode_id: 8, feed_rate: 17.2500, blade_speed: 7.5000, time: 13, energy_Wh: 47),
  (cut_id: 36, mch_id: 3, mode_id: 9, feed_rate: 17.2500, blade_speed: 9.3800, time: 13, energy_Wh: 45),
  (cut_id: 36, mch_id: 1, mode_id: 9, feed_rate: 17.2500, blade_speed: 9.3800, time: 13, energy_Wh: 45),
  (cut_id: 36, mch_id: 2, mode_id: 9, feed_rate: 17.2500, blade_speed: 9.3800, time: 13, energy_Wh: 45),
  (cut_id: 36, mch_id: 3, mode_id: 10, feed_rate: 17.2500, blade_speed: 11.2500, time: 13, energy_Wh: 28),
  (cut_id: 36, mch_id: 1, mode_id: 10, feed_rate: 17.2500, blade_speed: 11.2500, time: 13, energy_Wh: 28),
  (cut_id: 36, mch_id: 2, mode_id: 10, feed_rate: 17.2500, blade_speed: 11.2500, time: 13, energy_Wh: 28),
  (cut_id: 36, mch_id: 3, mode_id: 11, feed_rate: 23.0000, blade_speed: 3.7500, time: 10, energy_Wh: 36),
  (cut_id: 36, mch_id: 1, mode_id: 11, feed_rate: 23.0000, blade_speed: 3.7500, time: 10, energy_Wh: 36),
  (cut_id: 36, mch_id: 2, mode_id: 11, feed_rate: 23.0000, blade_speed: 3.7500, time: 10, energy_Wh: 36),
  (cut_id: 36, mch_id: 3, mode_id: 12, feed_rate: 23.0000, blade_speed: 5.6200, time: 10, energy_Wh: 33),
  (cut_id: 36, mch_id: 1, mode_id: 12, feed_rate: 23.0000, blade_speed: 5.6200, time: 10, energy_Wh: 33),
  (cut_id: 36, mch_id: 2, mode_id: 12, feed_rate: 23.0000, blade_speed: 5.6200, time: 10, energy_Wh: 33),
  (cut_id: 36, mch_id: 3, mode_id: 13, feed_rate: 23.0000, blade_speed: 7.5000, time: 10, energy_Wh: 44),
  (cut_id: 36, mch_id: 1, mode_id: 13, feed_rate: 23.0000, blade_speed: 7.5000, time: 10, energy_Wh: 44),
  (cut_id: 36, mch_id: 2, mode_id: 13, feed_rate: 23.0000, blade_speed: 7.5000, time: 10, energy_Wh: 44),
  (cut_id: 36, mch_id: 3, mode_id: 14, feed_rate: 23.0000, blade_speed: 9.3800, time: 10, energy_Wh: 41),
  (cut_id: 36, mch_id: 1, mode_id: 14, feed_rate: 23.0000, blade_speed: 9.3800, time: 10, energy_Wh: 41),
  (cut_id: 36, mch_id: 2, mode_id: 14, feed_rate: 23.0000, blade_speed: 9.3800, time: 10, energy_Wh: 41),
  (cut_id: 36, mch_id: 3, mode_id: 15, feed_rate: 23.0000, blade_speed: 11.2500, time: 10, energy_Wh: 24),
  (cut_id: 36, mch_id: 1, mode_id: 15, feed_rate: 23.0000, blade_speed: 11.2500, time: 10, energy_Wh: 24),
  (cut_id: 36, mch_id: 2, mode_id: 15, feed_rate: 23.0000, blade_speed: 11.2500, time: 10, energy_Wh: 24),
  (cut_id: 36, mch_id: 3, mode_id: 16, feed_rate: 28.7500, blade_speed: 3.7500, time: 8, energy_Wh: 33),
  (cut_id: 36, mch_id: 1, mode_id: 16, feed_rate: 28.7500, blade_speed: 3.7500, time: 8, energy_Wh: 33),
  (cut_id: 36, mch_id: 2, mode_id: 16, feed_rate: 28.7500, blade_speed: 3.7500, time: 8, energy_Wh: 33),
  (cut_id: 36, mch_id: 3, mode_id: 17, feed_rate: 28.7500, blade_speed: 5.6200, time: 8, energy_Wh: 37),
  (cut_id: 36, mch_id: 1, mode_id: 17, feed_rate: 28.7500, blade_speed: 5.6200, time: 8, energy_Wh: 37),
  (cut_id: 36, mch_id: 2, mode_id: 17, feed_rate: 28.7500, blade_speed: 5.6200, time: 8, energy_Wh: 37),
  (cut_id: 36, mch_id: 3, mode_id: 18, feed_rate: 28.7500, blade_speed: 7.5000, time: 8, energy_Wh: 57),
  (cut_id: 36, mch_id: 1, mode_id: 18, feed_rate: 28.7500, blade_speed: 7.5000, time: 8, energy_Wh: 57),
  (cut_id: 36, mch_id: 2, mode_id: 18, feed_rate: 28.7500, blade_speed: 7.5000, time: 8, energy_Wh: 57),
  (cut_id: 36, mch_id: 3, mode_id: 19, feed_rate: 28.7500, blade_speed: 9.3800, time: 8, energy_Wh: 49),
  (cut_id: 36, mch_id: 1, mode_id: 19, feed_rate: 28.7500, blade_speed: 9.3800, time: 8, energy_Wh: 49),
  (cut_id: 36, mch_id: 2, mode_id: 19, feed_rate: 28.7500, blade_speed: 9.3800, time: 8, energy_Wh: 49),
  (cut_id: 36, mch_id: 3, mode_id: 20, feed_rate: 28.7500, blade_speed: 11.2500, time: 8, energy_Wh: 34),
  (cut_id: 36, mch_id: 1, mode_id: 20, feed_rate: 28.7500, blade_speed: 11.2500, time: 8, energy_Wh: 34),
  (cut_id: 36, mch_id: 2, mode_id: 20, feed_rate: 28.7500, blade_speed: 11.2500, time: 8, energy_Wh: 34),
  (cut_id: 36, mch_id: 3, mode_id: 21, feed_rate: 34.5000, blade_speed: 3.7500, time: 7, energy_Wh: 46),
  (cut_id: 36, mch_id: 1, mode_id: 21, feed_rate: 34.5000, blade_speed: 3.7500, time: 7, energy_Wh: 46),
  (cut_id: 36, mch_id: 2, mode_id: 21, feed_rate: 34.5000, blade_speed: 3.7500, time: 7, energy_Wh: 46),
  (cut_id: 36, mch_id: 3, mode_id: 22, feed_rate: 34.5000, blade_speed: 5.6200, time: 7, energy_Wh: 42),
  (cut_id: 36, mch_id: 1, mode_id: 22, feed_rate: 34.5000, blade_speed: 5.6200, time: 7, energy_Wh: 42),
  (cut_id: 36, mch_id: 2, mode_id: 22, feed_rate: 34.5000, blade_speed: 5.6200, time: 7, energy_Wh: 42),
  (cut_id: 36, mch_id: 3, mode_id: 23, feed_rate: 34.5000, blade_speed: 7.5000, time: 7, energy_Wh: 71),
  (cut_id: 36, mch_id: 1, mode_id: 23, feed_rate: 34.5000, blade_speed: 7.5000, time: 7, energy_Wh: 71),
  (cut_id: 36, mch_id: 2, mode_id: 23, feed_rate: 34.5000, blade_speed: 7.5000, time: 7, energy_Wh: 71),
  (cut_id: 36, mch_id: 3, mode_id: 24, feed_rate: 34.5000, blade_speed: 9.3800, time: 7, energy_Wh: 41),
  (cut_id: 36, mch_id: 1, mode_id: 24, feed_rate: 34.5000, blade_speed: 9.3800, time: 7, energy_Wh: 41),
  (cut_id: 36, mch_id: 2, mode_id: 24, feed_rate: 34.5000, blade_speed: 9.3800, time: 7, energy_Wh: 41),
  (cut_id: 36, mch_id: 3, mode_id: 25, feed_rate: 34.5000, blade_speed: 11.2500, time: 7, energy_Wh: 35),
  (cut_id: 36, mch_id: 1, mode_id: 25, feed_rate: 34.5000, blade_speed: 11.2500, time: 7, energy_Wh: 35),
  (cut_id: 36, mch_id: 2, mode_id: 25, feed_rate: 34.5000, blade_speed: 11.2500, time: 7, energy_Wh: 35),
  (cut_id: 37, mch_id: 2, mode_id: 1, feed_rate: 9.0000, blade_speed: 2.2500, time: 3, energy_Wh: 21),
  (cut_id: 37, mch_id: 1, mode_id: 1, feed_rate: 9.0000, blade_speed: 2.2500, time: 3, energy_Wh: 21),
  (cut_id: 37, mch_id: 3, mode_id: 1, feed_rate: 9.0000, blade_speed: 2.2500, time: 3, energy_Wh: 21),
  (cut_id: 37, mch_id: 2, mode_id: 2, feed_rate: 9.0000, blade_speed: 3.3800, time: 3, energy_Wh: 20),
  (cut_id: 37, mch_id: 1, mode_id: 2, feed_rate: 9.0000, blade_speed: 3.3800, time: 3, energy_Wh: 20),
  (cut_id: 37, mch_id: 3, mode_id: 2, feed_rate: 9.0000, blade_speed: 3.3800, time: 3, energy_Wh: 20),
  (cut_id: 37, mch_id: 2, mode_id: 3, feed_rate: 9.0000, blade_speed: 4.5000, time: 3, energy_Wh: 14),
  (cut_id: 37, mch_id: 1, mode_id: 3, feed_rate: 9.0000, blade_speed: 4.5000, time: 3, energy_Wh: 14),
  (cut_id: 37, mch_id: 3, mode_id: 3, feed_rate: 9.0000, blade_speed: 4.5000, time: 3, energy_Wh: 14),
  (cut_id: 37, mch_id: 2, mode_id: 4, feed_rate: 9.0000, blade_speed: 5.6200, time: 3, energy_Wh: 15),
  (cut_id: 37, mch_id: 1, mode_id: 4, feed_rate: 9.0000, blade_speed: 5.6200, time: 3, energy_Wh: 15),
  (cut_id: 37, mch_id: 3, mode_id: 4, feed_rate: 9.0000, blade_speed: 5.6200, time: 3, energy_Wh: 15),
  (cut_id: 37, mch_id: 2, mode_id: 5, feed_rate: 9.0000, blade_speed: 6.7500, time: 3, energy_Wh: 28),
  (cut_id: 37, mch_id: 1, mode_id: 5, feed_rate: 9.0000, blade_speed: 6.7500, time: 3, energy_Wh: 28),
  (cut_id: 37, mch_id: 3, mode_id: 5, feed_rate: 9.0000, blade_speed: 6.7500, time: 3, energy_Wh: 28),
  (cut_id: 37, mch_id: 2, mode_id: 6, feed_rate: 13.5000, blade_speed: 2.2500, time: 2, energy_Wh: 28),
  (cut_id: 37, mch_id: 1, mode_id: 6, feed_rate: 13.5000, blade_speed: 2.2500, time: 2, energy_Wh: 28),
  (cut_id: 37, mch_id: 3, mode_id: 6, feed_rate: 13.5000, blade_speed: 2.2500, time: 2, energy_Wh: 28),
  (cut_id: 37, mch_id: 2, mode_id: 7, feed_rate: 13.5000, blade_speed: 3.3800, time: 2, energy_Wh: 19),
  (cut_id: 37, mch_id: 1, mode_id: 7, feed_rate: 13.5000, blade_speed: 3.3800, time: 2, energy_Wh: 19),
  (cut_id: 37, mch_id: 3, mode_id: 7, feed_rate: 13.5000, blade_speed: 3.3800, time: 2, energy_Wh: 19),
  (cut_id: 37, mch_id: 2, mode_id: 8, feed_rate: 13.5000, blade_speed: 4.5000, time: 2, energy_Wh: 18),
  (cut_id: 37, mch_id: 1, mode_id: 8, feed_rate: 13.5000, blade_speed: 4.5000, time: 2, energy_Wh: 18),
  (cut_id: 37, mch_id: 3, mode_id: 8, feed_rate: 13.5000, blade_speed: 4.5000, time: 2, energy_Wh: 18),
  (cut_id: 37, mch_id: 2, mode_id: 9, feed_rate: 13.5000, blade_speed: 5.6200, time: 2, energy_Wh: 17),
  (cut_id: 37, mch_id: 1, mode_id: 9, feed_rate: 13.5000, blade_speed: 5.6200, time: 2, energy_Wh: 17),
  (cut_id: 37, mch_id: 3, mode_id: 9, feed_rate: 13.5000, blade_speed: 5.6200, time: 2, energy_Wh: 17),
  (cut_id: 37, mch_id: 2, mode_id: 10, feed_rate: 13.5000, blade_speed: 6.7500, time: 2, energy_Wh: 31),
  (cut_id: 37, mch_id: 1, mode_id: 10, feed_rate: 13.5000, blade_speed: 6.7500, time: 2, energy_Wh: 31),
  (cut_id: 37, mch_id: 3, mode_id: 10, feed_rate: 13.5000, blade_speed: 6.7500, time: 2, energy_Wh: 31),
  (cut_id: 37, mch_id: 2, mode_id: 11, feed_rate: 18.0000, blade_speed: 2.2500, time: 2, energy_Wh: 29),
  (cut_id: 37, mch_id: 1, mode_id: 11, feed_rate: 18.0000, blade_speed: 2.2500, time: 2, energy_Wh: 29),
  (cut_id: 37, mch_id: 3, mode_id: 11, feed_rate: 18.0000, blade_speed: 2.2500, time: 2, energy_Wh: 29),
  (cut_id: 37, mch_id: 2, mode_id: 12, feed_rate: 18.0000, blade_speed: 3.3800, time: 2, energy_Wh: 19),
  (cut_id: 37, mch_id: 1, mode_id: 12, feed_rate: 18.0000, blade_speed: 3.3800, time: 2, energy_Wh: 19),
  (cut_id: 37, mch_id: 3, mode_id: 12, feed_rate: 18.0000, blade_speed: 3.3800, time: 2, energy_Wh: 19),
  (cut_id: 37, mch_id: 2, mode_id: 13, feed_rate: 18.0000, blade_speed: 4.5000, time: 2, energy_Wh: 19),
  (cut_id: 37, mch_id: 1, mode_id: 13, feed_rate: 18.0000, blade_speed: 4.5000, time: 2, energy_Wh: 19),
  (cut_id: 37, mch_id: 3, mode_id: 13, feed_rate: 18.0000, blade_speed: 4.5000, time: 2, energy_Wh: 19),
  (cut_id: 37, mch_id: 2, mode_id: 14, feed_rate: 18.0000, blade_speed: 5.6200, time: 2, energy_Wh: 22),
  (cut_id: 37, mch_id: 1, mode_id: 14, feed_rate: 18.0000, blade_speed: 5.6200, time: 2, energy_Wh: 22),
  (cut_id: 37, mch_id: 3, mode_id: 14, feed_rate: 18.0000, blade_speed: 5.6200, time: 2, energy_Wh: 22),
  (cut_id: 37, mch_id: 2, mode_id: 15, feed_rate: 18.0000, blade_speed: 6.7500, time: 2, energy_Wh: 33),
  (cut_id: 37, mch_id: 1, mode_id: 15, feed_rate: 18.0000, blade_speed: 6.7500, time: 2, energy_Wh: 33),
  (cut_id: 37, mch_id: 3, mode_id: 15, feed_rate: 18.0000, blade_speed: 6.7500, time: 2, energy_Wh: 33),
  (cut_id: 37, mch_id: 2, mode_id: 16, feed_rate: 22.5000, blade_speed: 2.2500, time: 1, energy_Wh: 37),
  (cut_id: 37, mch_id: 1, mode_id: 16, feed_rate: 22.5000, blade_speed: 2.2500, time: 1, energy_Wh: 37),
  (cut_id: 37, mch_id: 3, mode_id: 16, feed_rate: 22.5000, blade_speed: 2.2500, time: 1, energy_Wh: 37),
  (cut_id: 37, mch_id: 2, mode_id: 17, feed_rate: 22.5000, blade_speed: 3.3800, time: 1, energy_Wh: 23),
  (cut_id: 37, mch_id: 1, mode_id: 17, feed_rate: 22.5000, blade_speed: 3.3800, time: 1, energy_Wh: 23),
  (cut_id: 37, mch_id: 3, mode_id: 17, feed_rate: 22.5000, blade_speed: 3.3800, time: 1, energy_Wh: 23),
  (cut_id: 37, mch_id: 2, mode_id: 18, feed_rate: 22.5000, blade_speed: 4.5000, time: 1, energy_Wh: 20),
  (cut_id: 37, mch_id: 1, mode_id: 18, feed_rate: 22.5000, blade_speed: 4.5000, time: 1, energy_Wh: 20),
  (cut_id: 37, mch_id: 3, mode_id: 18, feed_rate: 22.5000, blade_speed: 4.5000, time: 1, energy_Wh: 20),
  (cut_id: 37, mch_id: 2, mode_id: 19, feed_rate: 22.5000, blade_speed: 5.6200, time: 1, energy_Wh: 24),
  (cut_id: 37, mch_id: 1, mode_id: 19, feed_rate: 22.5000, blade_speed: 5.6200, time: 1, energy_Wh: 24),
  (cut_id: 37, mch_id: 3, mode_id: 19, feed_rate: 22.5000, blade_speed: 5.6200, time: 1, energy_Wh: 24),
  (cut_id: 37, mch_id: 2, mode_id: 20, feed_rate: 22.5000, blade_speed: 6.7500, time: 1, energy_Wh: 32),
  (cut_id: 37, mch_id: 1, mode_id: 20, feed_rate: 22.5000, blade_speed: 6.7500, time: 1, energy_Wh: 32),
  (cut_id: 37, mch_id: 3, mode_id: 20, feed_rate: 22.5000, blade_speed: 6.7500, time: 1, energy_Wh: 32),
  (cut_id: 37, mch_id: 2, mode_id: 21, feed_rate: 27.0000, blade_speed: 2.2500, time: 1, energy_Wh: 32),
  (cut_id: 37, mch_id: 1, mode_id: 21, feed_rate: 27.0000, blade_speed: 2.2500, time: 1, energy_Wh: 32),
  (cut_id: 37, mch_id: 3, mode_id: 21, feed_rate: 27.0000, blade_speed: 2.2500, time: 1, energy_Wh: 32),
  (cut_id: 37, mch_id: 2, mode_id: 22, feed_rate: 27.0000, blade_speed: 3.3800, time: 1, energy_Wh: 30),
  (cut_id: 37, mch_id: 1, mode_id: 22, feed_rate: 27.0000, blade_speed: 3.3800, time: 1, energy_Wh: 30),
  (cut_id: 37, mch_id: 3, mode_id: 22, feed_rate: 27.0000, blade_speed: 3.3800, time: 1, energy_Wh: 30),
  (cut_id: 37, mch_id: 2, mode_id: 23, feed_rate: 27.0000, blade_speed: 4.5000, time: 1, energy_Wh: 18),
  (cut_id: 37, mch_id: 1, mode_id: 23, feed_rate: 27.0000, blade_speed: 4.5000, time: 1, energy_Wh: 18),
  (cut_id: 37, mch_id: 3, mode_id: 23, feed_rate: 27.0000, blade_speed: 4.5000, time: 1, energy_Wh: 18),
  (cut_id: 37, mch_id: 2, mode_id: 24, feed_rate: 27.0000, blade_speed: 5.6200, time: 1, energy_Wh: 22),
  (cut_id: 37, mch_id: 1, mode_id: 24, feed_rate: 27.0000, blade_speed: 5.6200, time: 1, energy_Wh: 22),
  (cut_id: 37, mch_id: 3, mode_id: 24, feed_rate: 27.0000, blade_speed: 5.6200, time: 1, energy_Wh: 22),
  (cut_id: 37, mch_id: 2, mode_id: 25, feed_rate: 27.0000, blade_speed: 6.7500, time: 1, energy_Wh: 30),
  (cut_id: 37, mch_id: 1, mode_id: 25, feed_rate: 27.0000, blade_speed: 6.7500, time: 1, energy_Wh: 30),
  (cut_id: 37, mch_id: 3, mode_id: 25, feed_rate: 27.0000, blade_speed: 6.7500, time: 1, energy_Wh: 30),
  (cut_id: 38, mch_id: 2, mode_id: 1, feed_rate: 15.5800, blade_speed: 6.0300, time: 14, energy_Wh: 33),
  (cut_id: 38, mch_id: 3, mode_id: 1, feed_rate: 15.5800, blade_speed: 6.0300, time: 14, energy_Wh: 33),
  (cut_id: 38, mch_id: 1, mode_id: 1, feed_rate: 15.5800, blade_speed: 6.0300, time: 14, energy_Wh: 33),
  (cut_id: 38, mch_id: 2, mode_id: 2, feed_rate: 15.5800, blade_speed: 9.0400, time: 14, energy_Wh: 47),
  (cut_id: 38, mch_id: 3, mode_id: 2, feed_rate: 15.5800, blade_speed: 9.0400, time: 14, energy_Wh: 47),
  (cut_id: 38, mch_id: 1, mode_id: 2, feed_rate: 15.5800, blade_speed: 9.0400, time: 14, energy_Wh: 47),
  (cut_id: 38, mch_id: 2, mode_id: 3, feed_rate: 15.5800, blade_speed: 12.0600, time: 14, energy_Wh: 36),
  (cut_id: 38, mch_id: 3, mode_id: 3, feed_rate: 15.5800, blade_speed: 12.0600, time: 14, energy_Wh: 36),
  (cut_id: 38, mch_id: 1, mode_id: 3, feed_rate: 15.5800, blade_speed: 12.0600, time: 14, energy_Wh: 36),
  (cut_id: 38, mch_id: 2, mode_id: 4, feed_rate: 15.5800, blade_speed: 15.0700, time: 14, energy_Wh: 48),
  (cut_id: 38, mch_id: 3, mode_id: 4, feed_rate: 15.5800, blade_speed: 15.0700, time: 14, energy_Wh: 48),
  (cut_id: 38, mch_id: 1, mode_id: 4, feed_rate: 15.5800, blade_speed: 15.0700, time: 14, energy_Wh: 48),
  (cut_id: 38, mch_id: 2, mode_id: 5, feed_rate: 15.5800, blade_speed: 18.0900, time: 14, energy_Wh: 34),
  (cut_id: 38, mch_id: 3, mode_id: 5, feed_rate: 15.5800, blade_speed: 18.0900, time: 14, energy_Wh: 34),
  (cut_id: 38, mch_id: 1, mode_id: 5, feed_rate: 15.5800, blade_speed: 18.0900, time: 14, energy_Wh: 34),
  (cut_id: 38, mch_id: 2, mode_id: 6, feed_rate: 23.3700, blade_speed: 6.0300, time: 9, energy_Wh: 43),
  (cut_id: 38, mch_id: 3, mode_id: 6, feed_rate: 23.3700, blade_speed: 6.0300, time: 9, energy_Wh: 43),
  (cut_id: 38, mch_id: 1, mode_id: 6, feed_rate: 23.3700, blade_speed: 6.0300, time: 9, energy_Wh: 43),
  (cut_id: 38, mch_id: 2, mode_id: 7, feed_rate: 23.3700, blade_speed: 9.0400, time: 9, energy_Wh: 52),
  (cut_id: 38, mch_id: 3, mode_id: 7, feed_rate: 23.3700, blade_speed: 9.0400, time: 9, energy_Wh: 52),
  (cut_id: 38, mch_id: 1, mode_id: 7, feed_rate: 23.3700, blade_speed: 9.0400, time: 9, energy_Wh: 52),
  (cut_id: 38, mch_id: 2, mode_id: 8, feed_rate: 23.3700, blade_speed: 12.0600, time: 9, energy_Wh: 34),
  (cut_id: 38, mch_id: 3, mode_id: 8, feed_rate: 23.3700, blade_speed: 12.0600, time: 9, energy_Wh: 34),
  (cut_id: 38, mch_id: 1, mode_id: 8, feed_rate: 23.3700, blade_speed: 12.0600, time: 9, energy_Wh: 34),
  (cut_id: 38, mch_id: 2, mode_id: 9, feed_rate: 23.3700, blade_speed: 15.0700, time: 9, energy_Wh: 59),
  (cut_id: 38, mch_id: 3, mode_id: 9, feed_rate: 23.3700, blade_speed: 15.0700, time: 9, energy_Wh: 59),
  (cut_id: 38, mch_id: 1, mode_id: 9, feed_rate: 23.3700, blade_speed: 15.0700, time: 9, energy_Wh: 59),
  (cut_id: 38, mch_id: 2, mode_id: 10, feed_rate: 23.3700, blade_speed: 18.0900, time: 9, energy_Wh: 31),
  (cut_id: 38, mch_id: 3, mode_id: 10, feed_rate: 23.3700, blade_speed: 18.0900, time: 9, energy_Wh: 31),
  (cut_id: 38, mch_id: 1, mode_id: 10, feed_rate: 23.3700, blade_speed: 18.0900, time: 9, energy_Wh: 31),
  (cut_id: 38, mch_id: 2, mode_id: 11, feed_rate: 31.1600, blade_speed: 6.0300, time: 7, energy_Wh: 36),
  (cut_id: 38, mch_id: 3, mode_id: 11, feed_rate: 31.1600, blade_speed: 6.0300, time: 7, energy_Wh: 36),
  (cut_id: 38, mch_id: 1, mode_id: 11, feed_rate: 31.1600, blade_speed: 6.0300, time: 7, energy_Wh: 36),
  (cut_id: 38, mch_id: 2, mode_id: 12, feed_rate: 31.1600, blade_speed: 9.0400, time: 7, energy_Wh: 57),
  (cut_id: 38, mch_id: 3, mode_id: 12, feed_rate: 31.1600, blade_speed: 9.0400, time: 7, energy_Wh: 57),
  (cut_id: 38, mch_id: 1, mode_id: 12, feed_rate: 31.1600, blade_speed: 9.0400, time: 7, energy_Wh: 57),
  (cut_id: 38, mch_id: 2, mode_id: 13, feed_rate: 31.1600, blade_speed: 12.0600, time: 7, energy_Wh: 46),
  (cut_id: 38, mch_id: 3, mode_id: 13, feed_rate: 31.1600, blade_speed: 12.0600, time: 7, energy_Wh: 46),
  (cut_id: 38, mch_id: 1, mode_id: 13, feed_rate: 31.1600, blade_speed: 12.0600, time: 7, energy_Wh: 46),
  (cut_id: 38, mch_id: 2, mode_id: 14, feed_rate: 31.1600, blade_speed: 15.0700, time: 7, energy_Wh: 53),
  (cut_id: 38, mch_id: 3, mode_id: 14, feed_rate: 31.1600, blade_speed: 15.0700, time: 7, energy_Wh: 53),
  (cut_id: 38, mch_id: 1, mode_id: 14, feed_rate: 31.1600, blade_speed: 15.0700, time: 7, energy_Wh: 53),
  (cut_id: 38, mch_id: 2, mode_id: 15, feed_rate: 31.1600, blade_speed: 18.0900, time: 7, energy_Wh: 47),
  (cut_id: 38, mch_id: 3, mode_id: 15, feed_rate: 31.1600, blade_speed: 18.0900, time: 7, energy_Wh: 47),
  (cut_id: 38, mch_id: 1, mode_id: 15, feed_rate: 31.1600, blade_speed: 18.0900, time: 7, energy_Wh: 47),
  (cut_id: 38, mch_id: 2, mode_id: 16, feed_rate: 38.9500, blade_speed: 6.0300, time: 6, energy_Wh: 61),
  (cut_id: 38, mch_id: 3, mode_id: 16, feed_rate: 38.9500, blade_speed: 6.0300, time: 6, energy_Wh: 61),
  (cut_id: 38, mch_id: 1, mode_id: 16, feed_rate: 38.9500, blade_speed: 6.0300, time: 6, energy_Wh: 61),
  (cut_id: 38, mch_id: 2, mode_id: 17, feed_rate: 38.9500, blade_speed: 9.0400, time: 6, energy_Wh: 53),
  (cut_id: 38, mch_id: 3, mode_id: 17, feed_rate: 38.9500, blade_speed: 9.0400, time: 6, energy_Wh: 53),
  (cut_id: 38, mch_id: 1, mode_id: 17, feed_rate: 38.9500, blade_speed: 9.0400, time: 6, energy_Wh: 53),
  (cut_id: 38, mch_id: 2, mode_id: 18, feed_rate: 38.9500, blade_speed: 12.0600, time: 6, energy_Wh: 53),
  (cut_id: 38, mch_id: 3, mode_id: 18, feed_rate: 38.9500, blade_speed: 12.0600, time: 6, energy_Wh: 53),
  (cut_id: 38, mch_id: 1, mode_id: 18, feed_rate: 38.9500, blade_speed: 12.0600, time: 6, energy_Wh: 53),
  (cut_id: 38, mch_id: 2, mode_id: 19, feed_rate: 38.9500, blade_speed: 15.0700, time: 6, energy_Wh: 55),
  (cut_id: 38, mch_id: 3, mode_id: 19, feed_rate: 38.9500, blade_speed: 15.0700, time: 6, energy_Wh: 55),
  (cut_id: 38, mch_id: 1, mode_id: 19, feed_rate: 38.9500, blade_speed: 15.0700, time: 6, energy_Wh: 55),
  (cut_id: 38, mch_id: 2, mode_id: 20, feed_rate: 38.9500, blade_speed: 18.0900, time: 6, energy_Wh: 52),
  (cut_id: 38, mch_id: 3, mode_id: 20, feed_rate: 38.9500, blade_speed: 18.0900, time: 6, energy_Wh: 52),
  (cut_id: 38, mch_id: 1, mode_id: 20, feed_rate: 38.9500, blade_speed: 18.0900, time: 6, energy_Wh: 52),
  (cut_id: 38, mch_id: 2, mode_id: 21, feed_rate: 46.7400, blade_speed: 6.0300, time: 5, energy_Wh: 58),
  (cut_id: 38, mch_id: 3, mode_id: 21, feed_rate: 46.7400, blade_speed: 6.0300, time: 5, energy_Wh: 58),
  (cut_id: 38, mch_id: 1, mode_id: 21, feed_rate: 46.7400, blade_speed: 6.0300, time: 5, energy_Wh: 58),
  (cut_id: 38, mch_id: 2, mode_id: 22, feed_rate: 46.7400, blade_speed: 9.0400, time: 5, energy_Wh: 61),
  (cut_id: 38, mch_id: 3, mode_id: 22, feed_rate: 46.7400, blade_speed: 9.0400, time: 5, energy_Wh: 61),
  (cut_id: 38, mch_id: 1, mode_id: 22, feed_rate: 46.7400, blade_speed: 9.0400, time: 5, energy_Wh: 61),
  (cut_id: 38, mch_id: 2, mode_id: 23, feed_rate: 46.7400, blade_speed: 12.0600, time: 5, energy_Wh: 59),
  (cut_id: 38, mch_id: 3, mode_id: 23, feed_rate: 46.7400, blade_speed: 12.0600, time: 5, energy_Wh: 59),
  (cut_id: 38, mch_id: 1, mode_id: 23, feed_rate: 46.7400, blade_speed: 12.0600, time: 5, energy_Wh: 59),
  (cut_id: 38, mch_id: 2, mode_id: 24, feed_rate: 46.7400, blade_speed: 15.0700, time: 5, energy_Wh: 69),
  (cut_id: 38, mch_id: 3, mode_id: 24, feed_rate: 46.7400, blade_speed: 15.0700, time: 5, energy_Wh: 69),
  (cut_id: 38, mch_id: 1, mode_id: 24, feed_rate: 46.7400, blade_speed: 15.0700, time: 5, energy_Wh: 69),
  (cut_id: 38, mch_id: 2, mode_id: 25, feed_rate: 46.7400, blade_speed: 18.0900, time: 5, energy_Wh: 42),
  (cut_id: 38, mch_id: 3, mode_id: 25, feed_rate: 46.7400, blade_speed: 18.0900, time: 5, energy_Wh: 42),
  (cut_id: 38, mch_id: 1, mode_id: 25, feed_rate: 46.7400, blade_speed: 18.0900, time: 5, energy_Wh: 42),
  (cut_id: 39, mch_id: 3, mode_id: 1, feed_rate: 10.2900, blade_speed: 2.8400, time: 12, energy_Wh: 27),
  (cut_id: 39, mch_id: 1, mode_id: 1, feed_rate: 10.2900, blade_speed: 2.8400, time: 12, energy_Wh: 27),
  (cut_id: 39, mch_id: 2, mode_id: 1, feed_rate: 10.2900, blade_speed: 2.8400, time: 12, energy_Wh: 27),
  (cut_id: 39, mch_id: 3, mode_id: 2, feed_rate: 10.2900, blade_speed: 4.2600, time: 12, energy_Wh: 24),
  (cut_id: 39, mch_id: 1, mode_id: 2, feed_rate: 10.2900, blade_speed: 4.2600, time: 12, energy_Wh: 24),
  (cut_id: 39, mch_id: 2, mode_id: 2, feed_rate: 10.2900, blade_speed: 4.2600, time: 12, energy_Wh: 24),
  (cut_id: 39, mch_id: 3, mode_id: 3, feed_rate: 10.2900, blade_speed: 5.6900, time: 12, energy_Wh: 28),
  (cut_id: 39, mch_id: 1, mode_id: 3, feed_rate: 10.2900, blade_speed: 5.6900, time: 12, energy_Wh: 28),
  (cut_id: 39, mch_id: 2, mode_id: 3, feed_rate: 10.2900, blade_speed: 5.6900, time: 12, energy_Wh: 28),
  (cut_id: 39, mch_id: 3, mode_id: 4, feed_rate: 10.2900, blade_speed: 7.1100, time: 12, energy_Wh: 30),
  (cut_id: 39, mch_id: 1, mode_id: 4, feed_rate: 10.2900, blade_speed: 7.1100, time: 12, energy_Wh: 30),
  (cut_id: 39, mch_id: 2, mode_id: 4, feed_rate: 10.2900, blade_speed: 7.1100, time: 12, energy_Wh: 30),
  (cut_id: 39, mch_id: 3, mode_id: 5, feed_rate: 10.2900, blade_speed: 8.5300, time: 12, energy_Wh: 41),
  (cut_id: 39, mch_id: 1, mode_id: 5, feed_rate: 10.2900, blade_speed: 8.5300, time: 12, energy_Wh: 41),
  (cut_id: 39, mch_id: 2, mode_id: 5, feed_rate: 10.2900, blade_speed: 8.5300, time: 12, energy_Wh: 41),
  (cut_id: 39, mch_id: 3, mode_id: 6, feed_rate: 15.4400, blade_speed: 2.8400, time: 8, energy_Wh: 28),
  (cut_id: 39, mch_id: 1, mode_id: 6, feed_rate: 15.4400, blade_speed: 2.8400, time: 8, energy_Wh: 28),
  (cut_id: 39, mch_id: 2, mode_id: 6, feed_rate: 15.4400, blade_speed: 2.8400, time: 8, energy_Wh: 28),
  (cut_id: 39, mch_id: 3, mode_id: 7, feed_rate: 15.4400, blade_speed: 4.2600, time: 8, energy_Wh: 26),
  (cut_id: 39, mch_id: 1, mode_id: 7, feed_rate: 15.4400, blade_speed: 4.2600, time: 8, energy_Wh: 26),
  (cut_id: 39, mch_id: 2, mode_id: 7, feed_rate: 15.4400, blade_speed: 4.2600, time: 8, energy_Wh: 26),
  (cut_id: 39, mch_id: 3, mode_id: 8, feed_rate: 15.4400, blade_speed: 5.6900, time: 8, energy_Wh: 32),
  (cut_id: 39, mch_id: 1, mode_id: 8, feed_rate: 15.4400, blade_speed: 5.6900, time: 8, energy_Wh: 32),
  (cut_id: 39, mch_id: 2, mode_id: 8, feed_rate: 15.4400, blade_speed: 5.6900, time: 8, energy_Wh: 32),
  (cut_id: 39, mch_id: 3, mode_id: 9, feed_rate: 15.4400, blade_speed: 7.1100, time: 8, energy_Wh: 33),
  (cut_id: 39, mch_id: 1, mode_id: 9, feed_rate: 15.4400, blade_speed: 7.1100, time: 8, energy_Wh: 33),
  (cut_id: 39, mch_id: 2, mode_id: 9, feed_rate: 15.4400, blade_speed: 7.1100, time: 8, energy_Wh: 33),
  (cut_id: 39, mch_id: 3, mode_id: 10, feed_rate: 15.4400, blade_speed: 8.5300, time: 8, energy_Wh: 39),
  (cut_id: 39, mch_id: 1, mode_id: 10, feed_rate: 15.4400, blade_speed: 8.5300, time: 8, energy_Wh: 39),
  (cut_id: 39, mch_id: 2, mode_id: 10, feed_rate: 15.4400, blade_speed: 8.5300, time: 8, energy_Wh: 39),
  (cut_id: 39, mch_id: 3, mode_id: 11, feed_rate: 20.5800, blade_speed: 2.8400, time: 6, energy_Wh: 31),
  (cut_id: 39, mch_id: 1, mode_id: 11, feed_rate: 20.5800, blade_speed: 2.8400, time: 6, energy_Wh: 31),
  (cut_id: 39, mch_id: 2, mode_id: 11, feed_rate: 20.5800, blade_speed: 2.8400, time: 6, energy_Wh: 31),
  (cut_id: 39, mch_id: 3, mode_id: 12, feed_rate: 20.5800, blade_speed: 4.2600, time: 6, energy_Wh: 26),
  (cut_id: 39, mch_id: 1, mode_id: 12, feed_rate: 20.5800, blade_speed: 4.2600, time: 6, energy_Wh: 26),
  (cut_id: 39, mch_id: 2, mode_id: 12, feed_rate: 20.5800, blade_speed: 4.2600, time: 6, energy_Wh: 26),
  (cut_id: 39, mch_id: 3, mode_id: 13, feed_rate: 20.5800, blade_speed: 5.6900, time: 6, energy_Wh: 24),
  (cut_id: 39, mch_id: 1, mode_id: 13, feed_rate: 20.5800, blade_speed: 5.6900, time: 6, energy_Wh: 24),
  (cut_id: 39, mch_id: 2, mode_id: 13, feed_rate: 20.5800, blade_speed: 5.6900, time: 6, energy_Wh: 24),
  (cut_id: 39, mch_id: 3, mode_id: 14, feed_rate: 20.5800, blade_speed: 7.1100, time: 6, energy_Wh: 43),
  (cut_id: 39, mch_id: 1, mode_id: 14, feed_rate: 20.5800, blade_speed: 7.1100, time: 6, energy_Wh: 43),
  (cut_id: 39, mch_id: 2, mode_id: 14, feed_rate: 20.5800, blade_speed: 7.1100, time: 6, energy_Wh: 43),
  (cut_id: 39, mch_id: 3, mode_id: 15, feed_rate: 20.5800, blade_speed: 8.5300, time: 6, energy_Wh: 38),
  (cut_id: 39, mch_id: 1, mode_id: 15, feed_rate: 20.5800, blade_speed: 8.5300, time: 6, energy_Wh: 38),
  (cut_id: 39, mch_id: 2, mode_id: 15, feed_rate: 20.5800, blade_speed: 8.5300, time: 6, energy_Wh: 38),
  (cut_id: 39, mch_id: 3, mode_id: 16, feed_rate: 25.7300, blade_speed: 2.8400, time: 5, energy_Wh: 36),
  (cut_id: 39, mch_id: 1, mode_id: 16, feed_rate: 25.7300, blade_speed: 2.8400, time: 5, energy_Wh: 36),
  (cut_id: 39, mch_id: 2, mode_id: 16, feed_rate: 25.7300, blade_speed: 2.8400, time: 5, energy_Wh: 36),
  (cut_id: 39, mch_id: 3, mode_id: 17, feed_rate: 25.7300, blade_speed: 4.2600, time: 5, energy_Wh: 30),
  (cut_id: 39, mch_id: 1, mode_id: 17, feed_rate: 25.7300, blade_speed: 4.2600, time: 5, energy_Wh: 30),
  (cut_id: 39, mch_id: 2, mode_id: 17, feed_rate: 25.7300, blade_speed: 4.2600, time: 5, energy_Wh: 30),
  (cut_id: 39, mch_id: 3, mode_id: 18, feed_rate: 25.7300, blade_speed: 5.6900, time: 5, energy_Wh: 28),
  (cut_id: 39, mch_id: 1, mode_id: 18, feed_rate: 25.7300, blade_speed: 5.6900, time: 5, energy_Wh: 28),
  (cut_id: 39, mch_id: 2, mode_id: 18, feed_rate: 25.7300, blade_speed: 5.6900, time: 5, energy_Wh: 28),
  (cut_id: 39, mch_id: 3, mode_id: 19, feed_rate: 25.7300, blade_speed: 7.1100, time: 5, energy_Wh: 40),
  (cut_id: 39, mch_id: 1, mode_id: 19, feed_rate: 25.7300, blade_speed: 7.1100, time: 5, energy_Wh: 40),
  (cut_id: 39, mch_id: 2, mode_id: 19, feed_rate: 25.7300, blade_speed: 7.1100, time: 5, energy_Wh: 40),
  (cut_id: 39, mch_id: 3, mode_id: 20, feed_rate: 25.7300, blade_speed: 8.5300, time: 5, energy_Wh: 43),
  (cut_id: 39, mch_id: 1, mode_id: 20, feed_rate: 25.7300, blade_speed: 8.5300, time: 5, energy_Wh: 43),
  (cut_id: 39, mch_id: 2, mode_id: 20, feed_rate: 25.7300, blade_speed: 8.5300, time: 5, energy_Wh: 43),
  (cut_id: 39, mch_id: 3, mode_id: 21, feed_rate: 30.8700, blade_speed: 2.8400, time: 4, energy_Wh: 43),
  (cut_id: 39, mch_id: 1, mode_id: 21, feed_rate: 30.8700, blade_speed: 2.8400, time: 4, energy_Wh: 43),
  (cut_id: 39, mch_id: 2, mode_id: 21, feed_rate: 30.8700, blade_speed: 2.8400, time: 4, energy_Wh: 43),
  (cut_id: 39, mch_id: 3, mode_id: 22, feed_rate: 30.8700, blade_speed: 4.2600, time: 4, energy_Wh: 32),
  (cut_id: 39, mch_id: 1, mode_id: 22, feed_rate: 30.8700, blade_speed: 4.2600, time: 4, energy_Wh: 32),
  (cut_id: 39, mch_id: 2, mode_id: 22, feed_rate: 30.8700, blade_speed: 4.2600, time: 4, energy_Wh: 32),
  (cut_id: 39, mch_id: 3, mode_id: 23, feed_rate: 30.8700, blade_speed: 5.6900, time: 4, energy_Wh: 36),
  (cut_id: 39, mch_id: 1, mode_id: 23, feed_rate: 30.8700, blade_speed: 5.6900, time: 4, energy_Wh: 36),
  (cut_id: 39, mch_id: 2, mode_id: 23, feed_rate: 30.8700, blade_speed: 5.6900, time: 4, energy_Wh: 36),
  (cut_id: 39, mch_id: 3, mode_id: 24, feed_rate: 30.8700, blade_speed: 7.1100, time: 4, energy_Wh: 52),
  (cut_id: 39, mch_id: 1, mode_id: 24, feed_rate: 30.8700, blade_speed: 7.1100, time: 4, energy_Wh: 52),
  (cut_id: 39, mch_id: 2, mode_id: 24, feed_rate: 30.8700, blade_speed: 7.1100, time: 4, energy_Wh: 52),
  (cut_id: 39, mch_id: 3, mode_id: 25, feed_rate: 30.8700, blade_speed: 8.5300, time: 4, energy_Wh: 55),
  (cut_id: 39, mch_id: 1, mode_id: 25, feed_rate: 30.8700, blade_speed: 8.5300, time: 4, energy_Wh: 55),
  (cut_id: 39, mch_id: 2, mode_id: 25, feed_rate: 30.8700, blade_speed: 8.5300, time: 4, energy_Wh: 55),
  (cut_id: 40, mch_id: 2, mode_id: 1, feed_rate: 22.5000, blade_speed: 5.7500, time: 3, energy_Wh: 34),
  (cut_id: 40, mch_id: 1, mode_id: 1, feed_rate: 22.5000, blade_speed: 5.7500, time: 3, energy_Wh: 34),
  (cut_id: 40, mch_id: 3, mode_id: 1, feed_rate: 22.5000, blade_speed: 5.7500, time: 3, energy_Wh: 34),
  (cut_id: 40, mch_id: 2, mode_id: 2, feed_rate: 22.5000, blade_speed: 8.6200, time: 3, energy_Wh: 60),
  (cut_id: 40, mch_id: 1, mode_id: 2, feed_rate: 22.5000, blade_speed: 8.6200, time: 3, energy_Wh: 60),
  (cut_id: 40, mch_id: 3, mode_id: 2, feed_rate: 22.5000, blade_speed: 8.6200, time: 3, energy_Wh: 60),
  (cut_id: 40, mch_id: 2, mode_id: 3, feed_rate: 22.5000, blade_speed: 11.5000, time: 3, energy_Wh: 38),
  (cut_id: 40, mch_id: 1, mode_id: 3, feed_rate: 22.5000, blade_speed: 11.5000, time: 3, energy_Wh: 38),
  (cut_id: 40, mch_id: 3, mode_id: 3, feed_rate: 22.5000, blade_speed: 11.5000, time: 3, energy_Wh: 38),
  (cut_id: 40, mch_id: 2, mode_id: 4, feed_rate: 22.5000, blade_speed: 14.3800, time: 3, energy_Wh: 57),
  (cut_id: 40, mch_id: 1, mode_id: 4, feed_rate: 22.5000, blade_speed: 14.3800, time: 3, energy_Wh: 57),
  (cut_id: 40, mch_id: 3, mode_id: 4, feed_rate: 22.5000, blade_speed: 14.3800, time: 3, energy_Wh: 57),
  (cut_id: 40, mch_id: 2, mode_id: 5, feed_rate: 22.5000, blade_speed: 17.2500, time: 3, energy_Wh: 40),
  (cut_id: 40, mch_id: 1, mode_id: 5, feed_rate: 22.5000, blade_speed: 17.2500, time: 3, energy_Wh: 40),
  (cut_id: 40, mch_id: 3, mode_id: 5, feed_rate: 22.5000, blade_speed: 17.2500, time: 3, energy_Wh: 40),
  (cut_id: 40, mch_id: 2, mode_id: 6, feed_rate: 33.7500, blade_speed: 5.7500, time: 2, energy_Wh: 39),
  (cut_id: 40, mch_id: 1, mode_id: 6, feed_rate: 33.7500, blade_speed: 5.7500, time: 2, energy_Wh: 39),
  (cut_id: 40, mch_id: 3, mode_id: 6, feed_rate: 33.7500, blade_speed: 5.7500, time: 2, energy_Wh: 39),
  (cut_id: 40, mch_id: 2, mode_id: 7, feed_rate: 33.7500, blade_speed: 8.6200, time: 2, energy_Wh: 75),
  (cut_id: 40, mch_id: 1, mode_id: 7, feed_rate: 33.7500, blade_speed: 8.6200, time: 2, energy_Wh: 75),
  (cut_id: 40, mch_id: 3, mode_id: 7, feed_rate: 33.7500, blade_speed: 8.6200, time: 2, energy_Wh: 75),
  (cut_id: 40, mch_id: 2, mode_id: 8, feed_rate: 33.7500, blade_speed: 11.5000, time: 2, energy_Wh: 41),
  (cut_id: 40, mch_id: 1, mode_id: 8, feed_rate: 33.7500, blade_speed: 11.5000, time: 2, energy_Wh: 41),
  (cut_id: 40, mch_id: 3, mode_id: 8, feed_rate: 33.7500, blade_speed: 11.5000, time: 2, energy_Wh: 41),
  (cut_id: 40, mch_id: 2, mode_id: 9, feed_rate: 33.7500, blade_speed: 14.3800, time: 2, energy_Wh: 74),
  (cut_id: 40, mch_id: 1, mode_id: 9, feed_rate: 33.7500, blade_speed: 14.3800, time: 2, energy_Wh: 74),
  (cut_id: 40, mch_id: 3, mode_id: 9, feed_rate: 33.7500, blade_speed: 14.3800, time: 2, energy_Wh: 74),
  (cut_id: 40, mch_id: 2, mode_id: 10, feed_rate: 33.7500, blade_speed: 17.2500, time: 2, energy_Wh: 37),
  (cut_id: 40, mch_id: 1, mode_id: 10, feed_rate: 33.7500, blade_speed: 17.2500, time: 2, energy_Wh: 37),
  (cut_id: 40, mch_id: 3, mode_id: 10, feed_rate: 33.7500, blade_speed: 17.2500, time: 2, energy_Wh: 37),
  (cut_id: 40, mch_id: 2, mode_id: 11, feed_rate: 45.0000, blade_speed: 5.7500, time: 2, energy_Wh: 45),
  (cut_id: 40, mch_id: 1, mode_id: 11, feed_rate: 45.0000, blade_speed: 5.7500, time: 2, energy_Wh: 45),
  (cut_id: 40, mch_id: 3, mode_id: 11, feed_rate: 45.0000, blade_speed: 5.7500, time: 2, energy_Wh: 45),
  (cut_id: 40, mch_id: 2, mode_id: 12, feed_rate: 45.0000, blade_speed: 8.6200, time: 2, energy_Wh: 76),
  (cut_id: 40, mch_id: 1, mode_id: 12, feed_rate: 45.0000, blade_speed: 8.6200, time: 2, energy_Wh: 76),
  (cut_id: 40, mch_id: 3, mode_id: 12, feed_rate: 45.0000, blade_speed: 8.6200, time: 2, energy_Wh: 76),
  (cut_id: 40, mch_id: 2, mode_id: 13, feed_rate: 45.0000, blade_speed: 11.5000, time: 2, energy_Wh: 51),
  (cut_id: 40, mch_id: 1, mode_id: 13, feed_rate: 45.0000, blade_speed: 11.5000, time: 2, energy_Wh: 51),
  (cut_id: 40, mch_id: 3, mode_id: 13, feed_rate: 45.0000, blade_speed: 11.5000, time: 2, energy_Wh: 51),
  (cut_id: 40, mch_id: 2, mode_id: 14, feed_rate: 45.0000, blade_speed: 14.3800, time: 2, energy_Wh: 91),
  (cut_id: 40, mch_id: 1, mode_id: 14, feed_rate: 45.0000, blade_speed: 14.3800, time: 2, energy_Wh: 91),
  (cut_id: 40, mch_id: 3, mode_id: 14, feed_rate: 45.0000, blade_speed: 14.3800, time: 2, energy_Wh: 91),
  (cut_id: 40, mch_id: 2, mode_id: 15, feed_rate: 45.0000, blade_speed: 17.2500, time: 2, energy_Wh: 50),
  (cut_id: 40, mch_id: 1, mode_id: 15, feed_rate: 45.0000, blade_speed: 17.2500, time: 2, energy_Wh: 50),
  (cut_id: 40, mch_id: 3, mode_id: 15, feed_rate: 45.0000, blade_speed: 17.2500, time: 2, energy_Wh: 50),
  (cut_id: 40, mch_id: 2, mode_id: 16, feed_rate: 56.2500, blade_speed: 5.7500, time: 2, energy_Wh: 59),
  (cut_id: 40, mch_id: 1, mode_id: 16, feed_rate: 56.2500, blade_speed: 5.7500, time: 2, energy_Wh: 59),
  (cut_id: 40, mch_id: 3, mode_id: 16, feed_rate: 56.2500, blade_speed: 5.7500, time: 2, energy_Wh: 59),
  (cut_id: 40, mch_id: 2, mode_id: 17, feed_rate: 56.2500, blade_speed: 8.6200, time: 2, energy_Wh: 92),
  (cut_id: 40, mch_id: 1, mode_id: 17, feed_rate: 56.2500, blade_speed: 8.6200, time: 2, energy_Wh: 92),
  (cut_id: 40, mch_id: 3, mode_id: 17, feed_rate: 56.2500, blade_speed: 8.6200, time: 2, energy_Wh: 92),
  (cut_id: 40, mch_id: 2, mode_id: 18, feed_rate: 56.2500, blade_speed: 11.5000, time: 2, energy_Wh: 47),
  (cut_id: 40, mch_id: 1, mode_id: 18, feed_rate: 56.2500, blade_speed: 11.5000, time: 2, energy_Wh: 47),
  (cut_id: 40, mch_id: 3, mode_id: 18, feed_rate: 56.2500, blade_speed: 11.5000, time: 2, energy_Wh: 47),
  (cut_id: 40, mch_id: 2, mode_id: 19, feed_rate: 56.2500, blade_speed: 14.3800, time: 2, energy_Wh: 95),
  (cut_id: 40, mch_id: 1, mode_id: 19, feed_rate: 56.2500, blade_speed: 14.3800, time: 2, energy_Wh: 95),
  (cut_id: 40, mch_id: 3, mode_id: 19, feed_rate: 56.2500, blade_speed: 14.3800, time: 2, energy_Wh: 95),
  (cut_id: 40, mch_id: 2, mode_id: 20, feed_rate: 56.2500, blade_speed: 17.2500, time: 2, energy_Wh: 51),
  (cut_id: 40, mch_id: 1, mode_id: 20, feed_rate: 56.2500, blade_speed: 17.2500, time: 2, energy_Wh: 51),
  (cut_id: 40, mch_id: 3, mode_id: 20, feed_rate: 56.2500, blade_speed: 17.2500, time: 2, energy_Wh: 51),
  (cut_id: 40, mch_id: 2, mode_id: 21, feed_rate: 67.5000, blade_speed: 5.7500, time: 1, energy_Wh: 85),
  (cut_id: 40, mch_id: 1, mode_id: 21, feed_rate: 67.5000, blade_speed: 5.7500, time: 1, energy_Wh: 85),
  (cut_id: 40, mch_id: 3, mode_id: 21, feed_rate: 67.5000, blade_speed: 5.7500, time: 1, energy_Wh: 85),
  (cut_id: 40, mch_id: 2, mode_id: 22, feed_rate: 67.5000, blade_speed: 8.6200, time: 1, energy_Wh: 91),
  (cut_id: 40, mch_id: 1, mode_id: 22, feed_rate: 67.5000, blade_speed: 8.6200, time: 1, energy_Wh: 91),
  (cut_id: 40, mch_id: 3, mode_id: 22, feed_rate: 67.5000, blade_speed: 8.6200, time: 1, energy_Wh: 91),
  (cut_id: 40, mch_id: 2, mode_id: 23, feed_rate: 67.5000, blade_speed: 11.5000, time: 1, energy_Wh: 54),
  (cut_id: 40, mch_id: 1, mode_id: 23, feed_rate: 67.5000, blade_speed: 11.5000, time: 1, energy_Wh: 54),
  (cut_id: 40, mch_id: 3, mode_id: 23, feed_rate: 67.5000, blade_speed: 11.5000, time: 1, energy_Wh: 54),
  (cut_id: 40, mch_id: 2, mode_id: 24, feed_rate: 67.5000, blade_speed: 14.3800, time: 1, energy_Wh: 122),
  (cut_id: 40, mch_id: 1, mode_id: 24, feed_rate: 67.5000, blade_speed: 14.3800, time: 1, energy_Wh: 122),
  (cut_id: 40, mch_id: 3, mode_id: 24, feed_rate: 67.5000, blade_speed: 14.3800, time: 1, energy_Wh: 122),
  (cut_id: 40, mch_id: 2, mode_id: 25, feed_rate: 67.5000, blade_speed: 17.2500, time: 1, energy_Wh: 70),
  (cut_id: 40, mch_id: 1, mode_id: 25, feed_rate: 67.5000, blade_speed: 17.2500, time: 1, energy_Wh: 70),
  (cut_id: 40, mch_id: 3, mode_id: 25, feed_rate: 67.5000, blade_speed: 17.2500, time: 1, energy_Wh: 70),
  (cut_id: 41, mch_id: 1, mode_id: 1, feed_rate: 17.5000, blade_speed: 50.0000, time: 54, energy_Wh: 83),
  (cut_id: 41, mch_id: 3, mode_id: 1, feed_rate: 17.5000, blade_speed: 50.0000, time: 54, energy_Wh: 83),
  (cut_id: 41, mch_id: 2, mode_id: 1, feed_rate: 17.5000, blade_speed: 50.0000, time: 54, energy_Wh: 83),
  (cut_id: 41, mch_id: 1, mode_id: 2, feed_rate: 17.5000, blade_speed: 75.0000, time: 54, energy_Wh: 67),
  (cut_id: 41, mch_id: 3, mode_id: 2, feed_rate: 17.5000, blade_speed: 75.0000, time: 54, energy_Wh: 67),
  (cut_id: 41, mch_id: 2, mode_id: 2, feed_rate: 17.5000, blade_speed: 75.0000, time: 54, energy_Wh: 67),
  (cut_id: 41, mch_id: 1, mode_id: 3, feed_rate: 17.5000, blade_speed: 100.0000, time: 54, energy_Wh: 69),
  (cut_id: 41, mch_id: 3, mode_id: 3, feed_rate: 17.5000, blade_speed: 100.0000, time: 54, energy_Wh: 69),
  (cut_id: 41, mch_id: 2, mode_id: 3, feed_rate: 17.5000, blade_speed: 100.0000, time: 54, energy_Wh: 69),
  (cut_id: 41, mch_id: 1, mode_id: 4, feed_rate: 17.5000, blade_speed: 125.0000, time: 54, energy_Wh: 79),
  (cut_id: 41, mch_id: 3, mode_id: 4, feed_rate: 17.5000, blade_speed: 125.0000, time: 54, energy_Wh: 79),
  (cut_id: 41, mch_id: 2, mode_id: 4, feed_rate: 17.5000, blade_speed: 125.0000, time: 54, energy_Wh: 79),
  (cut_id: 41, mch_id: 1, mode_id: 5, feed_rate: 17.5000, blade_speed: 150.0000, time: 54, energy_Wh: 79),
  (cut_id: 41, mch_id: 3, mode_id: 5, feed_rate: 17.5000, blade_speed: 150.0000, time: 54, energy_Wh: 79),
  (cut_id: 41, mch_id: 2, mode_id: 5, feed_rate: 17.5000, blade_speed: 150.0000, time: 54, energy_Wh: 79),
  (cut_id: 41, mch_id: 1, mode_id: 6, feed_rate: 26.2500, blade_speed: 50.0000, time: 36, energy_Wh: 75),
  (cut_id: 41, mch_id: 3, mode_id: 6, feed_rate: 26.2500, blade_speed: 50.0000, time: 36, energy_Wh: 75),
  (cut_id: 41, mch_id: 2, mode_id: 6, feed_rate: 26.2500, blade_speed: 50.0000, time: 36, energy_Wh: 75),
  (cut_id: 41, mch_id: 1, mode_id: 7, feed_rate: 26.2500, blade_speed: 75.0000, time: 36, energy_Wh: 86),
  (cut_id: 41, mch_id: 3, mode_id: 7, feed_rate: 26.2500, blade_speed: 75.0000, time: 36, energy_Wh: 86),
  (cut_id: 41, mch_id: 2, mode_id: 7, feed_rate: 26.2500, blade_speed: 75.0000, time: 36, energy_Wh: 86),
  (cut_id: 41, mch_id: 1, mode_id: 8, feed_rate: 26.2500, blade_speed: 100.0000, time: 36, energy_Wh: 72),
  (cut_id: 41, mch_id: 3, mode_id: 8, feed_rate: 26.2500, blade_speed: 100.0000, time: 36, energy_Wh: 72),
  (cut_id: 41, mch_id: 2, mode_id: 8, feed_rate: 26.2500, blade_speed: 100.0000, time: 36, energy_Wh: 72),
  (cut_id: 41, mch_id: 1, mode_id: 9, feed_rate: 26.2500, blade_speed: 125.0000, time: 36, energy_Wh: 97),
  (cut_id: 41, mch_id: 3, mode_id: 9, feed_rate: 26.2500, blade_speed: 125.0000, time: 36, energy_Wh: 97),
  (cut_id: 41, mch_id: 2, mode_id: 9, feed_rate: 26.2500, blade_speed: 125.0000, time: 36, energy_Wh: 97),
  (cut_id: 41, mch_id: 1, mode_id: 10, feed_rate: 26.2500, blade_speed: 150.0000, time: 36, energy_Wh: 93),
  (cut_id: 41, mch_id: 3, mode_id: 10, feed_rate: 26.2500, blade_speed: 150.0000, time: 36, energy_Wh: 93),
  (cut_id: 41, mch_id: 2, mode_id: 10, feed_rate: 26.2500, blade_speed: 150.0000, time: 36, energy_Wh: 93),
  (cut_id: 41, mch_id: 1, mode_id: 11, feed_rate: 35.0000, blade_speed: 50.0000, time: 27, energy_Wh: 99),
  (cut_id: 41, mch_id: 3, mode_id: 11, feed_rate: 35.0000, blade_speed: 50.0000, time: 27, energy_Wh: 99),
  (cut_id: 41, mch_id: 2, mode_id: 11, feed_rate: 35.0000, blade_speed: 50.0000, time: 27, energy_Wh: 99),
  (cut_id: 41, mch_id: 1, mode_id: 12, feed_rate: 35.0000, blade_speed: 75.0000, time: 27, energy_Wh: 112),
  (cut_id: 41, mch_id: 3, mode_id: 12, feed_rate: 35.0000, blade_speed: 75.0000, time: 27, energy_Wh: 112),
  (cut_id: 41, mch_id: 2, mode_id: 12, feed_rate: 35.0000, blade_speed: 75.0000, time: 27, energy_Wh: 112),
  (cut_id: 41, mch_id: 1, mode_id: 13, feed_rate: 35.0000, blade_speed: 100.0000, time: 27, energy_Wh: 85),
  (cut_id: 41, mch_id: 3, mode_id: 13, feed_rate: 35.0000, blade_speed: 100.0000, time: 27, energy_Wh: 85),
  (cut_id: 41, mch_id: 2, mode_id: 13, feed_rate: 35.0000, blade_speed: 100.0000, time: 27, energy_Wh: 85),
  (cut_id: 41, mch_id: 1, mode_id: 14, feed_rate: 35.0000, blade_speed: 125.0000, time: 27, energy_Wh: 103),
  (cut_id: 41, mch_id: 3, mode_id: 14, feed_rate: 35.0000, blade_speed: 125.0000, time: 27, energy_Wh: 103),
  (cut_id: 41, mch_id: 2, mode_id: 14, feed_rate: 35.0000, blade_speed: 125.0000, time: 27, energy_Wh: 103),
  (cut_id: 41, mch_id: 1, mode_id: 15, feed_rate: 35.0000, blade_speed: 150.0000, time: 27, energy_Wh: 76),
  (cut_id: 41, mch_id: 3, mode_id: 15, feed_rate: 35.0000, blade_speed: 150.0000, time: 27, energy_Wh: 76),
  (cut_id: 41, mch_id: 2, mode_id: 15, feed_rate: 35.0000, blade_speed: 150.0000, time: 27, energy_Wh: 76),
  (cut_id: 41, mch_id: 1, mode_id: 16, feed_rate: 43.7500, blade_speed: 50.0000, time: 22, energy_Wh: 103),
  (cut_id: 41, mch_id: 3, mode_id: 16, feed_rate: 43.7500, blade_speed: 50.0000, time: 22, energy_Wh: 103),
  (cut_id: 41, mch_id: 2, mode_id: 16, feed_rate: 43.7500, blade_speed: 50.0000, time: 22, energy_Wh: 103),
  (cut_id: 41, mch_id: 1, mode_id: 17, feed_rate: 43.7500, blade_speed: 75.0000, time: 22, energy_Wh: 108),
  (cut_id: 41, mch_id: 3, mode_id: 17, feed_rate: 43.7500, blade_speed: 75.0000, time: 22, energy_Wh: 108),
  (cut_id: 41, mch_id: 2, mode_id: 17, feed_rate: 43.7500, blade_speed: 75.0000, time: 22, energy_Wh: 108),
  (cut_id: 41, mch_id: 1, mode_id: 18, feed_rate: 43.7500, blade_speed: 100.0000, time: 22, energy_Wh: 113),
  (cut_id: 41, mch_id: 3, mode_id: 18, feed_rate: 43.7500, blade_speed: 100.0000, time: 22, energy_Wh: 113),
  (cut_id: 41, mch_id: 2, mode_id: 18, feed_rate: 43.7500, blade_speed: 100.0000, time: 22, energy_Wh: 113),
  (cut_id: 41, mch_id: 1, mode_id: 19, feed_rate: 43.7500, blade_speed: 125.0000, time: 22, energy_Wh: 98),
  (cut_id: 41, mch_id: 3, mode_id: 19, feed_rate: 43.7500, blade_speed: 125.0000, time: 22, energy_Wh: 98),
  (cut_id: 41, mch_id: 2, mode_id: 19, feed_rate: 43.7500, blade_speed: 125.0000, time: 22, energy_Wh: 98),
  (cut_id: 41, mch_id: 1, mode_id: 20, feed_rate: 43.7500, blade_speed: 150.0000, time: 22, energy_Wh: 80),
  (cut_id: 41, mch_id: 3, mode_id: 20, feed_rate: 43.7500, blade_speed: 150.0000, time: 22, energy_Wh: 80),
  (cut_id: 41, mch_id: 2, mode_id: 20, feed_rate: 43.7500, blade_speed: 150.0000, time: 22, energy_Wh: 80),
  (cut_id: 41, mch_id: 1, mode_id: 21, feed_rate: 52.5000, blade_speed: 50.0000, time: 18, energy_Wh: 99),
  (cut_id: 41, mch_id: 3, mode_id: 21, feed_rate: 52.5000, blade_speed: 50.0000, time: 18, energy_Wh: 99),
  (cut_id: 41, mch_id: 2, mode_id: 21, feed_rate: 52.5000, blade_speed: 50.0000, time: 18, energy_Wh: 99),
  (cut_id: 41, mch_id: 1, mode_id: 22, feed_rate: 52.5000, blade_speed: 75.0000, time: 18, energy_Wh: 101),
  (cut_id: 41, mch_id: 3, mode_id: 22, feed_rate: 52.5000, blade_speed: 75.0000, time: 18, energy_Wh: 101),
  (cut_id: 41, mch_id: 2, mode_id: 22, feed_rate: 52.5000, blade_speed: 75.0000, time: 18, energy_Wh: 101),
  (cut_id: 41, mch_id: 1, mode_id: 23, feed_rate: 52.5000, blade_speed: 100.0000, time: 18, energy_Wh: 102),
  (cut_id: 41, mch_id: 3, mode_id: 23, feed_rate: 52.5000, blade_speed: 100.0000, time: 18, energy_Wh: 102),
  (cut_id: 41, mch_id: 2, mode_id: 23, feed_rate: 52.5000, blade_speed: 100.0000, time: 18, energy_Wh: 102),
  (cut_id: 41, mch_id: 1, mode_id: 24, feed_rate: 52.5000, blade_speed: 125.0000, time: 18, energy_Wh: 114),
  (cut_id: 41, mch_id: 3, mode_id: 24, feed_rate: 52.5000, blade_speed: 125.0000, time: 18, energy_Wh: 114),
  (cut_id: 41, mch_id: 2, mode_id: 24, feed_rate: 52.5000, blade_speed: 125.0000, time: 18, energy_Wh: 114),
  (cut_id: 41, mch_id: 1, mode_id: 25, feed_rate: 52.5000, blade_speed: 150.0000, time: 18, energy_Wh: 91),
  (cut_id: 41, mch_id: 3, mode_id: 25, feed_rate: 52.5000, blade_speed: 150.0000, time: 18, energy_Wh: 91),
  (cut_id: 41, mch_id: 2, mode_id: 25, feed_rate: 52.5000, blade_speed: 150.0000, time: 18, energy_Wh: 91),
  (cut_id: 42, mch_id: 3, mode_id: 1, feed_rate: 12.5000, blade_speed: 15.0000, time: 3, energy_Wh: 30),
  (cut_id: 42, mch_id: 2, mode_id: 1, feed_rate: 12.5000, blade_speed: 15.0000, time: 3, energy_Wh: 30),
  (cut_id: 42, mch_id: 1, mode_id: 1, feed_rate: 12.5000, blade_speed: 15.0000, time: 3, energy_Wh: 30),
  (cut_id: 42, mch_id: 3, mode_id: 2, feed_rate: 12.5000, blade_speed: 22.5000, time: 3, energy_Wh: 19),
  (cut_id: 42, mch_id: 2, mode_id: 2, feed_rate: 12.5000, blade_speed: 22.5000, time: 3, energy_Wh: 19),
  (cut_id: 42, mch_id: 1, mode_id: 2, feed_rate: 12.5000, blade_speed: 22.5000, time: 3, energy_Wh: 19),
  (cut_id: 42, mch_id: 3, mode_id: 3, feed_rate: 12.5000, blade_speed: 30.0000, time: 3, energy_Wh: 15),
  (cut_id: 42, mch_id: 2, mode_id: 3, feed_rate: 12.5000, blade_speed: 30.0000, time: 3, energy_Wh: 15),
  (cut_id: 42, mch_id: 1, mode_id: 3, feed_rate: 12.5000, blade_speed: 30.0000, time: 3, energy_Wh: 15),
  (cut_id: 42, mch_id: 3, mode_id: 4, feed_rate: 12.5000, blade_speed: 37.5000, time: 3, energy_Wh: 25),
  (cut_id: 42, mch_id: 2, mode_id: 4, feed_rate: 12.5000, blade_speed: 37.5000, time: 3, energy_Wh: 25),
  (cut_id: 42, mch_id: 1, mode_id: 4, feed_rate: 12.5000, blade_speed: 37.5000, time: 3, energy_Wh: 25),
  (cut_id: 42, mch_id: 3, mode_id: 5, feed_rate: 12.5000, blade_speed: 45.0000, time: 3, energy_Wh: 32),
  (cut_id: 42, mch_id: 2, mode_id: 5, feed_rate: 12.5000, blade_speed: 45.0000, time: 3, energy_Wh: 32),
  (cut_id: 42, mch_id: 1, mode_id: 5, feed_rate: 12.5000, blade_speed: 45.0000, time: 3, energy_Wh: 32),
  (cut_id: 42, mch_id: 3, mode_id: 6, feed_rate: 18.7500, blade_speed: 15.0000, time: 2, energy_Wh: 29),
  (cut_id: 42, mch_id: 2, mode_id: 6, feed_rate: 18.7500, blade_speed: 15.0000, time: 2, energy_Wh: 29),
  (cut_id: 42, mch_id: 1, mode_id: 6, feed_rate: 18.7500, blade_speed: 15.0000, time: 2, energy_Wh: 29),
  (cut_id: 42, mch_id: 3, mode_id: 7, feed_rate: 18.7500, blade_speed: 22.5000, time: 2, energy_Wh: 23),
  (cut_id: 42, mch_id: 2, mode_id: 7, feed_rate: 18.7500, blade_speed: 22.5000, time: 2, energy_Wh: 23),
  (cut_id: 42, mch_id: 1, mode_id: 7, feed_rate: 18.7500, blade_speed: 22.5000, time: 2, energy_Wh: 23),
  (cut_id: 42, mch_id: 3, mode_id: 8, feed_rate: 18.7500, blade_speed: 30.0000, time: 2, energy_Wh: 21),
  (cut_id: 42, mch_id: 2, mode_id: 8, feed_rate: 18.7500, blade_speed: 30.0000, time: 2, energy_Wh: 21),
  (cut_id: 42, mch_id: 1, mode_id: 8, feed_rate: 18.7500, blade_speed: 30.0000, time: 2, energy_Wh: 21),
  (cut_id: 42, mch_id: 3, mode_id: 9, feed_rate: 18.7500, blade_speed: 37.5000, time: 2, energy_Wh: 28),
  (cut_id: 42, mch_id: 2, mode_id: 9, feed_rate: 18.7500, blade_speed: 37.5000, time: 2, energy_Wh: 28),
  (cut_id: 42, mch_id: 1, mode_id: 9, feed_rate: 18.7500, blade_speed: 37.5000, time: 2, energy_Wh: 28),
  (cut_id: 42, mch_id: 3, mode_id: 10, feed_rate: 18.7500, blade_speed: 45.0000, time: 2, energy_Wh: 29),
  (cut_id: 42, mch_id: 2, mode_id: 10, feed_rate: 18.7500, blade_speed: 45.0000, time: 2, energy_Wh: 29),
  (cut_id: 42, mch_id: 1, mode_id: 10, feed_rate: 18.7500, blade_speed: 45.0000, time: 2, energy_Wh: 29),
  (cut_id: 42, mch_id: 3, mode_id: 11, feed_rate: 25.0000, blade_speed: 15.0000, time: 2, energy_Wh: 29),
  (cut_id: 42, mch_id: 2, mode_id: 11, feed_rate: 25.0000, blade_speed: 15.0000, time: 2, energy_Wh: 29),
  (cut_id: 42, mch_id: 1, mode_id: 11, feed_rate: 25.0000, blade_speed: 15.0000, time: 2, energy_Wh: 29),
  (cut_id: 42, mch_id: 3, mode_id: 12, feed_rate: 25.0000, blade_speed: 22.5000, time: 2, energy_Wh: 28),
  (cut_id: 42, mch_id: 2, mode_id: 12, feed_rate: 25.0000, blade_speed: 22.5000, time: 2, energy_Wh: 28),
  (cut_id: 42, mch_id: 1, mode_id: 12, feed_rate: 25.0000, blade_speed: 22.5000, time: 2, energy_Wh: 28),
  (cut_id: 42, mch_id: 3, mode_id: 13, feed_rate: 25.0000, blade_speed: 30.0000, time: 2, energy_Wh: 22),
  (cut_id: 42, mch_id: 2, mode_id: 13, feed_rate: 25.0000, blade_speed: 30.0000, time: 2, energy_Wh: 22),
  (cut_id: 42, mch_id: 1, mode_id: 13, feed_rate: 25.0000, blade_speed: 30.0000, time: 2, energy_Wh: 22),
  (cut_id: 42, mch_id: 3, mode_id: 14, feed_rate: 25.0000, blade_speed: 37.5000, time: 2, energy_Wh: 28),
  (cut_id: 42, mch_id: 2, mode_id: 14, feed_rate: 25.0000, blade_speed: 37.5000, time: 2, energy_Wh: 28),
  (cut_id: 42, mch_id: 1, mode_id: 14, feed_rate: 25.0000, blade_speed: 37.5000, time: 2, energy_Wh: 28),
  (cut_id: 42, mch_id: 3, mode_id: 15, feed_rate: 25.0000, blade_speed: 45.0000, time: 2, energy_Wh: 30),
  (cut_id: 42, mch_id: 2, mode_id: 15, feed_rate: 25.0000, blade_speed: 45.0000, time: 2, energy_Wh: 30),
  (cut_id: 42, mch_id: 1, mode_id: 15, feed_rate: 25.0000, blade_speed: 45.0000, time: 2, energy_Wh: 30),
  (cut_id: 42, mch_id: 3, mode_id: 16, feed_rate: 31.2500, blade_speed: 15.0000, time: 2, energy_Wh: 44),
  (cut_id: 42, mch_id: 2, mode_id: 16, feed_rate: 31.2500, blade_speed: 15.0000, time: 2, energy_Wh: 44),
  (cut_id: 42, mch_id: 1, mode_id: 16, feed_rate: 31.2500, blade_speed: 15.0000, time: 2, energy_Wh: 44),
  (cut_id: 42, mch_id: 3, mode_id: 17, feed_rate: 31.2500, blade_speed: 22.5000, time: 2, energy_Wh: 33),
  (cut_id: 42, mch_id: 2, mode_id: 17, feed_rate: 31.2500, blade_speed: 22.5000, time: 2, energy_Wh: 33),
  (cut_id: 42, mch_id: 1, mode_id: 17, feed_rate: 31.2500, blade_speed: 22.5000, time: 2, energy_Wh: 33),
  (cut_id: 42, mch_id: 3, mode_id: 18, feed_rate: 31.2500, blade_speed: 30.0000, time: 2, energy_Wh: 23),
  (cut_id: 42, mch_id: 2, mode_id: 18, feed_rate: 31.2500, blade_speed: 30.0000, time: 2, energy_Wh: 23),
  (cut_id: 42, mch_id: 1, mode_id: 18, feed_rate: 31.2500, blade_speed: 30.0000, time: 2, energy_Wh: 23),
  (cut_id: 42, mch_id: 3, mode_id: 19, feed_rate: 31.2500, blade_speed: 37.5000, time: 2, energy_Wh: 27),
  (cut_id: 42, mch_id: 2, mode_id: 19, feed_rate: 31.2500, blade_speed: 37.5000, time: 2, energy_Wh: 27),
  (cut_id: 42, mch_id: 1, mode_id: 19, feed_rate: 31.2500, blade_speed: 37.5000, time: 2, energy_Wh: 27),
  (cut_id: 42, mch_id: 3, mode_id: 20, feed_rate: 31.2500, blade_speed: 45.0000, time: 2, energy_Wh: 35),
  (cut_id: 42, mch_id: 2, mode_id: 20, feed_rate: 31.2500, blade_speed: 45.0000, time: 2, energy_Wh: 35),
  (cut_id: 42, mch_id: 1, mode_id: 20, feed_rate: 31.2500, blade_speed: 45.0000, time: 2, energy_Wh: 35),
  (cut_id: 42, mch_id: 3, mode_id: 21, feed_rate: 37.5000, blade_speed: 15.0000, time: 1, energy_Wh: 42),
  (cut_id: 42, mch_id: 2, mode_id: 21, feed_rate: 37.5000, blade_speed: 15.0000, time: 1, energy_Wh: 42),
  (cut_id: 42, mch_id: 1, mode_id: 21, feed_rate: 37.5000, blade_speed: 15.0000, time: 1, energy_Wh: 42),
  (cut_id: 42, mch_id: 3, mode_id: 22, feed_rate: 37.5000, blade_speed: 22.5000, time: 1, energy_Wh: 32),
  (cut_id: 42, mch_id: 2, mode_id: 22, feed_rate: 37.5000, blade_speed: 22.5000, time: 1, energy_Wh: 32),
  (cut_id: 42, mch_id: 1, mode_id: 22, feed_rate: 37.5000, blade_speed: 22.5000, time: 1, energy_Wh: 32),
  (cut_id: 42, mch_id: 3, mode_id: 23, feed_rate: 37.5000, blade_speed: 30.0000, time: 1, energy_Wh: 22),
  (cut_id: 42, mch_id: 2, mode_id: 23, feed_rate: 37.5000, blade_speed: 30.0000, time: 1, energy_Wh: 22),
  (cut_id: 42, mch_id: 1, mode_id: 23, feed_rate: 37.5000, blade_speed: 30.0000, time: 1, energy_Wh: 22),
  (cut_id: 42, mch_id: 3, mode_id: 24, feed_rate: 37.5000, blade_speed: 37.5000, time: 1, energy_Wh: 42),
  (cut_id: 42, mch_id: 2, mode_id: 24, feed_rate: 37.5000, blade_speed: 37.5000, time: 1, energy_Wh: 42),
  (cut_id: 42, mch_id: 1, mode_id: 24, feed_rate: 37.5000, blade_speed: 37.5000, time: 1, energy_Wh: 42),
  (cut_id: 42, mch_id: 3, mode_id: 25, feed_rate: 37.5000, blade_speed: 45.0000, time: 1, energy_Wh: 57),
  (cut_id: 42, mch_id: 2, mode_id: 25, feed_rate: 37.5000, blade_speed: 45.0000, time: 1, energy_Wh: 57),
  (cut_id: 42, mch_id: 1, mode_id: 25, feed_rate: 37.5000, blade_speed: 45.0000, time: 1, energy_Wh: 57),
  (cut_id: 43, mch_id: 3, mode_id: 1, feed_rate: 11.0000, blade_speed: 3.0000, time: 4, energy_Wh: 32),
  (cut_id: 43, mch_id: 1, mode_id: 1, feed_rate: 11.0000, blade_speed: 3.0000, time: 4, energy_Wh: 32),
  (cut_id: 43, mch_id: 2, mode_id: 1, feed_rate: 11.0000, blade_speed: 3.0000, time: 4, energy_Wh: 32),
  (cut_id: 43, mch_id: 3, mode_id: 2, feed_rate: 11.0000, blade_speed: 4.5000, time: 4, energy_Wh: 23),
  (cut_id: 43, mch_id: 1, mode_id: 2, feed_rate: 11.0000, blade_speed: 4.5000, time: 4, energy_Wh: 23),
  (cut_id: 43, mch_id: 2, mode_id: 2, feed_rate: 11.0000, blade_speed: 4.5000, time: 4, energy_Wh: 23),
  (cut_id: 43, mch_id: 3, mode_id: 3, feed_rate: 11.0000, blade_speed: 6.0000, time: 4, energy_Wh: 27),
  (cut_id: 43, mch_id: 1, mode_id: 3, feed_rate: 11.0000, blade_speed: 6.0000, time: 4, energy_Wh: 27),
  (cut_id: 43, mch_id: 2, mode_id: 3, feed_rate: 11.0000, blade_speed: 6.0000, time: 4, energy_Wh: 27),
  (cut_id: 43, mch_id: 3, mode_id: 4, feed_rate: 11.0000, blade_speed: 7.5000, time: 4, energy_Wh: 40),
  (cut_id: 43, mch_id: 1, mode_id: 4, feed_rate: 11.0000, blade_speed: 7.5000, time: 4, energy_Wh: 40),
  (cut_id: 43, mch_id: 2, mode_id: 4, feed_rate: 11.0000, blade_speed: 7.5000, time: 4, energy_Wh: 40),
  (cut_id: 43, mch_id: 3, mode_id: 5, feed_rate: 11.0000, blade_speed: 9.0000, time: 4, energy_Wh: 32),
  (cut_id: 43, mch_id: 1, mode_id: 5, feed_rate: 11.0000, blade_speed: 9.0000, time: 4, energy_Wh: 32),
  (cut_id: 43, mch_id: 2, mode_id: 5, feed_rate: 11.0000, blade_speed: 9.0000, time: 4, energy_Wh: 32),
  (cut_id: 43, mch_id: 3, mode_id: 6, feed_rate: 16.5000, blade_speed: 3.0000, time: 3, energy_Wh: 36),
  (cut_id: 43, mch_id: 1, mode_id: 6, feed_rate: 16.5000, blade_speed: 3.0000, time: 3, energy_Wh: 36),
  (cut_id: 43, mch_id: 2, mode_id: 6, feed_rate: 16.5000, blade_speed: 3.0000, time: 3, energy_Wh: 36),
  (cut_id: 43, mch_id: 3, mode_id: 7, feed_rate: 16.5000, blade_speed: 4.5000, time: 3, energy_Wh: 29),
  (cut_id: 43, mch_id: 1, mode_id: 7, feed_rate: 16.5000, blade_speed: 4.5000, time: 3, energy_Wh: 29),
  (cut_id: 43, mch_id: 2, mode_id: 7, feed_rate: 16.5000, blade_speed: 4.5000, time: 3, energy_Wh: 29),
  (cut_id: 43, mch_id: 3, mode_id: 8, feed_rate: 16.5000, blade_speed: 6.0000, time: 3, energy_Wh: 29),
  (cut_id: 43, mch_id: 1, mode_id: 8, feed_rate: 16.5000, blade_speed: 6.0000, time: 3, energy_Wh: 29),
  (cut_id: 43, mch_id: 2, mode_id: 8, feed_rate: 16.5000, blade_speed: 6.0000, time: 3, energy_Wh: 29),
  (cut_id: 43, mch_id: 3, mode_id: 9, feed_rate: 16.5000, blade_speed: 7.5000, time: 3, energy_Wh: 41),
  (cut_id: 43, mch_id: 1, mode_id: 9, feed_rate: 16.5000, blade_speed: 7.5000, time: 3, energy_Wh: 41),
  (cut_id: 43, mch_id: 2, mode_id: 9, feed_rate: 16.5000, blade_speed: 7.5000, time: 3, energy_Wh: 41),
  (cut_id: 43, mch_id: 3, mode_id: 10, feed_rate: 16.5000, blade_speed: 9.0000, time: 3, energy_Wh: 47),
  (cut_id: 43, mch_id: 1, mode_id: 10, feed_rate: 16.5000, blade_speed: 9.0000, time: 3, energy_Wh: 47),
  (cut_id: 43, mch_id: 2, mode_id: 10, feed_rate: 16.5000, blade_speed: 9.0000, time: 3, energy_Wh: 47),
  (cut_id: 43, mch_id: 3, mode_id: 11, feed_rate: 22.0000, blade_speed: 3.0000, time: 2, energy_Wh: 38),
  (cut_id: 43, mch_id: 1, mode_id: 11, feed_rate: 22.0000, blade_speed: 3.0000, time: 2, energy_Wh: 38),
  (cut_id: 43, mch_id: 2, mode_id: 11, feed_rate: 22.0000, blade_speed: 3.0000, time: 2, energy_Wh: 38),
  (cut_id: 43, mch_id: 3, mode_id: 12, feed_rate: 22.0000, blade_speed: 4.5000, time: 2, energy_Wh: 25),
  (cut_id: 43, mch_id: 1, mode_id: 12, feed_rate: 22.0000, blade_speed: 4.5000, time: 2, energy_Wh: 25),
  (cut_id: 43, mch_id: 2, mode_id: 12, feed_rate: 22.0000, blade_speed: 4.5000, time: 2, energy_Wh: 25),
  (cut_id: 43, mch_id: 3, mode_id: 13, feed_rate: 22.0000, blade_speed: 6.0000, time: 2, energy_Wh: 31),
  (cut_id: 43, mch_id: 1, mode_id: 13, feed_rate: 22.0000, blade_speed: 6.0000, time: 2, energy_Wh: 31),
  (cut_id: 43, mch_id: 2, mode_id: 13, feed_rate: 22.0000, blade_speed: 6.0000, time: 2, energy_Wh: 31),
  (cut_id: 43, mch_id: 3, mode_id: 14, feed_rate: 22.0000, blade_speed: 7.5000, time: 2, energy_Wh: 40),
  (cut_id: 43, mch_id: 1, mode_id: 14, feed_rate: 22.0000, blade_speed: 7.5000, time: 2, energy_Wh: 40),
  (cut_id: 43, mch_id: 2, mode_id: 14, feed_rate: 22.0000, blade_speed: 7.5000, time: 2, energy_Wh: 40),
  (cut_id: 43, mch_id: 3, mode_id: 15, feed_rate: 22.0000, blade_speed: 9.0000, time: 2, energy_Wh: 50),
  (cut_id: 43, mch_id: 1, mode_id: 15, feed_rate: 22.0000, blade_speed: 9.0000, time: 2, energy_Wh: 50),
  (cut_id: 43, mch_id: 2, mode_id: 15, feed_rate: 22.0000, blade_speed: 9.0000, time: 2, energy_Wh: 50),
  (cut_id: 43, mch_id: 3, mode_id: 16, feed_rate: 27.5000, blade_speed: 3.0000, time: 2, energy_Wh: 47),
  (cut_id: 43, mch_id: 1, mode_id: 16, feed_rate: 27.5000, blade_speed: 3.0000, time: 2, energy_Wh: 47),
  (cut_id: 43, mch_id: 2, mode_id: 16, feed_rate: 27.5000, blade_speed: 3.0000, time: 2, energy_Wh: 47),
  (cut_id: 43, mch_id: 3, mode_id: 17, feed_rate: 27.5000, blade_speed: 4.5000, time: 2, energy_Wh: 35),
  (cut_id: 43, mch_id: 1, mode_id: 17, feed_rate: 27.5000, blade_speed: 4.5000, time: 2, energy_Wh: 35),
  (cut_id: 43, mch_id: 2, mode_id: 17, feed_rate: 27.5000, blade_speed: 4.5000, time: 2, energy_Wh: 35),
  (cut_id: 43, mch_id: 3, mode_id: 18, feed_rate: 27.5000, blade_speed: 6.0000, time: 2, energy_Wh: 44),
  (cut_id: 43, mch_id: 1, mode_id: 18, feed_rate: 27.5000, blade_speed: 6.0000, time: 2, energy_Wh: 44),
  (cut_id: 43, mch_id: 2, mode_id: 18, feed_rate: 27.5000, blade_speed: 6.0000, time: 2, energy_Wh: 44),
  (cut_id: 43, mch_id: 3, mode_id: 19, feed_rate: 27.5000, blade_speed: 7.5000, time: 2, energy_Wh: 56),
  (cut_id: 43, mch_id: 1, mode_id: 19, feed_rate: 27.5000, blade_speed: 7.5000, time: 2, energy_Wh: 56),
  (cut_id: 43, mch_id: 2, mode_id: 19, feed_rate: 27.5000, blade_speed: 7.5000, time: 2, energy_Wh: 56),
  (cut_id: 43, mch_id: 3, mode_id: 20, feed_rate: 27.5000, blade_speed: 9.0000, time: 2, energy_Wh: 55),
  (cut_id: 43, mch_id: 1, mode_id: 20, feed_rate: 27.5000, blade_speed: 9.0000, time: 2, energy_Wh: 55),
  (cut_id: 43, mch_id: 2, mode_id: 20, feed_rate: 27.5000, blade_speed: 9.0000, time: 2, energy_Wh: 55),
  (cut_id: 43, mch_id: 3, mode_id: 21, feed_rate: 33.0000, blade_speed: 3.0000, time: 2, energy_Wh: 42),
  (cut_id: 43, mch_id: 1, mode_id: 21, feed_rate: 33.0000, blade_speed: 3.0000, time: 2, energy_Wh: 42),
  (cut_id: 43, mch_id: 2, mode_id: 21, feed_rate: 33.0000, blade_speed: 3.0000, time: 2, energy_Wh: 42),
  (cut_id: 43, mch_id: 3, mode_id: 22, feed_rate: 33.0000, blade_speed: 4.5000, time: 2, energy_Wh: 35),
  (cut_id: 43, mch_id: 1, mode_id: 22, feed_rate: 33.0000, blade_speed: 4.5000, time: 2, energy_Wh: 35),
  (cut_id: 43, mch_id: 2, mode_id: 22, feed_rate: 33.0000, blade_speed: 4.5000, time: 2, energy_Wh: 35),
  (cut_id: 43, mch_id: 3, mode_id: 23, feed_rate: 33.0000, blade_speed: 6.0000, time: 2, energy_Wh: 46),
  (cut_id: 43, mch_id: 1, mode_id: 23, feed_rate: 33.0000, blade_speed: 6.0000, time: 2, energy_Wh: 46),
  (cut_id: 43, mch_id: 2, mode_id: 23, feed_rate: 33.0000, blade_speed: 6.0000, time: 2, energy_Wh: 46),
  (cut_id: 43, mch_id: 3, mode_id: 24, feed_rate: 33.0000, blade_speed: 7.5000, time: 2, energy_Wh: 49),
  (cut_id: 43, mch_id: 1, mode_id: 24, feed_rate: 33.0000, blade_speed: 7.5000, time: 2, energy_Wh: 49),
  (cut_id: 43, mch_id: 2, mode_id: 24, feed_rate: 33.0000, blade_speed: 7.5000, time: 2, energy_Wh: 49),
  (cut_id: 43, mch_id: 3, mode_id: 25, feed_rate: 33.0000, blade_speed: 9.0000, time: 2, energy_Wh: 59),
  (cut_id: 43, mch_id: 1, mode_id: 25, feed_rate: 33.0000, blade_speed: 9.0000, time: 2, energy_Wh: 59),
  (cut_id: 43, mch_id: 2, mode_id: 25, feed_rate: 33.0000, blade_speed: 9.0000, time: 2, energy_Wh: 59),
  (cut_id: 44, mch_id: 1, mode_id: 1, feed_rate: 10.3500, blade_speed: 2.9500, time: 15, energy_Wh: 26),
  (cut_id: 44, mch_id: 3, mode_id: 1, feed_rate: 10.3500, blade_speed: 2.9500, time: 15, energy_Wh: 26),
  (cut_id: 44, mch_id: 2, mode_id: 1, feed_rate: 10.3500, blade_speed: 2.9500, time: 15, energy_Wh: 26),
  (cut_id: 44, mch_id: 1, mode_id: 2, feed_rate: 10.3500, blade_speed: 4.4300, time: 15, energy_Wh: 18),
  (cut_id: 44, mch_id: 3, mode_id: 2, feed_rate: 10.3500, blade_speed: 4.4300, time: 15, energy_Wh: 18),
  (cut_id: 44, mch_id: 2, mode_id: 2, feed_rate: 10.3500, blade_speed: 4.4300, time: 15, energy_Wh: 18),
  (cut_id: 44, mch_id: 1, mode_id: 3, feed_rate: 10.3500, blade_speed: 5.9000, time: 15, energy_Wh: 25),
  (cut_id: 44, mch_id: 3, mode_id: 3, feed_rate: 10.3500, blade_speed: 5.9000, time: 15, energy_Wh: 25),
  (cut_id: 44, mch_id: 2, mode_id: 3, feed_rate: 10.3500, blade_speed: 5.9000, time: 15, energy_Wh: 25),
  (cut_id: 44, mch_id: 1, mode_id: 4, feed_rate: 10.3500, blade_speed: 7.3800, time: 15, energy_Wh: 42),
  (cut_id: 44, mch_id: 3, mode_id: 4, feed_rate: 10.3500, blade_speed: 7.3800, time: 15, energy_Wh: 42),
  (cut_id: 44, mch_id: 2, mode_id: 4, feed_rate: 10.3500, blade_speed: 7.3800, time: 15, energy_Wh: 42),
  (cut_id: 44, mch_id: 1, mode_id: 5, feed_rate: 10.3500, blade_speed: 8.8500, time: 15, energy_Wh: 31),
  (cut_id: 44, mch_id: 3, mode_id: 5, feed_rate: 10.3500, blade_speed: 8.8500, time: 15, energy_Wh: 31),
  (cut_id: 44, mch_id: 2, mode_id: 5, feed_rate: 10.3500, blade_speed: 8.8500, time: 15, energy_Wh: 31),
  (cut_id: 44, mch_id: 1, mode_id: 6, feed_rate: 15.5300, blade_speed: 2.9500, time: 10, energy_Wh: 32),
  (cut_id: 44, mch_id: 3, mode_id: 6, feed_rate: 15.5300, blade_speed: 2.9500, time: 10, energy_Wh: 32),
  (cut_id: 44, mch_id: 2, mode_id: 6, feed_rate: 15.5300, blade_speed: 2.9500, time: 10, energy_Wh: 32),
  (cut_id: 44, mch_id: 1, mode_id: 7, feed_rate: 15.5300, blade_speed: 4.4300, time: 10, energy_Wh: 26),
  (cut_id: 44, mch_id: 3, mode_id: 7, feed_rate: 15.5300, blade_speed: 4.4300, time: 10, energy_Wh: 26),
  (cut_id: 44, mch_id: 2, mode_id: 7, feed_rate: 15.5300, blade_speed: 4.4300, time: 10, energy_Wh: 26),
  (cut_id: 44, mch_id: 1, mode_id: 8, feed_rate: 15.5300, blade_speed: 5.9000, time: 10, energy_Wh: 34),
  (cut_id: 44, mch_id: 3, mode_id: 8, feed_rate: 15.5300, blade_speed: 5.9000, time: 10, energy_Wh: 34),
  (cut_id: 44, mch_id: 2, mode_id: 8, feed_rate: 15.5300, blade_speed: 5.9000, time: 10, energy_Wh: 34),
  (cut_id: 44, mch_id: 1, mode_id: 9, feed_rate: 15.5300, blade_speed: 7.3800, time: 10, energy_Wh: 34),
  (cut_id: 44, mch_id: 3, mode_id: 9, feed_rate: 15.5300, blade_speed: 7.3800, time: 10, energy_Wh: 34),
  (cut_id: 44, mch_id: 2, mode_id: 9, feed_rate: 15.5300, blade_speed: 7.3800, time: 10, energy_Wh: 34),
  (cut_id: 44, mch_id: 1, mode_id: 10, feed_rate: 15.5300, blade_speed: 8.8500, time: 10, energy_Wh: 44),
  (cut_id: 44, mch_id: 3, mode_id: 10, feed_rate: 15.5300, blade_speed: 8.8500, time: 10, energy_Wh: 44),
  (cut_id: 44, mch_id: 2, mode_id: 10, feed_rate: 15.5300, blade_speed: 8.8500, time: 10, energy_Wh: 44),
  (cut_id: 44, mch_id: 1, mode_id: 11, feed_rate: 20.7100, blade_speed: 2.9500, time: 8, energy_Wh: 42),
  (cut_id: 44, mch_id: 3, mode_id: 11, feed_rate: 20.7100, blade_speed: 2.9500, time: 8, energy_Wh: 42),
  (cut_id: 44, mch_id: 2, mode_id: 11, feed_rate: 20.7100, blade_speed: 2.9500, time: 8, energy_Wh: 42),
  (cut_id: 44, mch_id: 1, mode_id: 12, feed_rate: 20.7100, blade_speed: 4.4300, time: 8, energy_Wh: 24),
  (cut_id: 44, mch_id: 3, mode_id: 12, feed_rate: 20.7100, blade_speed: 4.4300, time: 8, energy_Wh: 24),
  (cut_id: 44, mch_id: 2, mode_id: 12, feed_rate: 20.7100, blade_speed: 4.4300, time: 8, energy_Wh: 24),
  (cut_id: 44, mch_id: 1, mode_id: 13, feed_rate: 20.7100, blade_speed: 5.9000, time: 8, energy_Wh: 32),
  (cut_id: 44, mch_id: 3, mode_id: 13, feed_rate: 20.7100, blade_speed: 5.9000, time: 8, energy_Wh: 32),
  (cut_id: 44, mch_id: 2, mode_id: 13, feed_rate: 20.7100, blade_speed: 5.9000, time: 8, energy_Wh: 32),
  (cut_id: 44, mch_id: 1, mode_id: 14, feed_rate: 20.7100, blade_speed: 7.3800, time: 8, energy_Wh: 39),
  (cut_id: 44, mch_id: 3, mode_id: 14, feed_rate: 20.7100, blade_speed: 7.3800, time: 8, energy_Wh: 39),
  (cut_id: 44, mch_id: 2, mode_id: 14, feed_rate: 20.7100, blade_speed: 7.3800, time: 8, energy_Wh: 39),
  (cut_id: 44, mch_id: 1, mode_id: 15, feed_rate: 20.7100, blade_speed: 8.8500, time: 8, energy_Wh: 42),
  (cut_id: 44, mch_id: 3, mode_id: 15, feed_rate: 20.7100, blade_speed: 8.8500, time: 8, energy_Wh: 42),
  (cut_id: 44, mch_id: 2, mode_id: 15, feed_rate: 20.7100, blade_speed: 8.8500, time: 8, energy_Wh: 42),
  (cut_id: 44, mch_id: 1, mode_id: 16, feed_rate: 25.8900, blade_speed: 2.9500, time: 6, energy_Wh: 34),
  (cut_id: 44, mch_id: 3, mode_id: 16, feed_rate: 25.8900, blade_speed: 2.9500, time: 6, energy_Wh: 34),
  (cut_id: 44, mch_id: 2, mode_id: 16, feed_rate: 25.8900, blade_speed: 2.9500, time: 6, energy_Wh: 34),
  (cut_id: 44, mch_id: 1, mode_id: 17, feed_rate: 25.8900, blade_speed: 4.4300, time: 6, energy_Wh: 32),
  (cut_id: 44, mch_id: 3, mode_id: 17, feed_rate: 25.8900, blade_speed: 4.4300, time: 6, energy_Wh: 32),
  (cut_id: 44, mch_id: 2, mode_id: 17, feed_rate: 25.8900, blade_speed: 4.4300, time: 6, energy_Wh: 32),
  (cut_id: 44, mch_id: 1, mode_id: 18, feed_rate: 25.8900, blade_speed: 5.9000, time: 6, energy_Wh: 36),
  (cut_id: 44, mch_id: 3, mode_id: 18, feed_rate: 25.8900, blade_speed: 5.9000, time: 6, energy_Wh: 36),
  (cut_id: 44, mch_id: 2, mode_id: 18, feed_rate: 25.8900, blade_speed: 5.9000, time: 6, energy_Wh: 36),
  (cut_id: 44, mch_id: 1, mode_id: 19, feed_rate: 25.8900, blade_speed: 7.3800, time: 6, energy_Wh: 45),
  (cut_id: 44, mch_id: 3, mode_id: 19, feed_rate: 25.8900, blade_speed: 7.3800, time: 6, energy_Wh: 45),
  (cut_id: 44, mch_id: 2, mode_id: 19, feed_rate: 25.8900, blade_speed: 7.3800, time: 6, energy_Wh: 45),
  (cut_id: 44, mch_id: 1, mode_id: 20, feed_rate: 25.8900, blade_speed: 8.8500, time: 6, energy_Wh: 42),
  (cut_id: 44, mch_id: 3, mode_id: 20, feed_rate: 25.8900, blade_speed: 8.8500, time: 6, energy_Wh: 42),
  (cut_id: 44, mch_id: 2, mode_id: 20, feed_rate: 25.8900, blade_speed: 8.8500, time: 6, energy_Wh: 42),
  (cut_id: 44, mch_id: 1, mode_id: 21, feed_rate: 31.0600, blade_speed: 2.9500, time: 5, energy_Wh: 48),
  (cut_id: 44, mch_id: 3, mode_id: 21, feed_rate: 31.0600, blade_speed: 2.9500, time: 5, energy_Wh: 48),
  (cut_id: 44, mch_id: 2, mode_id: 21, feed_rate: 31.0600, blade_speed: 2.9500, time: 5, energy_Wh: 48),
  (cut_id: 44, mch_id: 1, mode_id: 22, feed_rate: 31.0600, blade_speed: 4.4300, time: 5, energy_Wh: 29),
  (cut_id: 44, mch_id: 3, mode_id: 22, feed_rate: 31.0600, blade_speed: 4.4300, time: 5, energy_Wh: 29),
  (cut_id: 44, mch_id: 2, mode_id: 22, feed_rate: 31.0600, blade_speed: 4.4300, time: 5, energy_Wh: 29),
  (cut_id: 44, mch_id: 1, mode_id: 23, feed_rate: 31.0600, blade_speed: 5.9000, time: 5, energy_Wh: 43),
  (cut_id: 44, mch_id: 3, mode_id: 23, feed_rate: 31.0600, blade_speed: 5.9000, time: 5, energy_Wh: 43),
  (cut_id: 44, mch_id: 2, mode_id: 23, feed_rate: 31.0600, blade_speed: 5.9000, time: 5, energy_Wh: 43),
  (cut_id: 44, mch_id: 1, mode_id: 24, feed_rate: 31.0600, blade_speed: 7.3800, time: 5, energy_Wh: 58),
  (cut_id: 44, mch_id: 3, mode_id: 24, feed_rate: 31.0600, blade_speed: 7.3800, time: 5, energy_Wh: 58),
  (cut_id: 44, mch_id: 2, mode_id: 24, feed_rate: 31.0600, blade_speed: 7.3800, time: 5, energy_Wh: 58),
  (cut_id: 44, mch_id: 1, mode_id: 25, feed_rate: 31.0600, blade_speed: 8.8500, time: 5, energy_Wh: 57),
  (cut_id: 44, mch_id: 3, mode_id: 25, feed_rate: 31.0600, blade_speed: 8.8500, time: 5, energy_Wh: 57),
  (cut_id: 44, mch_id: 2, mode_id: 25, feed_rate: 31.0600, blade_speed: 8.8500, time: 5, energy_Wh: 57),
  (cut_id: 45, mch_id: 1, mode_id: 1, feed_rate: 18.3400, blade_speed: 10.3400, time: 64, energy_Wh: 86),
  (cut_id: 45, mch_id: 3, mode_id: 1, feed_rate: 18.3400, blade_speed: 10.3400, time: 64, energy_Wh: 86),
  (cut_id: 45, mch_id: 2, mode_id: 1, feed_rate: 18.3400, blade_speed: 10.3400, time: 64, energy_Wh: 86),
  (cut_id: 45, mch_id: 1, mode_id: 2, feed_rate: 18.3400, blade_speed: 15.5200, time: 64, energy_Wh: 107),
  (cut_id: 45, mch_id: 3, mode_id: 2, feed_rate: 18.3400, blade_speed: 15.5200, time: 64, energy_Wh: 107),
  (cut_id: 45, mch_id: 2, mode_id: 2, feed_rate: 18.3400, blade_speed: 15.5200, time: 64, energy_Wh: 107),
  (cut_id: 45, mch_id: 1, mode_id: 3, feed_rate: 18.3400, blade_speed: 20.6900, time: 64, energy_Wh: 161),
  (cut_id: 45, mch_id: 3, mode_id: 3, feed_rate: 18.3400, blade_speed: 20.6900, time: 64, energy_Wh: 161),
  (cut_id: 45, mch_id: 2, mode_id: 3, feed_rate: 18.3400, blade_speed: 20.6900, time: 64, energy_Wh: 161),
  (cut_id: 45, mch_id: 1, mode_id: 4, feed_rate: 18.3400, blade_speed: 25.8600, time: 64, energy_Wh: 103),
  (cut_id: 45, mch_id: 3, mode_id: 4, feed_rate: 18.3400, blade_speed: 25.8600, time: 64, energy_Wh: 103),
  (cut_id: 45, mch_id: 2, mode_id: 4, feed_rate: 18.3400, blade_speed: 25.8600, time: 64, energy_Wh: 103),
  (cut_id: 45, mch_id: 1, mode_id: 5, feed_rate: 18.3400, blade_speed: 31.0300, time: 64, energy_Wh: 96),
  (cut_id: 45, mch_id: 3, mode_id: 5, feed_rate: 18.3400, blade_speed: 31.0300, time: 64, energy_Wh: 96),
  (cut_id: 45, mch_id: 2, mode_id: 5, feed_rate: 18.3400, blade_speed: 31.0300, time: 64, energy_Wh: 96),
  (cut_id: 45, mch_id: 1, mode_id: 6, feed_rate: 27.5200, blade_speed: 10.3400, time: 43, energy_Wh: 78),
  (cut_id: 45, mch_id: 3, mode_id: 6, feed_rate: 27.5200, blade_speed: 10.3400, time: 43, energy_Wh: 78),
  (cut_id: 45, mch_id: 2, mode_id: 6, feed_rate: 27.5200, blade_speed: 10.3400, time: 43, energy_Wh: 78),
  (cut_id: 45, mch_id: 1, mode_id: 7, feed_rate: 27.5200, blade_speed: 15.5200, time: 43, energy_Wh: 118),
  (cut_id: 45, mch_id: 3, mode_id: 7, feed_rate: 27.5200, blade_speed: 15.5200, time: 43, energy_Wh: 118),
  (cut_id: 45, mch_id: 2, mode_id: 7, feed_rate: 27.5200, blade_speed: 15.5200, time: 43, energy_Wh: 118),
  (cut_id: 45, mch_id: 1, mode_id: 8, feed_rate: 27.5200, blade_speed: 20.6900, time: 43, energy_Wh: 138),
  (cut_id: 45, mch_id: 3, mode_id: 8, feed_rate: 27.5200, blade_speed: 20.6900, time: 43, energy_Wh: 138),
  (cut_id: 45, mch_id: 2, mode_id: 8, feed_rate: 27.5200, blade_speed: 20.6900, time: 43, energy_Wh: 138),
  (cut_id: 45, mch_id: 1, mode_id: 9, feed_rate: 27.5200, blade_speed: 25.8600, time: 43, energy_Wh: 139),
  (cut_id: 45, mch_id: 3, mode_id: 9, feed_rate: 27.5200, blade_speed: 25.8600, time: 43, energy_Wh: 139),
  (cut_id: 45, mch_id: 2, mode_id: 9, feed_rate: 27.5200, blade_speed: 25.8600, time: 43, energy_Wh: 139),
  (cut_id: 45, mch_id: 1, mode_id: 10, feed_rate: 27.5200, blade_speed: 31.0300, time: 43, energy_Wh: 88),
  (cut_id: 45, mch_id: 3, mode_id: 10, feed_rate: 27.5200, blade_speed: 31.0300, time: 43, energy_Wh: 88),
  (cut_id: 45, mch_id: 2, mode_id: 10, feed_rate: 27.5200, blade_speed: 31.0300, time: 43, energy_Wh: 88),
  (cut_id: 45, mch_id: 1, mode_id: 11, feed_rate: 36.6900, blade_speed: 10.3400, time: 32, energy_Wh: 89),
  (cut_id: 45, mch_id: 3, mode_id: 11, feed_rate: 36.6900, blade_speed: 10.3400, time: 32, energy_Wh: 89),
  (cut_id: 45, mch_id: 2, mode_id: 11, feed_rate: 36.6900, blade_speed: 10.3400, time: 32, energy_Wh: 89),
  (cut_id: 45, mch_id: 1, mode_id: 12, feed_rate: 36.6900, blade_speed: 15.5200, time: 32, energy_Wh: 151),
  (cut_id: 45, mch_id: 3, mode_id: 12, feed_rate: 36.6900, blade_speed: 15.5200, time: 32, energy_Wh: 151),
  (cut_id: 45, mch_id: 2, mode_id: 12, feed_rate: 36.6900, blade_speed: 15.5200, time: 32, energy_Wh: 151),
  (cut_id: 45, mch_id: 1, mode_id: 13, feed_rate: 36.6900, blade_speed: 20.6900, time: 32, energy_Wh: 149),
  (cut_id: 45, mch_id: 3, mode_id: 13, feed_rate: 36.6900, blade_speed: 20.6900, time: 32, energy_Wh: 149),
  (cut_id: 45, mch_id: 2, mode_id: 13, feed_rate: 36.6900, blade_speed: 20.6900, time: 32, energy_Wh: 149),
  (cut_id: 45, mch_id: 1, mode_id: 14, feed_rate: 36.6900, blade_speed: 25.8600, time: 32, energy_Wh: 159),
  (cut_id: 45, mch_id: 3, mode_id: 14, feed_rate: 36.6900, blade_speed: 25.8600, time: 32, energy_Wh: 159),
  (cut_id: 45, mch_id: 2, mode_id: 14, feed_rate: 36.6900, blade_speed: 25.8600, time: 32, energy_Wh: 159),
  (cut_id: 45, mch_id: 1, mode_id: 15, feed_rate: 36.6900, blade_speed: 31.0300, time: 32, energy_Wh: 141),
  (cut_id: 45, mch_id: 3, mode_id: 15, feed_rate: 36.6900, blade_speed: 31.0300, time: 32, energy_Wh: 141),
  (cut_id: 45, mch_id: 2, mode_id: 15, feed_rate: 36.6900, blade_speed: 31.0300, time: 32, energy_Wh: 141),
  (cut_id: 45, mch_id: 1, mode_id: 16, feed_rate: 45.8600, blade_speed: 10.3400, time: 26, energy_Wh: 122),
  (cut_id: 45, mch_id: 3, mode_id: 16, feed_rate: 45.8600, blade_speed: 10.3400, time: 26, energy_Wh: 122),
  (cut_id: 45, mch_id: 2, mode_id: 16, feed_rate: 45.8600, blade_speed: 10.3400, time: 26, energy_Wh: 122),
  (cut_id: 45, mch_id: 1, mode_id: 17, feed_rate: 45.8600, blade_speed: 15.5200, time: 26, energy_Wh: 128),
  (cut_id: 45, mch_id: 3, mode_id: 17, feed_rate: 45.8600, blade_speed: 15.5200, time: 26, energy_Wh: 128),
  (cut_id: 45, mch_id: 2, mode_id: 17, feed_rate: 45.8600, blade_speed: 15.5200, time: 26, energy_Wh: 128),
  (cut_id: 45, mch_id: 1, mode_id: 18, feed_rate: 45.8600, blade_speed: 20.6900, time: 26, energy_Wh: 204),
  (cut_id: 45, mch_id: 3, mode_id: 18, feed_rate: 45.8600, blade_speed: 20.6900, time: 26, energy_Wh: 204),
  (cut_id: 45, mch_id: 2, mode_id: 18, feed_rate: 45.8600, blade_speed: 20.6900, time: 26, energy_Wh: 204),
  (cut_id: 45, mch_id: 1, mode_id: 19, feed_rate: 45.8600, blade_speed: 25.8600, time: 26, energy_Wh: 179),
  (cut_id: 45, mch_id: 3, mode_id: 19, feed_rate: 45.8600, blade_speed: 25.8600, time: 26, energy_Wh: 179),
  (cut_id: 45, mch_id: 2, mode_id: 19, feed_rate: 45.8600, blade_speed: 25.8600, time: 26, energy_Wh: 179),
  (cut_id: 45, mch_id: 1, mode_id: 20, feed_rate: 45.8600, blade_speed: 31.0300, time: 26, energy_Wh: 130),
  (cut_id: 45, mch_id: 3, mode_id: 20, feed_rate: 45.8600, blade_speed: 31.0300, time: 26, energy_Wh: 130),
  (cut_id: 45, mch_id: 2, mode_id: 20, feed_rate: 45.8600, blade_speed: 31.0300, time: 26, energy_Wh: 130),
  (cut_id: 45, mch_id: 1, mode_id: 21, feed_rate: 55.0300, blade_speed: 10.3400, time: 22, energy_Wh: 133),
  (cut_id: 45, mch_id: 3, mode_id: 21, feed_rate: 55.0300, blade_speed: 10.3400, time: 22, energy_Wh: 133),
  (cut_id: 45, mch_id: 2, mode_id: 21, feed_rate: 55.0300, blade_speed: 10.3400, time: 22, energy_Wh: 133),
  (cut_id: 45, mch_id: 1, mode_id: 22, feed_rate: 55.0300, blade_speed: 15.5200, time: 22, energy_Wh: 195),
  (cut_id: 45, mch_id: 3, mode_id: 22, feed_rate: 55.0300, blade_speed: 15.5200, time: 22, energy_Wh: 195),
  (cut_id: 45, mch_id: 2, mode_id: 22, feed_rate: 55.0300, blade_speed: 15.5200, time: 22, energy_Wh: 195),
  (cut_id: 45, mch_id: 1, mode_id: 23, feed_rate: 55.0300, blade_speed: 20.6900, time: 22, energy_Wh: 190),
  (cut_id: 45, mch_id: 3, mode_id: 23, feed_rate: 55.0300, blade_speed: 20.6900, time: 22, energy_Wh: 190),
  (cut_id: 45, mch_id: 2, mode_id: 23, feed_rate: 55.0300, blade_speed: 20.6900, time: 22, energy_Wh: 190),
  (cut_id: 45, mch_id: 1, mode_id: 24, feed_rate: 55.0300, blade_speed: 25.8600, time: 22, energy_Wh: 212),
  (cut_id: 45, mch_id: 3, mode_id: 24, feed_rate: 55.0300, blade_speed: 25.8600, time: 22, energy_Wh: 212),
  (cut_id: 45, mch_id: 2, mode_id: 24, feed_rate: 55.0300, blade_speed: 25.8600, time: 22, energy_Wh: 212),
  (cut_id: 45, mch_id: 1, mode_id: 25, feed_rate: 55.0300, blade_speed: 31.0300, time: 22, energy_Wh: 122),
  (cut_id: 45, mch_id: 3, mode_id: 25, feed_rate: 55.0300, blade_speed: 31.0300, time: 22, energy_Wh: 122),
  (cut_id: 45, mch_id: 2, mode_id: 25, feed_rate: 55.0300, blade_speed: 31.0300, time: 22, energy_Wh: 122),
  (cut_id: 46, mch_id: 3, mode_id: 1, feed_rate: 19.3500, blade_speed: 11.8500, time: 11, energy_Wh: 26),
  (cut_id: 46, mch_id: 1, mode_id: 1, feed_rate: 19.3500, blade_speed: 11.8500, time: 11, energy_Wh: 26),
  (cut_id: 46, mch_id: 2, mode_id: 1, feed_rate: 19.3500, blade_speed: 11.8500, time: 11, energy_Wh: 26),
  (cut_id: 46, mch_id: 3, mode_id: 2, feed_rate: 19.3500, blade_speed: 17.7800, time: 11, energy_Wh: 33),
  (cut_id: 46, mch_id: 1, mode_id: 2, feed_rate: 19.3500, blade_speed: 17.7800, time: 11, energy_Wh: 33),
  (cut_id: 46, mch_id: 2, mode_id: 2, feed_rate: 19.3500, blade_speed: 17.7800, time: 11, energy_Wh: 33),
  (cut_id: 46, mch_id: 3, mode_id: 3, feed_rate: 19.3500, blade_speed: 23.7000, time: 11, energy_Wh: 24),
  (cut_id: 46, mch_id: 1, mode_id: 3, feed_rate: 19.3500, blade_speed: 23.7000, time: 11, energy_Wh: 24),
  (cut_id: 46, mch_id: 2, mode_id: 3, feed_rate: 19.3500, blade_speed: 23.7000, time: 11, energy_Wh: 24),
  (cut_id: 46, mch_id: 3, mode_id: 4, feed_rate: 19.3500, blade_speed: 29.6300, time: 11, energy_Wh: 29),
  (cut_id: 46, mch_id: 1, mode_id: 4, feed_rate: 19.3500, blade_speed: 29.6300, time: 11, energy_Wh: 29),
  (cut_id: 46, mch_id: 2, mode_id: 4, feed_rate: 19.3500, blade_speed: 29.6300, time: 11, energy_Wh: 29),
  (cut_id: 46, mch_id: 3, mode_id: 5, feed_rate: 19.3500, blade_speed: 35.5600, time: 11, energy_Wh: 32),
  (cut_id: 46, mch_id: 1, mode_id: 5, feed_rate: 19.3500, blade_speed: 35.5600, time: 11, energy_Wh: 32),
  (cut_id: 46, mch_id: 2, mode_id: 5, feed_rate: 19.3500, blade_speed: 35.5600, time: 11, energy_Wh: 32),
  (cut_id: 46, mch_id: 3, mode_id: 6, feed_rate: 29.0300, blade_speed: 11.8500, time: 8, energy_Wh: 36),
  (cut_id: 46, mch_id: 1, mode_id: 6, feed_rate: 29.0300, blade_speed: 11.8500, time: 8, energy_Wh: 36),
  (cut_id: 46, mch_id: 2, mode_id: 6, feed_rate: 29.0300, blade_speed: 11.8500, time: 8, energy_Wh: 36),
  (cut_id: 46, mch_id: 3, mode_id: 7, feed_rate: 29.0300, blade_speed: 17.7800, time: 8, energy_Wh: 35),
  (cut_id: 46, mch_id: 1, mode_id: 7, feed_rate: 29.0300, blade_speed: 17.7800, time: 8, energy_Wh: 35),
  (cut_id: 46, mch_id: 2, mode_id: 7, feed_rate: 29.0300, blade_speed: 17.7800, time: 8, energy_Wh: 35),
  (cut_id: 46, mch_id: 3, mode_id: 8, feed_rate: 29.0300, blade_speed: 23.7000, time: 8, energy_Wh: 38),
  (cut_id: 46, mch_id: 1, mode_id: 8, feed_rate: 29.0300, blade_speed: 23.7000, time: 8, energy_Wh: 38),
  (cut_id: 46, mch_id: 2, mode_id: 8, feed_rate: 29.0300, blade_speed: 23.7000, time: 8, energy_Wh: 38),
  (cut_id: 46, mch_id: 3, mode_id: 9, feed_rate: 29.0300, blade_speed: 29.6300, time: 8, energy_Wh: 32),
  (cut_id: 46, mch_id: 1, mode_id: 9, feed_rate: 29.0300, blade_speed: 29.6300, time: 8, energy_Wh: 32),
  (cut_id: 46, mch_id: 2, mode_id: 9, feed_rate: 29.0300, blade_speed: 29.6300, time: 8, energy_Wh: 32),
  (cut_id: 46, mch_id: 3, mode_id: 10, feed_rate: 29.0300, blade_speed: 35.5600, time: 8, energy_Wh: 37),
  (cut_id: 46, mch_id: 1, mode_id: 10, feed_rate: 29.0300, blade_speed: 35.5600, time: 8, energy_Wh: 37),
  (cut_id: 46, mch_id: 2, mode_id: 10, feed_rate: 29.0300, blade_speed: 35.5600, time: 8, energy_Wh: 37),
  (cut_id: 46, mch_id: 3, mode_id: 11, feed_rate: 38.7000, blade_speed: 11.8500, time: 6, energy_Wh: 42),
  (cut_id: 46, mch_id: 1, mode_id: 11, feed_rate: 38.7000, blade_speed: 11.8500, time: 6, energy_Wh: 42),
  (cut_id: 46, mch_id: 2, mode_id: 11, feed_rate: 38.7000, blade_speed: 11.8500, time: 6, energy_Wh: 42),
  (cut_id: 46, mch_id: 3, mode_id: 12, feed_rate: 38.7000, blade_speed: 17.7800, time: 6, energy_Wh: 44),
  (cut_id: 46, mch_id: 1, mode_id: 12, feed_rate: 38.7000, blade_speed: 17.7800, time: 6, energy_Wh: 44),
  (cut_id: 46, mch_id: 2, mode_id: 12, feed_rate: 38.7000, blade_speed: 17.7800, time: 6, energy_Wh: 44),
  (cut_id: 46, mch_id: 3, mode_id: 13, feed_rate: 38.7000, blade_speed: 23.7000, time: 6, energy_Wh: 40),
  (cut_id: 46, mch_id: 1, mode_id: 13, feed_rate: 38.7000, blade_speed: 23.7000, time: 6, energy_Wh: 40),
  (cut_id: 46, mch_id: 2, mode_id: 13, feed_rate: 38.7000, blade_speed: 23.7000, time: 6, energy_Wh: 40),
  (cut_id: 46, mch_id: 3, mode_id: 14, feed_rate: 38.7000, blade_speed: 29.6300, time: 6, energy_Wh: 41),
  (cut_id: 46, mch_id: 1, mode_id: 14, feed_rate: 38.7000, blade_speed: 29.6300, time: 6, energy_Wh: 41),
  (cut_id: 46, mch_id: 2, mode_id: 14, feed_rate: 38.7000, blade_speed: 29.6300, time: 6, energy_Wh: 41),
  (cut_id: 46, mch_id: 3, mode_id: 15, feed_rate: 38.7000, blade_speed: 35.5600, time: 6, energy_Wh: 47),
  (cut_id: 46, mch_id: 1, mode_id: 15, feed_rate: 38.7000, blade_speed: 35.5600, time: 6, energy_Wh: 47),
  (cut_id: 46, mch_id: 2, mode_id: 15, feed_rate: 38.7000, blade_speed: 35.5600, time: 6, energy_Wh: 47),
  (cut_id: 46, mch_id: 3, mode_id: 16, feed_rate: 48.3800, blade_speed: 11.8500, time: 5, energy_Wh: 48),
  (cut_id: 46, mch_id: 1, mode_id: 16, feed_rate: 48.3800, blade_speed: 11.8500, time: 5, energy_Wh: 48),
  (cut_id: 46, mch_id: 2, mode_id: 16, feed_rate: 48.3800, blade_speed: 11.8500, time: 5, energy_Wh: 48),
  (cut_id: 46, mch_id: 3, mode_id: 17, feed_rate: 48.3800, blade_speed: 17.7800, time: 5, energy_Wh: 39),
  (cut_id: 46, mch_id: 1, mode_id: 17, feed_rate: 48.3800, blade_speed: 17.7800, time: 5, energy_Wh: 39),
  (cut_id: 46, mch_id: 2, mode_id: 17, feed_rate: 48.3800, blade_speed: 17.7800, time: 5, energy_Wh: 39),
  (cut_id: 46, mch_id: 3, mode_id: 18, feed_rate: 48.3800, blade_speed: 23.7000, time: 5, energy_Wh: 38),
  (cut_id: 46, mch_id: 1, mode_id: 18, feed_rate: 48.3800, blade_speed: 23.7000, time: 5, energy_Wh: 38),
  (cut_id: 46, mch_id: 2, mode_id: 18, feed_rate: 48.3800, blade_speed: 23.7000, time: 5, energy_Wh: 38),
  (cut_id: 46, mch_id: 3, mode_id: 19, feed_rate: 48.3800, blade_speed: 29.6300, time: 5, energy_Wh: 39),
  (cut_id: 46, mch_id: 1, mode_id: 19, feed_rate: 48.3800, blade_speed: 29.6300, time: 5, energy_Wh: 39),
  (cut_id: 46, mch_id: 2, mode_id: 19, feed_rate: 48.3800, blade_speed: 29.6300, time: 5, energy_Wh: 39),
  (cut_id: 46, mch_id: 3, mode_id: 20, feed_rate: 48.3800, blade_speed: 35.5600, time: 5, energy_Wh: 50),
  (cut_id: 46, mch_id: 1, mode_id: 20, feed_rate: 48.3800, blade_speed: 35.5600, time: 5, energy_Wh: 50),
  (cut_id: 46, mch_id: 2, mode_id: 20, feed_rate: 48.3800, blade_speed: 35.5600, time: 5, energy_Wh: 50),
  (cut_id: 46, mch_id: 3, mode_id: 21, feed_rate: 58.0600, blade_speed: 11.8500, time: 4, energy_Wh: 56),
  (cut_id: 46, mch_id: 1, mode_id: 21, feed_rate: 58.0600, blade_speed: 11.8500, time: 4, energy_Wh: 56),
  (cut_id: 46, mch_id: 2, mode_id: 21, feed_rate: 58.0600, blade_speed: 11.8500, time: 4, energy_Wh: 56),
  (cut_id: 46, mch_id: 3, mode_id: 22, feed_rate: 58.0600, blade_speed: 17.7800, time: 4, energy_Wh: 60),
  (cut_id: 46, mch_id: 1, mode_id: 22, feed_rate: 58.0600, blade_speed: 17.7800, time: 4, energy_Wh: 60),
  (cut_id: 46, mch_id: 2, mode_id: 22, feed_rate: 58.0600, blade_speed: 17.7800, time: 4, energy_Wh: 60),
  (cut_id: 46, mch_id: 3, mode_id: 23, feed_rate: 58.0600, blade_speed: 23.7000, time: 4, energy_Wh: 50),
  (cut_id: 46, mch_id: 1, mode_id: 23, feed_rate: 58.0600, blade_speed: 23.7000, time: 4, energy_Wh: 50),
  (cut_id: 46, mch_id: 2, mode_id: 23, feed_rate: 58.0600, blade_speed: 23.7000, time: 4, energy_Wh: 50),
  (cut_id: 46, mch_id: 3, mode_id: 24, feed_rate: 58.0600, blade_speed: 29.6300, time: 4, energy_Wh: 54),
  (cut_id: 46, mch_id: 1, mode_id: 24, feed_rate: 58.0600, blade_speed: 29.6300, time: 4, energy_Wh: 54),
  (cut_id: 46, mch_id: 2, mode_id: 24, feed_rate: 58.0600, blade_speed: 29.6300, time: 4, energy_Wh: 54),
  (cut_id: 46, mch_id: 3, mode_id: 25, feed_rate: 58.0600, blade_speed: 35.5600, time: 4, energy_Wh: 57),
  (cut_id: 46, mch_id: 1, mode_id: 25, feed_rate: 58.0600, blade_speed: 35.5600, time: 4, energy_Wh: 57),
  (cut_id: 46, mch_id: 2, mode_id: 25, feed_rate: 58.0600, blade_speed: 35.5600, time: 4, energy_Wh: 57),
  (cut_id: 47, mch_id: 2, mode_id: 1, feed_rate: 17.5000, blade_speed: 18.4700, time: 13, energy_Wh: 36),
  (cut_id: 47, mch_id: 1, mode_id: 1, feed_rate: 17.5000, blade_speed: 18.4700, time: 13, energy_Wh: 36),
  (cut_id: 47, mch_id: 3, mode_id: 1, feed_rate: 17.5000, blade_speed: 18.4700, time: 13, energy_Wh: 36),
  (cut_id: 47, mch_id: 2, mode_id: 2, feed_rate: 17.5000, blade_speed: 27.7100, time: 13, energy_Wh: 46),
  (cut_id: 47, mch_id: 1, mode_id: 2, feed_rate: 17.5000, blade_speed: 27.7100, time: 13, energy_Wh: 46),
  (cut_id: 47, mch_id: 3, mode_id: 2, feed_rate: 17.5000, blade_speed: 27.7100, time: 13, energy_Wh: 46),
  (cut_id: 47, mch_id: 2, mode_id: 3, feed_rate: 17.5000, blade_speed: 36.9400, time: 13, energy_Wh: 38),
  (cut_id: 47, mch_id: 1, mode_id: 3, feed_rate: 17.5000, blade_speed: 36.9400, time: 13, energy_Wh: 38),
  (cut_id: 47, mch_id: 3, mode_id: 3, feed_rate: 17.5000, blade_speed: 36.9400, time: 13, energy_Wh: 38),
  (cut_id: 47, mch_id: 2, mode_id: 4, feed_rate: 17.5000, blade_speed: 46.1800, time: 13, energy_Wh: 44),
  (cut_id: 47, mch_id: 1, mode_id: 4, feed_rate: 17.5000, blade_speed: 46.1800, time: 13, energy_Wh: 44),
  (cut_id: 47, mch_id: 3, mode_id: 4, feed_rate: 17.5000, blade_speed: 46.1800, time: 13, energy_Wh: 44),
  (cut_id: 47, mch_id: 2, mode_id: 5, feed_rate: 17.5000, blade_speed: 55.4200, time: 13, energy_Wh: 33),
  (cut_id: 47, mch_id: 1, mode_id: 5, feed_rate: 17.5000, blade_speed: 55.4200, time: 13, energy_Wh: 33),
  (cut_id: 47, mch_id: 3, mode_id: 5, feed_rate: 17.5000, blade_speed: 55.4200, time: 13, energy_Wh: 33),
  (cut_id: 47, mch_id: 2, mode_id: 6, feed_rate: 26.2500, blade_speed: 18.4700, time: 9, energy_Wh: 38),
  (cut_id: 47, mch_id: 1, mode_id: 6, feed_rate: 26.2500, blade_speed: 18.4700, time: 9, energy_Wh: 38),
  (cut_id: 47, mch_id: 3, mode_id: 6, feed_rate: 26.2500, blade_speed: 18.4700, time: 9, energy_Wh: 38),
  (cut_id: 47, mch_id: 2, mode_id: 7, feed_rate: 26.2500, blade_speed: 27.7100, time: 9, energy_Wh: 48),
  (cut_id: 47, mch_id: 1, mode_id: 7, feed_rate: 26.2500, blade_speed: 27.7100, time: 9, energy_Wh: 48),
  (cut_id: 47, mch_id: 3, mode_id: 7, feed_rate: 26.2500, blade_speed: 27.7100, time: 9, energy_Wh: 48),
  (cut_id: 47, mch_id: 2, mode_id: 8, feed_rate: 26.2500, blade_speed: 36.9400, time: 9, energy_Wh: 39),
  (cut_id: 47, mch_id: 1, mode_id: 8, feed_rate: 26.2500, blade_speed: 36.9400, time: 9, energy_Wh: 39),
  (cut_id: 47, mch_id: 3, mode_id: 8, feed_rate: 26.2500, blade_speed: 36.9400, time: 9, energy_Wh: 39),
  (cut_id: 47, mch_id: 2, mode_id: 9, feed_rate: 26.2500, blade_speed: 46.1800, time: 9, energy_Wh: 55),
  (cut_id: 47, mch_id: 1, mode_id: 9, feed_rate: 26.2500, blade_speed: 46.1800, time: 9, energy_Wh: 55),
  (cut_id: 47, mch_id: 3, mode_id: 9, feed_rate: 26.2500, blade_speed: 46.1800, time: 9, energy_Wh: 55),
  (cut_id: 47, mch_id: 2, mode_id: 10, feed_rate: 26.2500, blade_speed: 55.4200, time: 9, energy_Wh: 35),
  (cut_id: 47, mch_id: 1, mode_id: 10, feed_rate: 26.2500, blade_speed: 55.4200, time: 9, energy_Wh: 35),
  (cut_id: 47, mch_id: 3, mode_id: 10, feed_rate: 26.2500, blade_speed: 55.4200, time: 9, energy_Wh: 35),
  (cut_id: 47, mch_id: 2, mode_id: 11, feed_rate: 35.0000, blade_speed: 18.4700, time: 7, energy_Wh: 50),
  (cut_id: 47, mch_id: 1, mode_id: 11, feed_rate: 35.0000, blade_speed: 18.4700, time: 7, energy_Wh: 50),
  (cut_id: 47, mch_id: 3, mode_id: 11, feed_rate: 35.0000, blade_speed: 18.4700, time: 7, energy_Wh: 50),
  (cut_id: 47, mch_id: 2, mode_id: 12, feed_rate: 35.0000, blade_speed: 27.7100, time: 7, energy_Wh: 50),
  (cut_id: 47, mch_id: 1, mode_id: 12, feed_rate: 35.0000, blade_speed: 27.7100, time: 7, energy_Wh: 50),
  (cut_id: 47, mch_id: 3, mode_id: 12, feed_rate: 35.0000, blade_speed: 27.7100, time: 7, energy_Wh: 50),
  (cut_id: 47, mch_id: 2, mode_id: 13, feed_rate: 35.0000, blade_speed: 36.9400, time: 7, energy_Wh: 40),
  (cut_id: 47, mch_id: 1, mode_id: 13, feed_rate: 35.0000, blade_speed: 36.9400, time: 7, energy_Wh: 40),
  (cut_id: 47, mch_id: 3, mode_id: 13, feed_rate: 35.0000, blade_speed: 36.9400, time: 7, energy_Wh: 40),
  (cut_id: 47, mch_id: 2, mode_id: 14, feed_rate: 35.0000, blade_speed: 46.1800, time: 7, energy_Wh: 63),
  (cut_id: 47, mch_id: 1, mode_id: 14, feed_rate: 35.0000, blade_speed: 46.1800, time: 7, energy_Wh: 63),
  (cut_id: 47, mch_id: 3, mode_id: 14, feed_rate: 35.0000, blade_speed: 46.1800, time: 7, energy_Wh: 63),
  (cut_id: 47, mch_id: 2, mode_id: 15, feed_rate: 35.0000, blade_speed: 55.4200, time: 7, energy_Wh: 43),
  (cut_id: 47, mch_id: 1, mode_id: 15, feed_rate: 35.0000, blade_speed: 55.4200, time: 7, energy_Wh: 43),
  (cut_id: 47, mch_id: 3, mode_id: 15, feed_rate: 35.0000, blade_speed: 55.4200, time: 7, energy_Wh: 43),
  (cut_id: 47, mch_id: 2, mode_id: 16, feed_rate: 43.7500, blade_speed: 18.4700, time: 6, energy_Wh: 60),
  (cut_id: 47, mch_id: 1, mode_id: 16, feed_rate: 43.7500, blade_speed: 18.4700, time: 6, energy_Wh: 60),
  (cut_id: 47, mch_id: 3, mode_id: 16, feed_rate: 43.7500, blade_speed: 18.4700, time: 6, energy_Wh: 60),
  (cut_id: 47, mch_id: 2, mode_id: 17, feed_rate: 43.7500, blade_speed: 27.7100, time: 6, energy_Wh: 68),
  (cut_id: 47, mch_id: 1, mode_id: 17, feed_rate: 43.7500, blade_speed: 27.7100, time: 6, energy_Wh: 68),
  (cut_id: 47, mch_id: 3, mode_id: 17, feed_rate: 43.7500, blade_speed: 27.7100, time: 6, energy_Wh: 68),
  (cut_id: 47, mch_id: 2, mode_id: 18, feed_rate: 43.7500, blade_speed: 36.9400, time: 6, energy_Wh: 46),
  (cut_id: 47, mch_id: 1, mode_id: 18, feed_rate: 43.7500, blade_speed: 36.9400, time: 6, energy_Wh: 46),
  (cut_id: 47, mch_id: 3, mode_id: 18, feed_rate: 43.7500, blade_speed: 36.9400, time: 6, energy_Wh: 46),
  (cut_id: 47, mch_id: 2, mode_id: 19, feed_rate: 43.7500, blade_speed: 46.1800, time: 6, energy_Wh: 83),
  (cut_id: 47, mch_id: 1, mode_id: 19, feed_rate: 43.7500, blade_speed: 46.1800, time: 6, energy_Wh: 83),
  (cut_id: 47, mch_id: 3, mode_id: 19, feed_rate: 43.7500, blade_speed: 46.1800, time: 6, energy_Wh: 83),
  (cut_id: 47, mch_id: 2, mode_id: 20, feed_rate: 43.7500, blade_speed: 55.4200, time: 6, energy_Wh: 48),
  (cut_id: 47, mch_id: 1, mode_id: 20, feed_rate: 43.7500, blade_speed: 55.4200, time: 6, energy_Wh: 48),
  (cut_id: 47, mch_id: 3, mode_id: 20, feed_rate: 43.7500, blade_speed: 55.4200, time: 6, energy_Wh: 48),
  (cut_id: 47, mch_id: 2, mode_id: 21, feed_rate: 52.5000, blade_speed: 18.4700, time: 5, energy_Wh: 50),
  (cut_id: 47, mch_id: 1, mode_id: 21, feed_rate: 52.5000, blade_speed: 18.4700, time: 5, energy_Wh: 50),
  (cut_id: 47, mch_id: 3, mode_id: 21, feed_rate: 52.5000, blade_speed: 18.4700, time: 5, energy_Wh: 50),
  (cut_id: 47, mch_id: 2, mode_id: 22, feed_rate: 52.5000, blade_speed: 27.7100, time: 5, energy_Wh: 90),
  (cut_id: 47, mch_id: 1, mode_id: 22, feed_rate: 52.5000, blade_speed: 27.7100, time: 5, energy_Wh: 90),
  (cut_id: 47, mch_id: 3, mode_id: 22, feed_rate: 52.5000, blade_speed: 27.7100, time: 5, energy_Wh: 90),
  (cut_id: 47, mch_id: 2, mode_id: 23, feed_rate: 52.5000, blade_speed: 36.9400, time: 5, energy_Wh: 63),
  (cut_id: 47, mch_id: 1, mode_id: 23, feed_rate: 52.5000, blade_speed: 36.9400, time: 5, energy_Wh: 63),
  (cut_id: 47, mch_id: 3, mode_id: 23, feed_rate: 52.5000, blade_speed: 36.9400, time: 5, energy_Wh: 63),
  (cut_id: 47, mch_id: 2, mode_id: 24, feed_rate: 52.5000, blade_speed: 46.1800, time: 5, energy_Wh: 79),
  (cut_id: 47, mch_id: 1, mode_id: 24, feed_rate: 52.5000, blade_speed: 46.1800, time: 5, energy_Wh: 79),
  (cut_id: 47, mch_id: 3, mode_id: 24, feed_rate: 52.5000, blade_speed: 46.1800, time: 5, energy_Wh: 79),
  (cut_id: 47, mch_id: 2, mode_id: 25, feed_rate: 52.5000, blade_speed: 55.4200, time: 5, energy_Wh: 54),
  (cut_id: 47, mch_id: 1, mode_id: 25, feed_rate: 52.5000, blade_speed: 55.4200, time: 5, energy_Wh: 54),
  (cut_id: 47, mch_id: 3, mode_id: 25, feed_rate: 52.5000, blade_speed: 55.4200, time: 5, energy_Wh: 54),
  (cut_id: 48, mch_id: 2, mode_id: 1, feed_rate: 35.0000, blade_speed: 12.0000, time: 18, energy_Wh: 82),
  (cut_id: 48, mch_id: 1, mode_id: 1, feed_rate: 35.0000, blade_speed: 12.0000, time: 18, energy_Wh: 82),
  (cut_id: 48, mch_id: 3, mode_id: 1, feed_rate: 35.0000, blade_speed: 12.0000, time: 18, energy_Wh: 82),
  (cut_id: 48, mch_id: 2, mode_id: 2, feed_rate: 35.0000, blade_speed: 18.0000, time: 18, energy_Wh: 82),
  (cut_id: 48, mch_id: 1, mode_id: 2, feed_rate: 35.0000, blade_speed: 18.0000, time: 18, energy_Wh: 82),
  (cut_id: 48, mch_id: 3, mode_id: 2, feed_rate: 35.0000, blade_speed: 18.0000, time: 18, energy_Wh: 82),
  (cut_id: 48, mch_id: 2, mode_id: 3, feed_rate: 35.0000, blade_speed: 24.0000, time: 18, energy_Wh: 74),
  (cut_id: 48, mch_id: 1, mode_id: 3, feed_rate: 35.0000, blade_speed: 24.0000, time: 18, energy_Wh: 74),
  (cut_id: 48, mch_id: 3, mode_id: 3, feed_rate: 35.0000, blade_speed: 24.0000, time: 18, energy_Wh: 74),
  (cut_id: 48, mch_id: 2, mode_id: 4, feed_rate: 35.0000, blade_speed: 30.0000, time: 18, energy_Wh: 64),
  (cut_id: 48, mch_id: 1, mode_id: 4, feed_rate: 35.0000, blade_speed: 30.0000, time: 18, energy_Wh: 64),
  (cut_id: 48, mch_id: 3, mode_id: 4, feed_rate: 35.0000, blade_speed: 30.0000, time: 18, energy_Wh: 64),
  (cut_id: 48, mch_id: 2, mode_id: 5, feed_rate: 35.0000, blade_speed: 36.0000, time: 18, energy_Wh: 52),
  (cut_id: 48, mch_id: 1, mode_id: 5, feed_rate: 35.0000, blade_speed: 36.0000, time: 18, energy_Wh: 52),
  (cut_id: 48, mch_id: 3, mode_id: 5, feed_rate: 35.0000, blade_speed: 36.0000, time: 18, energy_Wh: 52),
  (cut_id: 48, mch_id: 2, mode_id: 6, feed_rate: 52.5000, blade_speed: 12.0000, time: 12, energy_Wh: 98),
  (cut_id: 48, mch_id: 1, mode_id: 6, feed_rate: 52.5000, blade_speed: 12.0000, time: 12, energy_Wh: 98),
  (cut_id: 48, mch_id: 3, mode_id: 6, feed_rate: 52.5000, blade_speed: 12.0000, time: 12, energy_Wh: 98),
  (cut_id: 48, mch_id: 2, mode_id: 7, feed_rate: 52.5000, blade_speed: 18.0000, time: 12, energy_Wh: 88),
  (cut_id: 48, mch_id: 1, mode_id: 7, feed_rate: 52.5000, blade_speed: 18.0000, time: 12, energy_Wh: 88),
  (cut_id: 48, mch_id: 3, mode_id: 7, feed_rate: 52.5000, blade_speed: 18.0000, time: 12, energy_Wh: 88),
  (cut_id: 48, mch_id: 2, mode_id: 8, feed_rate: 52.5000, blade_speed: 24.0000, time: 12, energy_Wh: 83),
  (cut_id: 48, mch_id: 1, mode_id: 8, feed_rate: 52.5000, blade_speed: 24.0000, time: 12, energy_Wh: 83),
  (cut_id: 48, mch_id: 3, mode_id: 8, feed_rate: 52.5000, blade_speed: 24.0000, time: 12, energy_Wh: 83),
  (cut_id: 48, mch_id: 2, mode_id: 9, feed_rate: 52.5000, blade_speed: 30.0000, time: 12, energy_Wh: 68),
  (cut_id: 48, mch_id: 1, mode_id: 9, feed_rate: 52.5000, blade_speed: 30.0000, time: 12, energy_Wh: 68),
  (cut_id: 48, mch_id: 3, mode_id: 9, feed_rate: 52.5000, blade_speed: 30.0000, time: 12, energy_Wh: 68),
  (cut_id: 48, mch_id: 2, mode_id: 10, feed_rate: 52.5000, blade_speed: 36.0000, time: 12, energy_Wh: 68),
  (cut_id: 48, mch_id: 1, mode_id: 10, feed_rate: 52.5000, blade_speed: 36.0000, time: 12, energy_Wh: 68),
  (cut_id: 48, mch_id: 3, mode_id: 10, feed_rate: 52.5000, blade_speed: 36.0000, time: 12, energy_Wh: 68),
  (cut_id: 48, mch_id: 2, mode_id: 11, feed_rate: 70.0000, blade_speed: 12.0000, time: 9, energy_Wh: 96),
  (cut_id: 48, mch_id: 1, mode_id: 11, feed_rate: 70.0000, blade_speed: 12.0000, time: 9, energy_Wh: 96),
  (cut_id: 48, mch_id: 3, mode_id: 11, feed_rate: 70.0000, blade_speed: 12.0000, time: 9, energy_Wh: 96),
  (cut_id: 48, mch_id: 2, mode_id: 12, feed_rate: 70.0000, blade_speed: 18.0000, time: 9, energy_Wh: 118),
  (cut_id: 48, mch_id: 1, mode_id: 12, feed_rate: 70.0000, blade_speed: 18.0000, time: 9, energy_Wh: 118),
  (cut_id: 48, mch_id: 3, mode_id: 12, feed_rate: 70.0000, blade_speed: 18.0000, time: 9, energy_Wh: 118),
  (cut_id: 48, mch_id: 2, mode_id: 13, feed_rate: 70.0000, blade_speed: 24.0000, time: 9, energy_Wh: 83),
  (cut_id: 48, mch_id: 1, mode_id: 13, feed_rate: 70.0000, blade_speed: 24.0000, time: 9, energy_Wh: 83),
  (cut_id: 48, mch_id: 3, mode_id: 13, feed_rate: 70.0000, blade_speed: 24.0000, time: 9, energy_Wh: 83),
  (cut_id: 48, mch_id: 2, mode_id: 14, feed_rate: 70.0000, blade_speed: 30.0000, time: 9, energy_Wh: 99),
  (cut_id: 48, mch_id: 1, mode_id: 14, feed_rate: 70.0000, blade_speed: 30.0000, time: 9, energy_Wh: 99),
  (cut_id: 48, mch_id: 3, mode_id: 14, feed_rate: 70.0000, blade_speed: 30.0000, time: 9, energy_Wh: 99),
  (cut_id: 48, mch_id: 2, mode_id: 15, feed_rate: 70.0000, blade_speed: 36.0000, time: 9, energy_Wh: 95),
  (cut_id: 48, mch_id: 1, mode_id: 15, feed_rate: 70.0000, blade_speed: 36.0000, time: 9, energy_Wh: 95),
  (cut_id: 48, mch_id: 3, mode_id: 15, feed_rate: 70.0000, blade_speed: 36.0000, time: 9, energy_Wh: 95),
  (cut_id: 48, mch_id: 2, mode_id: 16, feed_rate: 87.5000, blade_speed: 12.0000, time: 8, energy_Wh: 148),
  (cut_id: 48, mch_id: 1, mode_id: 16, feed_rate: 87.5000, blade_speed: 12.0000, time: 8, energy_Wh: 148),
  (cut_id: 48, mch_id: 3, mode_id: 16, feed_rate: 87.5000, blade_speed: 12.0000, time: 8, energy_Wh: 148),
  (cut_id: 48, mch_id: 2, mode_id: 17, feed_rate: 87.5000, blade_speed: 18.0000, time: 8, energy_Wh: 119),
  (cut_id: 48, mch_id: 1, mode_id: 17, feed_rate: 87.5000, blade_speed: 18.0000, time: 8, energy_Wh: 119),
  (cut_id: 48, mch_id: 3, mode_id: 17, feed_rate: 87.5000, blade_speed: 18.0000, time: 8, energy_Wh: 119),
  (cut_id: 48, mch_id: 2, mode_id: 18, feed_rate: 87.5000, blade_speed: 24.0000, time: 8, energy_Wh: 108),
  (cut_id: 48, mch_id: 1, mode_id: 18, feed_rate: 87.5000, blade_speed: 24.0000, time: 8, energy_Wh: 108),
  (cut_id: 48, mch_id: 3, mode_id: 18, feed_rate: 87.5000, blade_speed: 24.0000, time: 8, energy_Wh: 108),
  (cut_id: 48, mch_id: 2, mode_id: 19, feed_rate: 87.5000, blade_speed: 30.0000, time: 8, energy_Wh: 96),
  (cut_id: 48, mch_id: 1, mode_id: 19, feed_rate: 87.5000, blade_speed: 30.0000, time: 8, energy_Wh: 96),
  (cut_id: 48, mch_id: 3, mode_id: 19, feed_rate: 87.5000, blade_speed: 30.0000, time: 8, energy_Wh: 96),
  (cut_id: 48, mch_id: 2, mode_id: 20, feed_rate: 87.5000, blade_speed: 36.0000, time: 8, energy_Wh: 116),
  (cut_id: 48, mch_id: 1, mode_id: 20, feed_rate: 87.5000, blade_speed: 36.0000, time: 8, energy_Wh: 116),
  (cut_id: 48, mch_id: 3, mode_id: 20, feed_rate: 87.5000, blade_speed: 36.0000, time: 8, energy_Wh: 116),
  (cut_id: 48, mch_id: 2, mode_id: 21, feed_rate: 105.0000, blade_speed: 12.0000, time: 6, energy_Wh: 187),
  (cut_id: 48, mch_id: 1, mode_id: 21, feed_rate: 105.0000, blade_speed: 12.0000, time: 6, energy_Wh: 187),
  (cut_id: 48, mch_id: 3, mode_id: 21, feed_rate: 105.0000, blade_speed: 12.0000, time: 6, energy_Wh: 187),
  (cut_id: 48, mch_id: 2, mode_id: 22, feed_rate: 105.0000, blade_speed: 18.0000, time: 6, energy_Wh: 150),
  (cut_id: 48, mch_id: 1, mode_id: 22, feed_rate: 105.0000, blade_speed: 18.0000, time: 6, energy_Wh: 150),
  (cut_id: 48, mch_id: 3, mode_id: 22, feed_rate: 105.0000, blade_speed: 18.0000, time: 6, energy_Wh: 150),
  (cut_id: 48, mch_id: 2, mode_id: 23, feed_rate: 105.0000, blade_speed: 24.0000, time: 6, energy_Wh: 170),
  (cut_id: 48, mch_id: 1, mode_id: 23, feed_rate: 105.0000, blade_speed: 24.0000, time: 6, energy_Wh: 170),
  (cut_id: 48, mch_id: 3, mode_id: 23, feed_rate: 105.0000, blade_speed: 24.0000, time: 6, energy_Wh: 170),
  (cut_id: 48, mch_id: 2, mode_id: 24, feed_rate: 105.0000, blade_speed: 30.0000, time: 6, energy_Wh: 135),
  (cut_id: 48, mch_id: 1, mode_id: 24, feed_rate: 105.0000, blade_speed: 30.0000, time: 6, energy_Wh: 135),
  (cut_id: 48, mch_id: 3, mode_id: 24, feed_rate: 105.0000, blade_speed: 30.0000, time: 6, energy_Wh: 135),
  (cut_id: 48, mch_id: 2, mode_id: 25, feed_rate: 105.0000, blade_speed: 36.0000, time: 6, energy_Wh: 121),
  (cut_id: 48, mch_id: 1, mode_id: 25, feed_rate: 105.0000, blade_speed: 36.0000, time: 6, energy_Wh: 121),
  (cut_id: 48, mch_id: 3, mode_id: 25, feed_rate: 105.0000, blade_speed: 36.0000, time: 6, energy_Wh: 121),
  (cut_id: 49, mch_id: 3, mode_id: 1, feed_rate: 13.9100, blade_speed: 4.1600, time: 46, energy_Wh: 52),
  (cut_id: 49, mch_id: 1, mode_id: 1, feed_rate: 13.9100, blade_speed: 4.1600, time: 46, energy_Wh: 52),
  (cut_id: 49, mch_id: 2, mode_id: 1, feed_rate: 13.9100, blade_speed: 4.1600, time: 46, energy_Wh: 52),
  (cut_id: 49, mch_id: 3, mode_id: 2, feed_rate: 13.9100, blade_speed: 6.2300, time: 46, energy_Wh: 56),
  (cut_id: 49, mch_id: 1, mode_id: 2, feed_rate: 13.9100, blade_speed: 6.2300, time: 46, energy_Wh: 56),
  (cut_id: 49, mch_id: 2, mode_id: 2, feed_rate: 13.9100, blade_speed: 6.2300, time: 46, energy_Wh: 56),
  (cut_id: 49, mch_id: 3, mode_id: 3, feed_rate: 13.9100, blade_speed: 8.3100, time: 46, energy_Wh: 67),
  (cut_id: 49, mch_id: 1, mode_id: 3, feed_rate: 13.9100, blade_speed: 8.3100, time: 46, energy_Wh: 67),
  (cut_id: 49, mch_id: 2, mode_id: 3, feed_rate: 13.9100, blade_speed: 8.3100, time: 46, energy_Wh: 67),
  (cut_id: 49, mch_id: 3, mode_id: 4, feed_rate: 13.9100, blade_speed: 10.3900, time: 46, energy_Wh: 57),
  (cut_id: 49, mch_id: 1, mode_id: 4, feed_rate: 13.9100, blade_speed: 10.3900, time: 46, energy_Wh: 57),
  (cut_id: 49, mch_id: 2, mode_id: 4, feed_rate: 13.9100, blade_speed: 10.3900, time: 46, energy_Wh: 57),
  (cut_id: 49, mch_id: 3, mode_id: 5, feed_rate: 13.9100, blade_speed: 12.4700, time: 46, energy_Wh: 68),
  (cut_id: 49, mch_id: 1, mode_id: 5, feed_rate: 13.9100, blade_speed: 12.4700, time: 46, energy_Wh: 68),
  (cut_id: 49, mch_id: 2, mode_id: 5, feed_rate: 13.9100, blade_speed: 12.4700, time: 46, energy_Wh: 68),
  (cut_id: 49, mch_id: 3, mode_id: 6, feed_rate: 20.8600, blade_speed: 4.1600, time: 31, energy_Wh: 56),
  (cut_id: 49, mch_id: 1, mode_id: 6, feed_rate: 20.8600, blade_speed: 4.1600, time: 31, energy_Wh: 56),
  (cut_id: 49, mch_id: 2, mode_id: 6, feed_rate: 20.8600, blade_speed: 4.1600, time: 31, energy_Wh: 56),
  (cut_id: 49, mch_id: 3, mode_id: 7, feed_rate: 20.8600, blade_speed: 6.2300, time: 31, energy_Wh: 85),
  (cut_id: 49, mch_id: 1, mode_id: 7, feed_rate: 20.8600, blade_speed: 6.2300, time: 31, energy_Wh: 85),
  (cut_id: 49, mch_id: 2, mode_id: 7, feed_rate: 20.8600, blade_speed: 6.2300, time: 31, energy_Wh: 85),
  (cut_id: 49, mch_id: 3, mode_id: 8, feed_rate: 20.8600, blade_speed: 8.3100, time: 31, energy_Wh: 109),
  (cut_id: 49, mch_id: 1, mode_id: 8, feed_rate: 20.8600, blade_speed: 8.3100, time: 31, energy_Wh: 109),
  (cut_id: 49, mch_id: 2, mode_id: 8, feed_rate: 20.8600, blade_speed: 8.3100, time: 31, energy_Wh: 109),
  (cut_id: 49, mch_id: 3, mode_id: 9, feed_rate: 20.8600, blade_speed: 10.3900, time: 31, energy_Wh: 50),
  (cut_id: 49, mch_id: 1, mode_id: 9, feed_rate: 20.8600, blade_speed: 10.3900, time: 31, energy_Wh: 50),
  (cut_id: 49, mch_id: 2, mode_id: 9, feed_rate: 20.8600, blade_speed: 10.3900, time: 31, energy_Wh: 50),
  (cut_id: 49, mch_id: 3, mode_id: 10, feed_rate: 20.8600, blade_speed: 12.4700, time: 31, energy_Wh: 83),
  (cut_id: 49, mch_id: 1, mode_id: 10, feed_rate: 20.8600, blade_speed: 12.4700, time: 31, energy_Wh: 83),
  (cut_id: 49, mch_id: 2, mode_id: 10, feed_rate: 20.8600, blade_speed: 12.4700, time: 31, energy_Wh: 83),
  (cut_id: 49, mch_id: 3, mode_id: 11, feed_rate: 27.8100, blade_speed: 4.1600, time: 23, energy_Wh: 62),
  (cut_id: 49, mch_id: 1, mode_id: 11, feed_rate: 27.8100, blade_speed: 4.1600, time: 23, energy_Wh: 62),
  (cut_id: 49, mch_id: 2, mode_id: 11, feed_rate: 27.8100, blade_speed: 4.1600, time: 23, energy_Wh: 62),
  (cut_id: 49, mch_id: 3, mode_id: 12, feed_rate: 27.8100, blade_speed: 6.2300, time: 23, energy_Wh: 96),
  (cut_id: 49, mch_id: 1, mode_id: 12, feed_rate: 27.8100, blade_speed: 6.2300, time: 23, energy_Wh: 96),
  (cut_id: 49, mch_id: 2, mode_id: 12, feed_rate: 27.8100, blade_speed: 6.2300, time: 23, energy_Wh: 96),
  (cut_id: 49, mch_id: 3, mode_id: 13, feed_rate: 27.8100, blade_speed: 8.3100, time: 23, energy_Wh: 110),
  (cut_id: 49, mch_id: 1, mode_id: 13, feed_rate: 27.8100, blade_speed: 8.3100, time: 23, energy_Wh: 110),
  (cut_id: 49, mch_id: 2, mode_id: 13, feed_rate: 27.8100, blade_speed: 8.3100, time: 23, energy_Wh: 110),
  (cut_id: 49, mch_id: 3, mode_id: 14, feed_rate: 27.8100, blade_speed: 10.3900, time: 23, energy_Wh: 58),
  (cut_id: 49, mch_id: 1, mode_id: 14, feed_rate: 27.8100, blade_speed: 10.3900, time: 23, energy_Wh: 58),
  (cut_id: 49, mch_id: 2, mode_id: 14, feed_rate: 27.8100, blade_speed: 10.3900, time: 23, energy_Wh: 58),
  (cut_id: 49, mch_id: 3, mode_id: 15, feed_rate: 27.8100, blade_speed: 12.4700, time: 23, energy_Wh: 84),
  (cut_id: 49, mch_id: 1, mode_id: 15, feed_rate: 27.8100, blade_speed: 12.4700, time: 23, energy_Wh: 84),
  (cut_id: 49, mch_id: 2, mode_id: 15, feed_rate: 27.8100, blade_speed: 12.4700, time: 23, energy_Wh: 84),
  (cut_id: 49, mch_id: 3, mode_id: 16, feed_rate: 34.7600, blade_speed: 4.1600, time: 19, energy_Wh: 66),
  (cut_id: 49, mch_id: 1, mode_id: 16, feed_rate: 34.7600, blade_speed: 4.1600, time: 19, energy_Wh: 66),
  (cut_id: 49, mch_id: 2, mode_id: 16, feed_rate: 34.7600, blade_speed: 4.1600, time: 19, energy_Wh: 66),
  (cut_id: 49, mch_id: 3, mode_id: 17, feed_rate: 34.7600, blade_speed: 6.2300, time: 19, energy_Wh: 90),
  (cut_id: 49, mch_id: 1, mode_id: 17, feed_rate: 34.7600, blade_speed: 6.2300, time: 19, energy_Wh: 90),
  (cut_id: 49, mch_id: 2, mode_id: 17, feed_rate: 34.7600, blade_speed: 6.2300, time: 19, energy_Wh: 90),
  (cut_id: 49, mch_id: 3, mode_id: 18, feed_rate: 34.7600, blade_speed: 8.3100, time: 19, energy_Wh: 126),
  (cut_id: 49, mch_id: 1, mode_id: 18, feed_rate: 34.7600, blade_speed: 8.3100, time: 19, energy_Wh: 126),
  (cut_id: 49, mch_id: 2, mode_id: 18, feed_rate: 34.7600, blade_speed: 8.3100, time: 19, energy_Wh: 126),
  (cut_id: 49, mch_id: 3, mode_id: 19, feed_rate: 34.7600, blade_speed: 10.3900, time: 19, energy_Wh: 69),
  (cut_id: 49, mch_id: 1, mode_id: 19, feed_rate: 34.7600, blade_speed: 10.3900, time: 19, energy_Wh: 69),
  (cut_id: 49, mch_id: 2, mode_id: 19, feed_rate: 34.7600, blade_speed: 10.3900, time: 19, energy_Wh: 69),
  (cut_id: 49, mch_id: 3, mode_id: 20, feed_rate: 34.7600, blade_speed: 12.4700, time: 19, energy_Wh: 96),
  (cut_id: 49, mch_id: 1, mode_id: 20, feed_rate: 34.7600, blade_speed: 12.4700, time: 19, energy_Wh: 96),
  (cut_id: 49, mch_id: 2, mode_id: 20, feed_rate: 34.7600, blade_speed: 12.4700, time: 19, energy_Wh: 96),
  (cut_id: 49, mch_id: 3, mode_id: 21, feed_rate: 41.7200, blade_speed: 4.1600, time: 16, energy_Wh: 60),
  (cut_id: 49, mch_id: 1, mode_id: 21, feed_rate: 41.7200, blade_speed: 4.1600, time: 16, energy_Wh: 60),
  (cut_id: 49, mch_id: 2, mode_id: 21, feed_rate: 41.7200, blade_speed: 4.1600, time: 16, energy_Wh: 60),
  (cut_id: 49, mch_id: 3, mode_id: 22, feed_rate: 41.7200, blade_speed: 6.2300, time: 16, energy_Wh: 83),
  (cut_id: 49, mch_id: 1, mode_id: 22, feed_rate: 41.7200, blade_speed: 6.2300, time: 16, energy_Wh: 83),
  (cut_id: 49, mch_id: 2, mode_id: 22, feed_rate: 41.7200, blade_speed: 6.2300, time: 16, energy_Wh: 83),
  (cut_id: 49, mch_id: 3, mode_id: 23, feed_rate: 41.7200, blade_speed: 8.3100, time: 16, energy_Wh: 120),
  (cut_id: 49, mch_id: 1, mode_id: 23, feed_rate: 41.7200, blade_speed: 8.3100, time: 16, energy_Wh: 120),
  (cut_id: 49, mch_id: 2, mode_id: 23, feed_rate: 41.7200, blade_speed: 8.3100, time: 16, energy_Wh: 120),
  (cut_id: 49, mch_id: 3, mode_id: 24, feed_rate: 41.7200, blade_speed: 10.3900, time: 16, energy_Wh: 64),
  (cut_id: 49, mch_id: 1, mode_id: 24, feed_rate: 41.7200, blade_speed: 10.3900, time: 16, energy_Wh: 64),
  (cut_id: 49, mch_id: 2, mode_id: 24, feed_rate: 41.7200, blade_speed: 10.3900, time: 16, energy_Wh: 64),
  (cut_id: 49, mch_id: 3, mode_id: 25, feed_rate: 41.7200, blade_speed: 12.4700, time: 16, energy_Wh: 97),
  (cut_id: 49, mch_id: 1, mode_id: 25, feed_rate: 41.7200, blade_speed: 12.4700, time: 16, energy_Wh: 97),
  (cut_id: 49, mch_id: 2, mode_id: 25, feed_rate: 41.7200, blade_speed: 12.4700, time: 16, energy_Wh: 97),
  (cut_id: 50, mch_id: 3, mode_id: 1, feed_rate: 15.5000, blade_speed: 6.0000, time: 56, energy_Wh: 74),
  (cut_id: 50, mch_id: 2, mode_id: 1, feed_rate: 15.5000, blade_speed: 6.0000, time: 56, energy_Wh: 74),
  (cut_id: 50, mch_id: 1, mode_id: 1, feed_rate: 15.5000, blade_speed: 6.0000, time: 56, energy_Wh: 74),
  (cut_id: 50, mch_id: 3, mode_id: 2, feed_rate: 15.5000, blade_speed: 9.0000, time: 56, energy_Wh: 98),
  (cut_id: 50, mch_id: 2, mode_id: 2, feed_rate: 15.5000, blade_speed: 9.0000, time: 56, energy_Wh: 98),
  (cut_id: 50, mch_id: 1, mode_id: 2, feed_rate: 15.5000, blade_speed: 9.0000, time: 56, energy_Wh: 98),
  (cut_id: 50, mch_id: 3, mode_id: 3, feed_rate: 15.5000, blade_speed: 12.0000, time: 56, energy_Wh: 67),
  (cut_id: 50, mch_id: 2, mode_id: 3, feed_rate: 15.5000, blade_speed: 12.0000, time: 56, energy_Wh: 67),
  (cut_id: 50, mch_id: 1, mode_id: 3, feed_rate: 15.5000, blade_speed: 12.0000, time: 56, energy_Wh: 67),
  (cut_id: 50, mch_id: 3, mode_id: 4, feed_rate: 15.5000, blade_speed: 15.0000, time: 56, energy_Wh: 106),
  (cut_id: 50, mch_id: 2, mode_id: 4, feed_rate: 15.5000, blade_speed: 15.0000, time: 56, energy_Wh: 106),
  (cut_id: 50, mch_id: 1, mode_id: 4, feed_rate: 15.5000, blade_speed: 15.0000, time: 56, energy_Wh: 106),
  (cut_id: 50, mch_id: 3, mode_id: 5, feed_rate: 15.5000, blade_speed: 18.0000, time: 56, energy_Wh: 59),
  (cut_id: 50, mch_id: 2, mode_id: 5, feed_rate: 15.5000, blade_speed: 18.0000, time: 56, energy_Wh: 59),
  (cut_id: 50, mch_id: 1, mode_id: 5, feed_rate: 15.5000, blade_speed: 18.0000, time: 56, energy_Wh: 59),
  (cut_id: 50, mch_id: 3, mode_id: 6, feed_rate: 23.2500, blade_speed: 6.0000, time: 38, energy_Wh: 91),
  (cut_id: 50, mch_id: 2, mode_id: 6, feed_rate: 23.2500, blade_speed: 6.0000, time: 38, energy_Wh: 91),
  (cut_id: 50, mch_id: 1, mode_id: 6, feed_rate: 23.2500, blade_speed: 6.0000, time: 38, energy_Wh: 91),
  (cut_id: 50, mch_id: 3, mode_id: 7, feed_rate: 23.2500, blade_speed: 9.0000, time: 38, energy_Wh: 102),
  (cut_id: 50, mch_id: 2, mode_id: 7, feed_rate: 23.2500, blade_speed: 9.0000, time: 38, energy_Wh: 102),
  (cut_id: 50, mch_id: 1, mode_id: 7, feed_rate: 23.2500, blade_speed: 9.0000, time: 38, energy_Wh: 102),
  (cut_id: 50, mch_id: 3, mode_id: 8, feed_rate: 23.2500, blade_speed: 12.0000, time: 38, energy_Wh: 81),
  (cut_id: 50, mch_id: 2, mode_id: 8, feed_rate: 23.2500, blade_speed: 12.0000, time: 38, energy_Wh: 81),
  (cut_id: 50, mch_id: 1, mode_id: 8, feed_rate: 23.2500, blade_speed: 12.0000, time: 38, energy_Wh: 81),
  (cut_id: 50, mch_id: 3, mode_id: 9, feed_rate: 23.2500, blade_speed: 15.0000, time: 38, energy_Wh: 125),
  (cut_id: 50, mch_id: 2, mode_id: 9, feed_rate: 23.2500, blade_speed: 15.0000, time: 38, energy_Wh: 125),
  (cut_id: 50, mch_id: 1, mode_id: 9, feed_rate: 23.2500, blade_speed: 15.0000, time: 38, energy_Wh: 125),
  (cut_id: 50, mch_id: 3, mode_id: 10, feed_rate: 23.2500, blade_speed: 18.0000, time: 38, energy_Wh: 62),
  (cut_id: 50, mch_id: 2, mode_id: 10, feed_rate: 23.2500, blade_speed: 18.0000, time: 38, energy_Wh: 62),
  (cut_id: 50, mch_id: 1, mode_id: 10, feed_rate: 23.2500, blade_speed: 18.0000, time: 38, energy_Wh: 62),
  (cut_id: 50, mch_id: 3, mode_id: 11, feed_rate: 31.0000, blade_speed: 6.0000, time: 28, energy_Wh: 78),
  (cut_id: 50, mch_id: 2, mode_id: 11, feed_rate: 31.0000, blade_speed: 6.0000, time: 28, energy_Wh: 78),
  (cut_id: 50, mch_id: 1, mode_id: 11, feed_rate: 31.0000, blade_speed: 6.0000, time: 28, energy_Wh: 78),
  (cut_id: 50, mch_id: 3, mode_id: 12, feed_rate: 31.0000, blade_speed: 9.0000, time: 28, energy_Wh: 104),
  (cut_id: 50, mch_id: 2, mode_id: 12, feed_rate: 31.0000, blade_speed: 9.0000, time: 28, energy_Wh: 104),
  (cut_id: 50, mch_id: 1, mode_id: 12, feed_rate: 31.0000, blade_speed: 9.0000, time: 28, energy_Wh: 104),
  (cut_id: 50, mch_id: 3, mode_id: 13, feed_rate: 31.0000, blade_speed: 12.0000, time: 28, energy_Wh: 78),
  (cut_id: 50, mch_id: 2, mode_id: 13, feed_rate: 31.0000, blade_speed: 12.0000, time: 28, energy_Wh: 78),
  (cut_id: 50, mch_id: 1, mode_id: 13, feed_rate: 31.0000, blade_speed: 12.0000, time: 28, energy_Wh: 78),
  (cut_id: 50, mch_id: 3, mode_id: 14, feed_rate: 31.0000, blade_speed: 15.0000, time: 28, energy_Wh: 107),
  (cut_id: 50, mch_id: 2, mode_id: 14, feed_rate: 31.0000, blade_speed: 15.0000, time: 28, energy_Wh: 107),
  (cut_id: 50, mch_id: 1, mode_id: 14, feed_rate: 31.0000, blade_speed: 15.0000, time: 28, energy_Wh: 107),
  (cut_id: 50, mch_id: 3, mode_id: 15, feed_rate: 31.0000, blade_speed: 18.0000, time: 28, energy_Wh: 83),
  (cut_id: 50, mch_id: 2, mode_id: 15, feed_rate: 31.0000, blade_speed: 18.0000, time: 28, energy_Wh: 83),
  (cut_id: 50, mch_id: 1, mode_id: 15, feed_rate: 31.0000, blade_speed: 18.0000, time: 28, energy_Wh: 83),
  (cut_id: 50, mch_id: 3, mode_id: 16, feed_rate: 38.7500, blade_speed: 6.0000, time: 23, energy_Wh: 101),
  (cut_id: 50, mch_id: 2, mode_id: 16, feed_rate: 38.7500, blade_speed: 6.0000, time: 23, energy_Wh: 101),
  (cut_id: 50, mch_id: 1, mode_id: 16, feed_rate: 38.7500, blade_speed: 6.0000, time: 23, energy_Wh: 101),
  (cut_id: 50, mch_id: 3, mode_id: 17, feed_rate: 38.7500, blade_speed: 9.0000, time: 23, energy_Wh: 124),
  (cut_id: 50, mch_id: 2, mode_id: 17, feed_rate: 38.7500, blade_speed: 9.0000, time: 23, energy_Wh: 124),
  (cut_id: 50, mch_id: 1, mode_id: 17, feed_rate: 38.7500, blade_speed: 9.0000, time: 23, energy_Wh: 124),
  (cut_id: 50, mch_id: 3, mode_id: 18, feed_rate: 38.7500, blade_speed: 12.0000, time: 23, energy_Wh: 105),
  (cut_id: 50, mch_id: 2, mode_id: 18, feed_rate: 38.7500, blade_speed: 12.0000, time: 23, energy_Wh: 105),
  (cut_id: 50, mch_id: 1, mode_id: 18, feed_rate: 38.7500, blade_speed: 12.0000, time: 23, energy_Wh: 105),
  (cut_id: 50, mch_id: 3, mode_id: 19, feed_rate: 38.7500, blade_speed: 15.0000, time: 23, energy_Wh: 114),
  (cut_id: 50, mch_id: 2, mode_id: 19, feed_rate: 38.7500, blade_speed: 15.0000, time: 23, energy_Wh: 114),
  (cut_id: 50, mch_id: 1, mode_id: 19, feed_rate: 38.7500, blade_speed: 15.0000, time: 23, energy_Wh: 114),
  (cut_id: 50, mch_id: 3, mode_id: 20, feed_rate: 38.7500, blade_speed: 18.0000, time: 23, energy_Wh: 102),
  (cut_id: 50, mch_id: 2, mode_id: 20, feed_rate: 38.7500, blade_speed: 18.0000, time: 23, energy_Wh: 102),
  (cut_id: 50, mch_id: 1, mode_id: 20, feed_rate: 38.7500, blade_speed: 18.0000, time: 23, energy_Wh: 102),
  (cut_id: 50, mch_id: 3, mode_id: 21, feed_rate: 46.5000, blade_speed: 6.0000, time: 19, energy_Wh: 124),
  (cut_id: 50, mch_id: 2, mode_id: 21, feed_rate: 46.5000, blade_speed: 6.0000, time: 19, energy_Wh: 124),
  (cut_id: 50, mch_id: 1, mode_id: 21, feed_rate: 46.5000, blade_speed: 6.0000, time: 19, energy_Wh: 124),
  (cut_id: 50, mch_id: 3, mode_id: 22, feed_rate: 46.5000, blade_speed: 9.0000, time: 19, energy_Wh: 124),
  (cut_id: 50, mch_id: 2, mode_id: 22, feed_rate: 46.5000, blade_speed: 9.0000, time: 19, energy_Wh: 124),
  (cut_id: 50, mch_id: 1, mode_id: 22, feed_rate: 46.5000, blade_speed: 9.0000, time: 19, energy_Wh: 124),
  (cut_id: 50, mch_id: 3, mode_id: 23, feed_rate: 46.5000, blade_speed: 12.0000, time: 19, energy_Wh: 113),
  (cut_id: 50, mch_id: 2, mode_id: 23, feed_rate: 46.5000, blade_speed: 12.0000, time: 19, energy_Wh: 113),
  (cut_id: 50, mch_id: 1, mode_id: 23, feed_rate: 46.5000, blade_speed: 12.0000, time: 19, energy_Wh: 113),
  (cut_id: 50, mch_id: 3, mode_id: 24, feed_rate: 46.5000, blade_speed: 15.0000, time: 19, energy_Wh: 166),
  (cut_id: 50, mch_id: 2, mode_id: 24, feed_rate: 46.5000, blade_speed: 15.0000, time: 19, energy_Wh: 166),
  (cut_id: 50, mch_id: 1, mode_id: 24, feed_rate: 46.5000, blade_speed: 15.0000, time: 19, energy_Wh: 166),
  (cut_id: 50, mch_id: 3, mode_id: 25, feed_rate: 46.5000, blade_speed: 18.0000, time: 19, energy_Wh: 76),
  (cut_id: 50, mch_id: 2, mode_id: 25, feed_rate: 46.5000, blade_speed: 18.0000, time: 19, energy_Wh: 76),
  (cut_id: 50, mch_id: 1, mode_id: 25, feed_rate: 46.5000, blade_speed: 18.0000, time: 19, energy_Wh: 76),
  (cut_id: 51, mch_id: 2, mode_id: 1, feed_rate: 15.5000, blade_speed: 7.0000, time: 56, energy_Wh: 77),
  (cut_id: 51, mch_id: 3, mode_id: 1, feed_rate: 15.5000, blade_speed: 7.0000, time: 56, energy_Wh: 77),
  (cut_id: 51, mch_id: 1, mode_id: 1, feed_rate: 15.5000, blade_speed: 7.0000, time: 56, energy_Wh: 77),
  (cut_id: 51, mch_id: 2, mode_id: 2, feed_rate: 15.5000, blade_speed: 10.5000, time: 56, energy_Wh: 60),
  (cut_id: 51, mch_id: 3, mode_id: 2, feed_rate: 15.5000, blade_speed: 10.5000, time: 56, energy_Wh: 60),
  (cut_id: 51, mch_id: 1, mode_id: 2, feed_rate: 15.5000, blade_speed: 10.5000, time: 56, energy_Wh: 60),
  (cut_id: 51, mch_id: 2, mode_id: 3, feed_rate: 15.5000, blade_speed: 14.0000, time: 56, energy_Wh: 105),
  (cut_id: 51, mch_id: 3, mode_id: 3, feed_rate: 15.5000, blade_speed: 14.0000, time: 56, energy_Wh: 105),
  (cut_id: 51, mch_id: 1, mode_id: 3, feed_rate: 15.5000, blade_speed: 14.0000, time: 56, energy_Wh: 105),
  (cut_id: 51, mch_id: 2, mode_id: 4, feed_rate: 15.5000, blade_speed: 17.5000, time: 56, energy_Wh: 56),
  (cut_id: 51, mch_id: 3, mode_id: 4, feed_rate: 15.5000, blade_speed: 17.5000, time: 56, energy_Wh: 56),
  (cut_id: 51, mch_id: 1, mode_id: 4, feed_rate: 15.5000, blade_speed: 17.5000, time: 56, energy_Wh: 56),
  (cut_id: 51, mch_id: 2, mode_id: 5, feed_rate: 15.5000, blade_speed: 21.0000, time: 56, energy_Wh: 113),
  (cut_id: 51, mch_id: 3, mode_id: 5, feed_rate: 15.5000, blade_speed: 21.0000, time: 56, energy_Wh: 113),
  (cut_id: 51, mch_id: 1, mode_id: 5, feed_rate: 15.5000, blade_speed: 21.0000, time: 56, energy_Wh: 113),
  (cut_id: 51, mch_id: 2, mode_id: 6, feed_rate: 23.2500, blade_speed: 7.0000, time: 38, energy_Wh: 122),
  (cut_id: 51, mch_id: 3, mode_id: 6, feed_rate: 23.2500, blade_speed: 7.0000, time: 38, energy_Wh: 122),
  (cut_id: 51, mch_id: 1, mode_id: 6, feed_rate: 23.2500, blade_speed: 7.0000, time: 38, energy_Wh: 122),
  (cut_id: 51, mch_id: 2, mode_id: 7, feed_rate: 23.2500, blade_speed: 10.5000, time: 38, energy_Wh: 71),
  (cut_id: 51, mch_id: 3, mode_id: 7, feed_rate: 23.2500, blade_speed: 10.5000, time: 38, energy_Wh: 71),
  (cut_id: 51, mch_id: 1, mode_id: 7, feed_rate: 23.2500, blade_speed: 10.5000, time: 38, energy_Wh: 71),
  (cut_id: 51, mch_id: 2, mode_id: 8, feed_rate: 23.2500, blade_speed: 14.0000, time: 38, energy_Wh: 127),
  (cut_id: 51, mch_id: 3, mode_id: 8, feed_rate: 23.2500, blade_speed: 14.0000, time: 38, energy_Wh: 127),
  (cut_id: 51, mch_id: 1, mode_id: 8, feed_rate: 23.2500, blade_speed: 14.0000, time: 38, energy_Wh: 127),
  (cut_id: 51, mch_id: 2, mode_id: 9, feed_rate: 23.2500, blade_speed: 17.5000, time: 38, energy_Wh: 71),
  (cut_id: 51, mch_id: 3, mode_id: 9, feed_rate: 23.2500, blade_speed: 17.5000, time: 38, energy_Wh: 71),
  (cut_id: 51, mch_id: 1, mode_id: 9, feed_rate: 23.2500, blade_speed: 17.5000, time: 38, energy_Wh: 71),
  (cut_id: 51, mch_id: 2, mode_id: 10, feed_rate: 23.2500, blade_speed: 21.0000, time: 38, energy_Wh: 107),
  (cut_id: 51, mch_id: 3, mode_id: 10, feed_rate: 23.2500, blade_speed: 21.0000, time: 38, energy_Wh: 107),
  (cut_id: 51, mch_id: 1, mode_id: 10, feed_rate: 23.2500, blade_speed: 21.0000, time: 38, energy_Wh: 107),
  (cut_id: 51, mch_id: 2, mode_id: 11, feed_rate: 31.0000, blade_speed: 7.0000, time: 28, energy_Wh: 118),
  (cut_id: 51, mch_id: 3, mode_id: 11, feed_rate: 31.0000, blade_speed: 7.0000, time: 28, energy_Wh: 118),
  (cut_id: 51, mch_id: 1, mode_id: 11, feed_rate: 31.0000, blade_speed: 7.0000, time: 28, energy_Wh: 118),
  (cut_id: 51, mch_id: 2, mode_id: 12, feed_rate: 31.0000, blade_speed: 10.5000, time: 28, energy_Wh: 84),
  (cut_id: 51, mch_id: 3, mode_id: 12, feed_rate: 31.0000, blade_speed: 10.5000, time: 28, energy_Wh: 84),
  (cut_id: 51, mch_id: 1, mode_id: 12, feed_rate: 31.0000, blade_speed: 10.5000, time: 28, energy_Wh: 84),
  (cut_id: 51, mch_id: 2, mode_id: 13, feed_rate: 31.0000, blade_speed: 14.0000, time: 28, energy_Wh: 140),
  (cut_id: 51, mch_id: 3, mode_id: 13, feed_rate: 31.0000, blade_speed: 14.0000, time: 28, energy_Wh: 140),
  (cut_id: 51, mch_id: 1, mode_id: 13, feed_rate: 31.0000, blade_speed: 14.0000, time: 28, energy_Wh: 140),
  (cut_id: 51, mch_id: 2, mode_id: 14, feed_rate: 31.0000, blade_speed: 17.5000, time: 28, energy_Wh: 67),
  (cut_id: 51, mch_id: 3, mode_id: 14, feed_rate: 31.0000, blade_speed: 17.5000, time: 28, energy_Wh: 67),
  (cut_id: 51, mch_id: 1, mode_id: 14, feed_rate: 31.0000, blade_speed: 17.5000, time: 28, energy_Wh: 67),
  (cut_id: 51, mch_id: 2, mode_id: 15, feed_rate: 31.0000, blade_speed: 21.0000, time: 28, energy_Wh: 147),
  (cut_id: 51, mch_id: 3, mode_id: 15, feed_rate: 31.0000, blade_speed: 21.0000, time: 28, energy_Wh: 147),
  (cut_id: 51, mch_id: 1, mode_id: 15, feed_rate: 31.0000, blade_speed: 21.0000, time: 28, energy_Wh: 147),
  (cut_id: 51, mch_id: 2, mode_id: 16, feed_rate: 38.7500, blade_speed: 7.0000, time: 23, energy_Wh: 133),
  (cut_id: 51, mch_id: 3, mode_id: 16, feed_rate: 38.7500, blade_speed: 7.0000, time: 23, energy_Wh: 133),
  (cut_id: 51, mch_id: 1, mode_id: 16, feed_rate: 38.7500, blade_speed: 7.0000, time: 23, energy_Wh: 133),
  (cut_id: 51, mch_id: 2, mode_id: 17, feed_rate: 38.7500, blade_speed: 10.5000, time: 23, energy_Wh: 75),
  (cut_id: 51, mch_id: 3, mode_id: 17, feed_rate: 38.7500, blade_speed: 10.5000, time: 23, energy_Wh: 75),
  (cut_id: 51, mch_id: 1, mode_id: 17, feed_rate: 38.7500, blade_speed: 10.5000, time: 23, energy_Wh: 75),
  (cut_id: 51, mch_id: 2, mode_id: 18, feed_rate: 38.7500, blade_speed: 14.0000, time: 23, energy_Wh: 145),
  (cut_id: 51, mch_id: 3, mode_id: 18, feed_rate: 38.7500, blade_speed: 14.0000, time: 23, energy_Wh: 145),
  (cut_id: 51, mch_id: 1, mode_id: 18, feed_rate: 38.7500, blade_speed: 14.0000, time: 23, energy_Wh: 145),
  (cut_id: 51, mch_id: 2, mode_id: 19, feed_rate: 38.7500, blade_speed: 17.5000, time: 23, energy_Wh: 84),
  (cut_id: 51, mch_id: 3, mode_id: 19, feed_rate: 38.7500, blade_speed: 17.5000, time: 23, energy_Wh: 84),
  (cut_id: 51, mch_id: 1, mode_id: 19, feed_rate: 38.7500, blade_speed: 17.5000, time: 23, energy_Wh: 84),
  (cut_id: 51, mch_id: 2, mode_id: 20, feed_rate: 38.7500, blade_speed: 21.0000, time: 23, energy_Wh: 116),
  (cut_id: 51, mch_id: 3, mode_id: 20, feed_rate: 38.7500, blade_speed: 21.0000, time: 23, energy_Wh: 116),
  (cut_id: 51, mch_id: 1, mode_id: 20, feed_rate: 38.7500, blade_speed: 21.0000, time: 23, energy_Wh: 116),
  (cut_id: 51, mch_id: 2, mode_id: 21, feed_rate: 46.5000, blade_speed: 7.0000, time: 19, energy_Wh: 150),
  (cut_id: 51, mch_id: 3, mode_id: 21, feed_rate: 46.5000, blade_speed: 7.0000, time: 19, energy_Wh: 150),
  (cut_id: 51, mch_id: 1, mode_id: 21, feed_rate: 46.5000, blade_speed: 7.0000, time: 19, energy_Wh: 150),
  (cut_id: 51, mch_id: 2, mode_id: 22, feed_rate: 46.5000, blade_speed: 10.5000, time: 19, energy_Wh: 72),
  (cut_id: 51, mch_id: 3, mode_id: 22, feed_rate: 46.5000, blade_speed: 10.5000, time: 19, energy_Wh: 72),
  (cut_id: 51, mch_id: 1, mode_id: 22, feed_rate: 46.5000, blade_speed: 10.5000, time: 19, energy_Wh: 72),
  (cut_id: 51, mch_id: 2, mode_id: 23, feed_rate: 46.5000, blade_speed: 14.0000, time: 19, energy_Wh: 148),
  (cut_id: 51, mch_id: 3, mode_id: 23, feed_rate: 46.5000, blade_speed: 14.0000, time: 19, energy_Wh: 148),
  (cut_id: 51, mch_id: 1, mode_id: 23, feed_rate: 46.5000, blade_speed: 14.0000, time: 19, energy_Wh: 148),
  (cut_id: 51, mch_id: 2, mode_id: 24, feed_rate: 46.5000, blade_speed: 17.5000, time: 19, energy_Wh: 90),
  (cut_id: 51, mch_id: 3, mode_id: 24, feed_rate: 46.5000, blade_speed: 17.5000, time: 19, energy_Wh: 90),
  (cut_id: 51, mch_id: 1, mode_id: 24, feed_rate: 46.5000, blade_speed: 17.5000, time: 19, energy_Wh: 90),
  (cut_id: 51, mch_id: 2, mode_id: 25, feed_rate: 46.5000, blade_speed: 21.0000, time: 19, energy_Wh: 180),
  (cut_id: 51, mch_id: 3, mode_id: 25, feed_rate: 46.5000, blade_speed: 21.0000, time: 19, energy_Wh: 180),
  (cut_id: 51, mch_id: 1, mode_id: 25, feed_rate: 46.5000, blade_speed: 21.0000, time: 19, energy_Wh: 180),
  (cut_id: 52, mch_id: 1, mode_id: 1, feed_rate: 19.4700, blade_speed: 11.4700, time: 12, energy_Wh: 32),
  (cut_id: 52, mch_id: 3, mode_id: 1, feed_rate: 19.4700, blade_speed: 11.4700, time: 12, energy_Wh: 32),
  (cut_id: 52, mch_id: 2, mode_id: 1, feed_rate: 19.4700, blade_speed: 11.4700, time: 12, energy_Wh: 32),
  (cut_id: 52, mch_id: 1, mode_id: 2, feed_rate: 19.4700, blade_speed: 17.2100, time: 12, energy_Wh: 28),
  (cut_id: 52, mch_id: 3, mode_id: 2, feed_rate: 19.4700, blade_speed: 17.2100, time: 12, energy_Wh: 28),
  (cut_id: 52, mch_id: 2, mode_id: 2, feed_rate: 19.4700, blade_speed: 17.2100, time: 12, energy_Wh: 28),
  (cut_id: 52, mch_id: 1, mode_id: 3, feed_rate: 19.4700, blade_speed: 22.9500, time: 12, energy_Wh: 35),
  (cut_id: 52, mch_id: 3, mode_id: 3, feed_rate: 19.4700, blade_speed: 22.9500, time: 12, energy_Wh: 35),
  (cut_id: 52, mch_id: 2, mode_id: 3, feed_rate: 19.4700, blade_speed: 22.9500, time: 12, energy_Wh: 35),
  (cut_id: 52, mch_id: 1, mode_id: 4, feed_rate: 19.4700, blade_speed: 28.6900, time: 12, energy_Wh: 34),
  (cut_id: 52, mch_id: 3, mode_id: 4, feed_rate: 19.4700, blade_speed: 28.6900, time: 12, energy_Wh: 34),
  (cut_id: 52, mch_id: 2, mode_id: 4, feed_rate: 19.4700, blade_speed: 28.6900, time: 12, energy_Wh: 34),
  (cut_id: 52, mch_id: 1, mode_id: 5, feed_rate: 19.4700, blade_speed: 34.4200, time: 12, energy_Wh: 44),
  (cut_id: 52, mch_id: 3, mode_id: 5, feed_rate: 19.4700, blade_speed: 34.4200, time: 12, energy_Wh: 44),
  (cut_id: 52, mch_id: 2, mode_id: 5, feed_rate: 19.4700, blade_speed: 34.4200, time: 12, energy_Wh: 44),
  (cut_id: 52, mch_id: 1, mode_id: 6, feed_rate: 29.2100, blade_speed: 11.4700, time: 8, energy_Wh: 32),
  (cut_id: 52, mch_id: 3, mode_id: 6, feed_rate: 29.2100, blade_speed: 11.4700, time: 8, energy_Wh: 32),
  (cut_id: 52, mch_id: 2, mode_id: 6, feed_rate: 29.2100, blade_speed: 11.4700, time: 8, energy_Wh: 32),
  (cut_id: 52, mch_id: 1, mode_id: 7, feed_rate: 29.2100, blade_speed: 17.2100, time: 8, energy_Wh: 33),
  (cut_id: 52, mch_id: 3, mode_id: 7, feed_rate: 29.2100, blade_speed: 17.2100, time: 8, energy_Wh: 33),
  (cut_id: 52, mch_id: 2, mode_id: 7, feed_rate: 29.2100, blade_speed: 17.2100, time: 8, energy_Wh: 33),
  (cut_id: 52, mch_id: 1, mode_id: 8, feed_rate: 29.2100, blade_speed: 22.9500, time: 8, energy_Wh: 32),
  (cut_id: 52, mch_id: 3, mode_id: 8, feed_rate: 29.2100, blade_speed: 22.9500, time: 8, energy_Wh: 32),
  (cut_id: 52, mch_id: 2, mode_id: 8, feed_rate: 29.2100, blade_speed: 22.9500, time: 8, energy_Wh: 32),
  (cut_id: 52, mch_id: 1, mode_id: 9, feed_rate: 29.2100, blade_speed: 28.6900, time: 8, energy_Wh: 39),
  (cut_id: 52, mch_id: 3, mode_id: 9, feed_rate: 29.2100, blade_speed: 28.6900, time: 8, energy_Wh: 39),
  (cut_id: 52, mch_id: 2, mode_id: 9, feed_rate: 29.2100, blade_speed: 28.6900, time: 8, energy_Wh: 39),
  (cut_id: 52, mch_id: 1, mode_id: 10, feed_rate: 29.2100, blade_speed: 34.4200, time: 8, energy_Wh: 47),
  (cut_id: 52, mch_id: 3, mode_id: 10, feed_rate: 29.2100, blade_speed: 34.4200, time: 8, energy_Wh: 47),
  (cut_id: 52, mch_id: 2, mode_id: 10, feed_rate: 29.2100, blade_speed: 34.4200, time: 8, energy_Wh: 47),
  (cut_id: 52, mch_id: 1, mode_id: 11, feed_rate: 38.9500, blade_speed: 11.4700, time: 6, energy_Wh: 39),
  (cut_id: 52, mch_id: 3, mode_id: 11, feed_rate: 38.9500, blade_speed: 11.4700, time: 6, energy_Wh: 39),
  (cut_id: 52, mch_id: 2, mode_id: 11, feed_rate: 38.9500, blade_speed: 11.4700, time: 6, energy_Wh: 39),
  (cut_id: 52, mch_id: 1, mode_id: 12, feed_rate: 38.9500, blade_speed: 17.2100, time: 6, energy_Wh: 42),
  (cut_id: 52, mch_id: 3, mode_id: 12, feed_rate: 38.9500, blade_speed: 17.2100, time: 6, energy_Wh: 42),
  (cut_id: 52, mch_id: 2, mode_id: 12, feed_rate: 38.9500, blade_speed: 17.2100, time: 6, energy_Wh: 42),
  (cut_id: 52, mch_id: 1, mode_id: 13, feed_rate: 38.9500, blade_speed: 22.9500, time: 6, energy_Wh: 39),
  (cut_id: 52, mch_id: 3, mode_id: 13, feed_rate: 38.9500, blade_speed: 22.9500, time: 6, energy_Wh: 39),
  (cut_id: 52, mch_id: 2, mode_id: 13, feed_rate: 38.9500, blade_speed: 22.9500, time: 6, energy_Wh: 39),
  (cut_id: 52, mch_id: 1, mode_id: 14, feed_rate: 38.9500, blade_speed: 28.6900, time: 6, energy_Wh: 58),
  (cut_id: 52, mch_id: 3, mode_id: 14, feed_rate: 38.9500, blade_speed: 28.6900, time: 6, energy_Wh: 58),
  (cut_id: 52, mch_id: 2, mode_id: 14, feed_rate: 38.9500, blade_speed: 28.6900, time: 6, energy_Wh: 58),
  (cut_id: 52, mch_id: 1, mode_id: 15, feed_rate: 38.9500, blade_speed: 34.4200, time: 6, energy_Wh: 64),
  (cut_id: 52, mch_id: 3, mode_id: 15, feed_rate: 38.9500, blade_speed: 34.4200, time: 6, energy_Wh: 64),
  (cut_id: 52, mch_id: 2, mode_id: 15, feed_rate: 38.9500, blade_speed: 34.4200, time: 6, energy_Wh: 64),
  (cut_id: 52, mch_id: 1, mode_id: 16, feed_rate: 48.6900, blade_speed: 11.4700, time: 5, energy_Wh: 44),
  (cut_id: 52, mch_id: 3, mode_id: 16, feed_rate: 48.6900, blade_speed: 11.4700, time: 5, energy_Wh: 44),
  (cut_id: 52, mch_id: 2, mode_id: 16, feed_rate: 48.6900, blade_speed: 11.4700, time: 5, energy_Wh: 44),
  (cut_id: 52, mch_id: 1, mode_id: 17, feed_rate: 48.6900, blade_speed: 17.2100, time: 5, energy_Wh: 47),
  (cut_id: 52, mch_id: 3, mode_id: 17, feed_rate: 48.6900, blade_speed: 17.2100, time: 5, energy_Wh: 47),
  (cut_id: 52, mch_id: 2, mode_id: 17, feed_rate: 48.6900, blade_speed: 17.2100, time: 5, energy_Wh: 47),
  (cut_id: 52, mch_id: 1, mode_id: 18, feed_rate: 48.6900, blade_speed: 22.9500, time: 5, energy_Wh: 58),
  (cut_id: 52, mch_id: 3, mode_id: 18, feed_rate: 48.6900, blade_speed: 22.9500, time: 5, energy_Wh: 58),
  (cut_id: 52, mch_id: 2, mode_id: 18, feed_rate: 48.6900, blade_speed: 22.9500, time: 5, energy_Wh: 58),
  (cut_id: 52, mch_id: 1, mode_id: 19, feed_rate: 48.6900, blade_speed: 28.6900, time: 5, energy_Wh: 48),
  (cut_id: 52, mch_id: 3, mode_id: 19, feed_rate: 48.6900, blade_speed: 28.6900, time: 5, energy_Wh: 48),
  (cut_id: 52, mch_id: 2, mode_id: 19, feed_rate: 48.6900, blade_speed: 28.6900, time: 5, energy_Wh: 48),
  (cut_id: 52, mch_id: 1, mode_id: 20, feed_rate: 48.6900, blade_speed: 34.4200, time: 5, energy_Wh: 74),
  (cut_id: 52, mch_id: 3, mode_id: 20, feed_rate: 48.6900, blade_speed: 34.4200, time: 5, energy_Wh: 74),
  (cut_id: 52, mch_id: 2, mode_id: 20, feed_rate: 48.6900, blade_speed: 34.4200, time: 5, energy_Wh: 74),
  (cut_id: 52, mch_id: 1, mode_id: 21, feed_rate: 58.4200, blade_speed: 11.4700, time: 4, energy_Wh: 51),
  (cut_id: 52, mch_id: 3, mode_id: 21, feed_rate: 58.4200, blade_speed: 11.4700, time: 4, energy_Wh: 51),
  (cut_id: 52, mch_id: 2, mode_id: 21, feed_rate: 58.4200, blade_speed: 11.4700, time: 4, energy_Wh: 51),
  (cut_id: 52, mch_id: 1, mode_id: 22, feed_rate: 58.4200, blade_speed: 17.2100, time: 4, energy_Wh: 44),
  (cut_id: 52, mch_id: 3, mode_id: 22, feed_rate: 58.4200, blade_speed: 17.2100, time: 4, energy_Wh: 44),
  (cut_id: 52, mch_id: 2, mode_id: 22, feed_rate: 58.4200, blade_speed: 17.2100, time: 4, energy_Wh: 44),
  (cut_id: 52, mch_id: 1, mode_id: 23, feed_rate: 58.4200, blade_speed: 22.9500, time: 4, energy_Wh: 54),
  (cut_id: 52, mch_id: 3, mode_id: 23, feed_rate: 58.4200, blade_speed: 22.9500, time: 4, energy_Wh: 54),
  (cut_id: 52, mch_id: 2, mode_id: 23, feed_rate: 58.4200, blade_speed: 22.9500, time: 4, energy_Wh: 54),
  (cut_id: 52, mch_id: 1, mode_id: 24, feed_rate: 58.4200, blade_speed: 28.6900, time: 4, energy_Wh: 65),
  (cut_id: 52, mch_id: 3, mode_id: 24, feed_rate: 58.4200, blade_speed: 28.6900, time: 4, energy_Wh: 65),
  (cut_id: 52, mch_id: 2, mode_id: 24, feed_rate: 58.4200, blade_speed: 28.6900, time: 4, energy_Wh: 65),
  (cut_id: 52, mch_id: 1, mode_id: 25, feed_rate: 58.4200, blade_speed: 34.4200, time: 4, energy_Wh: 94),
  (cut_id: 52, mch_id: 3, mode_id: 25, feed_rate: 58.4200, blade_speed: 34.4200, time: 4, energy_Wh: 94),
  (cut_id: 52, mch_id: 2, mode_id: 25, feed_rate: 58.4200, blade_speed: 34.4200, time: 4, energy_Wh: 94),
  (cut_id: 53, mch_id: 2, mode_id: 1, feed_rate: 19.4700, blade_speed: 11.4700, time: 14, energy_Wh: 26),
  (cut_id: 53, mch_id: 3, mode_id: 1, feed_rate: 19.4700, blade_speed: 11.4700, time: 14, energy_Wh: 26),
  (cut_id: 53, mch_id: 1, mode_id: 1, feed_rate: 19.4700, blade_speed: 11.4700, time: 14, energy_Wh: 26),
  (cut_id: 53, mch_id: 2, mode_id: 2, feed_rate: 19.4700, blade_speed: 17.2100, time: 14, energy_Wh: 36),
  (cut_id: 53, mch_id: 3, mode_id: 2, feed_rate: 19.4700, blade_speed: 17.2100, time: 14, energy_Wh: 36),
  (cut_id: 53, mch_id: 1, mode_id: 2, feed_rate: 19.4700, blade_speed: 17.2100, time: 14, energy_Wh: 36),
  (cut_id: 53, mch_id: 2, mode_id: 3, feed_rate: 19.4700, blade_speed: 22.9500, time: 14, energy_Wh: 26),
  (cut_id: 53, mch_id: 3, mode_id: 3, feed_rate: 19.4700, blade_speed: 22.9500, time: 14, energy_Wh: 26),
  (cut_id: 53, mch_id: 1, mode_id: 3, feed_rate: 19.4700, blade_speed: 22.9500, time: 14, energy_Wh: 26),
  (cut_id: 53, mch_id: 2, mode_id: 4, feed_rate: 19.4700, blade_speed: 28.6900, time: 14, energy_Wh: 35),
  (cut_id: 53, mch_id: 3, mode_id: 4, feed_rate: 19.4700, blade_speed: 28.6900, time: 14, energy_Wh: 35),
  (cut_id: 53, mch_id: 1, mode_id: 4, feed_rate: 19.4700, blade_speed: 28.6900, time: 14, energy_Wh: 35),
  (cut_id: 53, mch_id: 2, mode_id: 5, feed_rate: 19.4700, blade_speed: 34.4200, time: 14, energy_Wh: 44),
  (cut_id: 53, mch_id: 3, mode_id: 5, feed_rate: 19.4700, blade_speed: 34.4200, time: 14, energy_Wh: 44),
  (cut_id: 53, mch_id: 1, mode_id: 5, feed_rate: 19.4700, blade_speed: 34.4200, time: 14, energy_Wh: 44),
  (cut_id: 53, mch_id: 2, mode_id: 6, feed_rate: 29.2100, blade_speed: 11.4700, time: 9, energy_Wh: 38),
  (cut_id: 53, mch_id: 3, mode_id: 6, feed_rate: 29.2100, blade_speed: 11.4700, time: 9, energy_Wh: 38),
  (cut_id: 53, mch_id: 1, mode_id: 6, feed_rate: 29.2100, blade_speed: 11.4700, time: 9, energy_Wh: 38),
  (cut_id: 53, mch_id: 2, mode_id: 7, feed_rate: 29.2100, blade_speed: 17.2100, time: 9, energy_Wh: 40),
  (cut_id: 53, mch_id: 3, mode_id: 7, feed_rate: 29.2100, blade_speed: 17.2100, time: 9, energy_Wh: 40),
  (cut_id: 53, mch_id: 1, mode_id: 7, feed_rate: 29.2100, blade_speed: 17.2100, time: 9, energy_Wh: 40),
  (cut_id: 53, mch_id: 2, mode_id: 8, feed_rate: 29.2100, blade_speed: 22.9500, time: 9, energy_Wh: 37),
  (cut_id: 53, mch_id: 3, mode_id: 8, feed_rate: 29.2100, blade_speed: 22.9500, time: 9, energy_Wh: 37),
  (cut_id: 53, mch_id: 1, mode_id: 8, feed_rate: 29.2100, blade_speed: 22.9500, time: 9, energy_Wh: 37),
  (cut_id: 53, mch_id: 2, mode_id: 9, feed_rate: 29.2100, blade_speed: 28.6900, time: 9, energy_Wh: 52),
  (cut_id: 53, mch_id: 3, mode_id: 9, feed_rate: 29.2100, blade_speed: 28.6900, time: 9, energy_Wh: 52),
  (cut_id: 53, mch_id: 1, mode_id: 9, feed_rate: 29.2100, blade_speed: 28.6900, time: 9, energy_Wh: 52),
  (cut_id: 53, mch_id: 2, mode_id: 10, feed_rate: 29.2100, blade_speed: 34.4200, time: 9, energy_Wh: 49),
  (cut_id: 53, mch_id: 3, mode_id: 10, feed_rate: 29.2100, blade_speed: 34.4200, time: 9, energy_Wh: 49),
  (cut_id: 53, mch_id: 1, mode_id: 10, feed_rate: 29.2100, blade_speed: 34.4200, time: 9, energy_Wh: 49),
  (cut_id: 53, mch_id: 2, mode_id: 11, feed_rate: 38.9500, blade_speed: 11.4700, time: 7, energy_Wh: 40),
  (cut_id: 53, mch_id: 3, mode_id: 11, feed_rate: 38.9500, blade_speed: 11.4700, time: 7, energy_Wh: 40),
  (cut_id: 53, mch_id: 1, mode_id: 11, feed_rate: 38.9500, blade_speed: 11.4700, time: 7, energy_Wh: 40),
  (cut_id: 53, mch_id: 2, mode_id: 12, feed_rate: 38.9500, blade_speed: 17.2100, time: 7, energy_Wh: 49),
  (cut_id: 53, mch_id: 3, mode_id: 12, feed_rate: 38.9500, blade_speed: 17.2100, time: 7, energy_Wh: 49),
  (cut_id: 53, mch_id: 1, mode_id: 12, feed_rate: 38.9500, blade_speed: 17.2100, time: 7, energy_Wh: 49),
  (cut_id: 53, mch_id: 2, mode_id: 13, feed_rate: 38.9500, blade_speed: 22.9500, time: 7, energy_Wh: 41),
  (cut_id: 53, mch_id: 3, mode_id: 13, feed_rate: 38.9500, blade_speed: 22.9500, time: 7, energy_Wh: 41),
  (cut_id: 53, mch_id: 1, mode_id: 13, feed_rate: 38.9500, blade_speed: 22.9500, time: 7, energy_Wh: 41),
  (cut_id: 53, mch_id: 2, mode_id: 14, feed_rate: 38.9500, blade_speed: 28.6900, time: 7, energy_Wh: 51),
  (cut_id: 53, mch_id: 3, mode_id: 14, feed_rate: 38.9500, blade_speed: 28.6900, time: 7, energy_Wh: 51),
  (cut_id: 53, mch_id: 1, mode_id: 14, feed_rate: 38.9500, blade_speed: 28.6900, time: 7, energy_Wh: 51),
  (cut_id: 53, mch_id: 2, mode_id: 15, feed_rate: 38.9500, blade_speed: 34.4200, time: 7, energy_Wh: 50),
  (cut_id: 53, mch_id: 3, mode_id: 15, feed_rate: 38.9500, blade_speed: 34.4200, time: 7, energy_Wh: 50),
  (cut_id: 53, mch_id: 1, mode_id: 15, feed_rate: 38.9500, blade_speed: 34.4200, time: 7, energy_Wh: 50),
  (cut_id: 53, mch_id: 2, mode_id: 16, feed_rate: 48.6900, blade_speed: 11.4700, time: 6, energy_Wh: 55),
  (cut_id: 53, mch_id: 3, mode_id: 16, feed_rate: 48.6900, blade_speed: 11.4700, time: 6, energy_Wh: 55),
  (cut_id: 53, mch_id: 1, mode_id: 16, feed_rate: 48.6900, blade_speed: 11.4700, time: 6, energy_Wh: 55),
  (cut_id: 53, mch_id: 2, mode_id: 17, feed_rate: 48.6900, blade_speed: 17.2100, time: 6, energy_Wh: 47),
  (cut_id: 53, mch_id: 3, mode_id: 17, feed_rate: 48.6900, blade_speed: 17.2100, time: 6, energy_Wh: 47),
  (cut_id: 53, mch_id: 1, mode_id: 17, feed_rate: 48.6900, blade_speed: 17.2100, time: 6, energy_Wh: 47),
  (cut_id: 53, mch_id: 2, mode_id: 18, feed_rate: 48.6900, blade_speed: 22.9500, time: 6, energy_Wh: 58),
  (cut_id: 53, mch_id: 3, mode_id: 18, feed_rate: 48.6900, blade_speed: 22.9500, time: 6, energy_Wh: 58),
  (cut_id: 53, mch_id: 1, mode_id: 18, feed_rate: 48.6900, blade_speed: 22.9500, time: 6, energy_Wh: 58),
  (cut_id: 53, mch_id: 2, mode_id: 19, feed_rate: 48.6900, blade_speed: 28.6900, time: 6, energy_Wh: 63),
  (cut_id: 53, mch_id: 3, mode_id: 19, feed_rate: 48.6900, blade_speed: 28.6900, time: 6, energy_Wh: 63),
  (cut_id: 53, mch_id: 1, mode_id: 19, feed_rate: 48.6900, blade_speed: 28.6900, time: 6, energy_Wh: 63),
  (cut_id: 53, mch_id: 2, mode_id: 20, feed_rate: 48.6900, blade_speed: 34.4200, time: 6, energy_Wh: 68),
  (cut_id: 53, mch_id: 3, mode_id: 20, feed_rate: 48.6900, blade_speed: 34.4200, time: 6, energy_Wh: 68),
  (cut_id: 53, mch_id: 1, mode_id: 20, feed_rate: 48.6900, blade_speed: 34.4200, time: 6, energy_Wh: 68),
  (cut_id: 53, mch_id: 2, mode_id: 21, feed_rate: 58.4200, blade_speed: 11.4700, time: 5, energy_Wh: 47),
  (cut_id: 53, mch_id: 3, mode_id: 21, feed_rate: 58.4200, blade_speed: 11.4700, time: 5, energy_Wh: 47),
  (cut_id: 53, mch_id: 1, mode_id: 21, feed_rate: 58.4200, blade_speed: 11.4700, time: 5, energy_Wh: 47),
  (cut_id: 53, mch_id: 2, mode_id: 22, feed_rate: 58.4200, blade_speed: 17.2100, time: 5, energy_Wh: 52),
  (cut_id: 53, mch_id: 3, mode_id: 22, feed_rate: 58.4200, blade_speed: 17.2100, time: 5, energy_Wh: 52),
  (cut_id: 53, mch_id: 1, mode_id: 22, feed_rate: 58.4200, blade_speed: 17.2100, time: 5, energy_Wh: 52),
  (cut_id: 53, mch_id: 2, mode_id: 23, feed_rate: 58.4200, blade_speed: 22.9500, time: 5, energy_Wh: 59),
  (cut_id: 53, mch_id: 3, mode_id: 23, feed_rate: 58.4200, blade_speed: 22.9500, time: 5, energy_Wh: 59),
  (cut_id: 53, mch_id: 1, mode_id: 23, feed_rate: 58.4200, blade_speed: 22.9500, time: 5, energy_Wh: 59),
  (cut_id: 53, mch_id: 2, mode_id: 24, feed_rate: 58.4200, blade_speed: 28.6900, time: 5, energy_Wh: 66),
  (cut_id: 53, mch_id: 3, mode_id: 24, feed_rate: 58.4200, blade_speed: 28.6900, time: 5, energy_Wh: 66),
  (cut_id: 53, mch_id: 1, mode_id: 24, feed_rate: 58.4200, blade_speed: 28.6900, time: 5, energy_Wh: 66),
  (cut_id: 53, mch_id: 2, mode_id: 25, feed_rate: 58.4200, blade_speed: 34.4200, time: 5, energy_Wh: 80),
  (cut_id: 53, mch_id: 3, mode_id: 25, feed_rate: 58.4200, blade_speed: 34.4200, time: 5, energy_Wh: 80),
  (cut_id: 53, mch_id: 1, mode_id: 25, feed_rate: 58.4200, blade_speed: 34.4200, time: 5, energy_Wh: 80),
  (cut_id: 54, mch_id: 1, mode_id: 1, feed_rate: 18.5700, blade_speed: 10.5700, time: 33, energy_Wh: 54),
  (cut_id: 54, mch_id: 3, mode_id: 1, feed_rate: 18.5700, blade_speed: 10.5700, time: 33, energy_Wh: 54),
  (cut_id: 54, mch_id: 2, mode_id: 1, feed_rate: 18.5700, blade_speed: 10.5700, time: 33, energy_Wh: 54),
  (cut_id: 54, mch_id: 1, mode_id: 2, feed_rate: 18.5700, blade_speed: 15.8500, time: 33, energy_Wh: 52),
  (cut_id: 54, mch_id: 3, mode_id: 2, feed_rate: 18.5700, blade_speed: 15.8500, time: 33, energy_Wh: 52),
  (cut_id: 54, mch_id: 2, mode_id: 2, feed_rate: 18.5700, blade_speed: 15.8500, time: 33, energy_Wh: 52),
  (cut_id: 54, mch_id: 1, mode_id: 3, feed_rate: 18.5700, blade_speed: 21.1300, time: 33, energy_Wh: 94),
  (cut_id: 54, mch_id: 3, mode_id: 3, feed_rate: 18.5700, blade_speed: 21.1300, time: 33, energy_Wh: 94),
  (cut_id: 54, mch_id: 2, mode_id: 3, feed_rate: 18.5700, blade_speed: 21.1300, time: 33, energy_Wh: 94),
  (cut_id: 54, mch_id: 1, mode_id: 4, feed_rate: 18.5700, blade_speed: 26.4100, time: 33, energy_Wh: 100),
  (cut_id: 54, mch_id: 3, mode_id: 4, feed_rate: 18.5700, blade_speed: 26.4100, time: 33, energy_Wh: 100),
  (cut_id: 54, mch_id: 2, mode_id: 4, feed_rate: 18.5700, blade_speed: 26.4100, time: 33, energy_Wh: 100),
  (cut_id: 54, mch_id: 1, mode_id: 5, feed_rate: 18.5700, blade_speed: 31.7000, time: 33, energy_Wh: 67),
  (cut_id: 54, mch_id: 3, mode_id: 5, feed_rate: 18.5700, blade_speed: 31.7000, time: 33, energy_Wh: 67),
  (cut_id: 54, mch_id: 2, mode_id: 5, feed_rate: 18.5700, blade_speed: 31.7000, time: 33, energy_Wh: 67),
  (cut_id: 54, mch_id: 1, mode_id: 6, feed_rate: 27.8500, blade_speed: 10.5700, time: 22, energy_Wh: 48),
  (cut_id: 54, mch_id: 3, mode_id: 6, feed_rate: 27.8500, blade_speed: 10.5700, time: 22, energy_Wh: 48),
  (cut_id: 54, mch_id: 2, mode_id: 6, feed_rate: 27.8500, blade_speed: 10.5700, time: 22, energy_Wh: 48),
  (cut_id: 54, mch_id: 1, mode_id: 7, feed_rate: 27.8500, blade_speed: 15.8500, time: 22, energy_Wh: 78),
  (cut_id: 54, mch_id: 3, mode_id: 7, feed_rate: 27.8500, blade_speed: 15.8500, time: 22, energy_Wh: 78),
  (cut_id: 54, mch_id: 2, mode_id: 7, feed_rate: 27.8500, blade_speed: 15.8500, time: 22, energy_Wh: 78),
  (cut_id: 54, mch_id: 1, mode_id: 8, feed_rate: 27.8500, blade_speed: 21.1300, time: 22, energy_Wh: 84),
  (cut_id: 54, mch_id: 3, mode_id: 8, feed_rate: 27.8500, blade_speed: 21.1300, time: 22, energy_Wh: 84),
  (cut_id: 54, mch_id: 2, mode_id: 8, feed_rate: 27.8500, blade_speed: 21.1300, time: 22, energy_Wh: 84),
  (cut_id: 54, mch_id: 1, mode_id: 9, feed_rate: 27.8500, blade_speed: 26.4100, time: 22, energy_Wh: 110),
  (cut_id: 54, mch_id: 3, mode_id: 9, feed_rate: 27.8500, blade_speed: 26.4100, time: 22, energy_Wh: 110),
  (cut_id: 54, mch_id: 2, mode_id: 9, feed_rate: 27.8500, blade_speed: 26.4100, time: 22, energy_Wh: 110),
  (cut_id: 54, mch_id: 1, mode_id: 10, feed_rate: 27.8500, blade_speed: 31.7000, time: 22, energy_Wh: 87),
  (cut_id: 54, mch_id: 3, mode_id: 10, feed_rate: 27.8500, blade_speed: 31.7000, time: 22, energy_Wh: 87),
  (cut_id: 54, mch_id: 2, mode_id: 10, feed_rate: 27.8500, blade_speed: 31.7000, time: 22, energy_Wh: 87),
  (cut_id: 54, mch_id: 1, mode_id: 11, feed_rate: 37.1300, blade_speed: 10.5700, time: 17, energy_Wh: 63),
  (cut_id: 54, mch_id: 3, mode_id: 11, feed_rate: 37.1300, blade_speed: 10.5700, time: 17, energy_Wh: 63),
  (cut_id: 54, mch_id: 2, mode_id: 11, feed_rate: 37.1300, blade_speed: 10.5700, time: 17, energy_Wh: 63),
  (cut_id: 54, mch_id: 1, mode_id: 12, feed_rate: 37.1300, blade_speed: 15.8500, time: 17, energy_Wh: 79),
  (cut_id: 54, mch_id: 3, mode_id: 12, feed_rate: 37.1300, blade_speed: 15.8500, time: 17, energy_Wh: 79),
  (cut_id: 54, mch_id: 2, mode_id: 12, feed_rate: 37.1300, blade_speed: 15.8500, time: 17, energy_Wh: 79),
  (cut_id: 54, mch_id: 1, mode_id: 13, feed_rate: 37.1300, blade_speed: 21.1300, time: 17, energy_Wh: 113),
  (cut_id: 54, mch_id: 3, mode_id: 13, feed_rate: 37.1300, blade_speed: 21.1300, time: 17, energy_Wh: 113),
  (cut_id: 54, mch_id: 2, mode_id: 13, feed_rate: 37.1300, blade_speed: 21.1300, time: 17, energy_Wh: 113),
  (cut_id: 54, mch_id: 1, mode_id: 14, feed_rate: 37.1300, blade_speed: 26.4100, time: 17, energy_Wh: 101),
  (cut_id: 54, mch_id: 3, mode_id: 14, feed_rate: 37.1300, blade_speed: 26.4100, time: 17, energy_Wh: 101),
  (cut_id: 54, mch_id: 2, mode_id: 14, feed_rate: 37.1300, blade_speed: 26.4100, time: 17, energy_Wh: 101),
  (cut_id: 54, mch_id: 1, mode_id: 15, feed_rate: 37.1300, blade_speed: 31.7000, time: 17, energy_Wh: 93),
  (cut_id: 54, mch_id: 3, mode_id: 15, feed_rate: 37.1300, blade_speed: 31.7000, time: 17, energy_Wh: 93),
  (cut_id: 54, mch_id: 2, mode_id: 15, feed_rate: 37.1300, blade_speed: 31.7000, time: 17, energy_Wh: 93),
  (cut_id: 54, mch_id: 1, mode_id: 16, feed_rate: 46.4100, blade_speed: 10.5700, time: 14, energy_Wh: 63),
  (cut_id: 54, mch_id: 3, mode_id: 16, feed_rate: 46.4100, blade_speed: 10.5700, time: 14, energy_Wh: 63),
  (cut_id: 54, mch_id: 2, mode_id: 16, feed_rate: 46.4100, blade_speed: 10.5700, time: 14, energy_Wh: 63),
  (cut_id: 54, mch_id: 1, mode_id: 17, feed_rate: 46.4100, blade_speed: 15.8500, time: 14, energy_Wh: 97),
  (cut_id: 54, mch_id: 3, mode_id: 17, feed_rate: 46.4100, blade_speed: 15.8500, time: 14, energy_Wh: 97),
  (cut_id: 54, mch_id: 2, mode_id: 17, feed_rate: 46.4100, blade_speed: 15.8500, time: 14, energy_Wh: 97),
  (cut_id: 54, mch_id: 1, mode_id: 18, feed_rate: 46.4100, blade_speed: 21.1300, time: 14, energy_Wh: 105),
  (cut_id: 54, mch_id: 3, mode_id: 18, feed_rate: 46.4100, blade_speed: 21.1300, time: 14, energy_Wh: 105),
  (cut_id: 54, mch_id: 2, mode_id: 18, feed_rate: 46.4100, blade_speed: 21.1300, time: 14, energy_Wh: 105),
  (cut_id: 54, mch_id: 1, mode_id: 19, feed_rate: 46.4100, blade_speed: 26.4100, time: 14, energy_Wh: 139),
  (cut_id: 54, mch_id: 3, mode_id: 19, feed_rate: 46.4100, blade_speed: 26.4100, time: 14, energy_Wh: 139),
  (cut_id: 54, mch_id: 2, mode_id: 19, feed_rate: 46.4100, blade_speed: 26.4100, time: 14, energy_Wh: 139),
  (cut_id: 54, mch_id: 1, mode_id: 20, feed_rate: 46.4100, blade_speed: 31.7000, time: 14, energy_Wh: 107),
  (cut_id: 54, mch_id: 3, mode_id: 20, feed_rate: 46.4100, blade_speed: 31.7000, time: 14, energy_Wh: 107),
  (cut_id: 54, mch_id: 2, mode_id: 20, feed_rate: 46.4100, blade_speed: 31.7000, time: 14, energy_Wh: 107),
  (cut_id: 54, mch_id: 1, mode_id: 21, feed_rate: 55.7000, blade_speed: 10.5700, time: 11, energy_Wh: 75),
  (cut_id: 54, mch_id: 3, mode_id: 21, feed_rate: 55.7000, blade_speed: 10.5700, time: 11, energy_Wh: 75),
  (cut_id: 54, mch_id: 2, mode_id: 21, feed_rate: 55.7000, blade_speed: 10.5700, time: 11, energy_Wh: 75),
  (cut_id: 54, mch_id: 1, mode_id: 22, feed_rate: 55.7000, blade_speed: 15.8500, time: 11, energy_Wh: 84),
  (cut_id: 54, mch_id: 3, mode_id: 22, feed_rate: 55.7000, blade_speed: 15.8500, time: 11, energy_Wh: 84),
  (cut_id: 54, mch_id: 2, mode_id: 22, feed_rate: 55.7000, blade_speed: 15.8500, time: 11, energy_Wh: 84),
  (cut_id: 54, mch_id: 1, mode_id: 23, feed_rate: 55.7000, blade_speed: 21.1300, time: 11, energy_Wh: 131),
  (cut_id: 54, mch_id: 3, mode_id: 23, feed_rate: 55.7000, blade_speed: 21.1300, time: 11, energy_Wh: 131),
  (cut_id: 54, mch_id: 2, mode_id: 23, feed_rate: 55.7000, blade_speed: 21.1300, time: 11, energy_Wh: 131),
  (cut_id: 54, mch_id: 1, mode_id: 24, feed_rate: 55.7000, blade_speed: 26.4100, time: 11, energy_Wh: 159),
  (cut_id: 54, mch_id: 3, mode_id: 24, feed_rate: 55.7000, blade_speed: 26.4100, time: 11, energy_Wh: 159),
  (cut_id: 54, mch_id: 2, mode_id: 24, feed_rate: 55.7000, blade_speed: 26.4100, time: 11, energy_Wh: 159),
  (cut_id: 54, mch_id: 1, mode_id: 25, feed_rate: 55.7000, blade_speed: 31.7000, time: 11, energy_Wh: 112),
  (cut_id: 54, mch_id: 3, mode_id: 25, feed_rate: 55.7000, blade_speed: 31.7000, time: 11, energy_Wh: 112),
  (cut_id: 54, mch_id: 2, mode_id: 25, feed_rate: 55.7000, blade_speed: 31.7000, time: 11, energy_Wh: 112),
  (cut_id: 55, mch_id: 2, mode_id: 1, feed_rate: 17.2000, blade_speed: 9.6000, time: 7, energy_Wh: 36),
  (cut_id: 55, mch_id: 3, mode_id: 1, feed_rate: 17.2000, blade_speed: 9.6000, time: 7, energy_Wh: 36),
  (cut_id: 55, mch_id: 1, mode_id: 1, feed_rate: 17.2000, blade_speed: 9.6000, time: 7, energy_Wh: 36),
  (cut_id: 55, mch_id: 2, mode_id: 2, feed_rate: 17.2000, blade_speed: 14.4000, time: 7, energy_Wh: 46),
  (cut_id: 55, mch_id: 3, mode_id: 2, feed_rate: 17.2000, blade_speed: 14.4000, time: 7, energy_Wh: 46),
  (cut_id: 55, mch_id: 1, mode_id: 2, feed_rate: 17.2000, blade_speed: 14.4000, time: 7, energy_Wh: 46),
  (cut_id: 55, mch_id: 2, mode_id: 3, feed_rate: 17.2000, blade_speed: 19.2000, time: 7, energy_Wh: 30),
  (cut_id: 55, mch_id: 3, mode_id: 3, feed_rate: 17.2000, blade_speed: 19.2000, time: 7, energy_Wh: 30),
  (cut_id: 55, mch_id: 1, mode_id: 3, feed_rate: 17.2000, blade_speed: 19.2000, time: 7, energy_Wh: 30),
  (cut_id: 55, mch_id: 2, mode_id: 4, feed_rate: 17.2000, blade_speed: 24.0000, time: 7, energy_Wh: 22),
  (cut_id: 55, mch_id: 3, mode_id: 4, feed_rate: 17.2000, blade_speed: 24.0000, time: 7, energy_Wh: 22),
  (cut_id: 55, mch_id: 1, mode_id: 4, feed_rate: 17.2000, blade_speed: 24.0000, time: 7, energy_Wh: 22),
  (cut_id: 55, mch_id: 2, mode_id: 5, feed_rate: 17.2000, blade_speed: 28.8000, time: 7, energy_Wh: 29),
  (cut_id: 55, mch_id: 3, mode_id: 5, feed_rate: 17.2000, blade_speed: 28.8000, time: 7, energy_Wh: 29),
  (cut_id: 55, mch_id: 1, mode_id: 5, feed_rate: 17.2000, blade_speed: 28.8000, time: 7, energy_Wh: 29),
  (cut_id: 55, mch_id: 2, mode_id: 6, feed_rate: 25.8000, blade_speed: 9.6000, time: 5, energy_Wh: 32),
  (cut_id: 55, mch_id: 3, mode_id: 6, feed_rate: 25.8000, blade_speed: 9.6000, time: 5, energy_Wh: 32),
  (cut_id: 55, mch_id: 1, mode_id: 6, feed_rate: 25.8000, blade_speed: 9.6000, time: 5, energy_Wh: 32),
  (cut_id: 55, mch_id: 2, mode_id: 7, feed_rate: 25.8000, blade_speed: 14.4000, time: 5, energy_Wh: 47),
  (cut_id: 55, mch_id: 3, mode_id: 7, feed_rate: 25.8000, blade_speed: 14.4000, time: 5, energy_Wh: 47),
  (cut_id: 55, mch_id: 1, mode_id: 7, feed_rate: 25.8000, blade_speed: 14.4000, time: 5, energy_Wh: 47),
  (cut_id: 55, mch_id: 2, mode_id: 8, feed_rate: 25.8000, blade_speed: 19.2000, time: 5, energy_Wh: 49),
  (cut_id: 55, mch_id: 3, mode_id: 8, feed_rate: 25.8000, blade_speed: 19.2000, time: 5, energy_Wh: 49),
  (cut_id: 55, mch_id: 1, mode_id: 8, feed_rate: 25.8000, blade_speed: 19.2000, time: 5, energy_Wh: 49),
  (cut_id: 55, mch_id: 2, mode_id: 9, feed_rate: 25.8000, blade_speed: 24.0000, time: 5, energy_Wh: 30),
  (cut_id: 55, mch_id: 3, mode_id: 9, feed_rate: 25.8000, blade_speed: 24.0000, time: 5, energy_Wh: 30),
  (cut_id: 55, mch_id: 1, mode_id: 9, feed_rate: 25.8000, blade_speed: 24.0000, time: 5, energy_Wh: 30),
  (cut_id: 55, mch_id: 2, mode_id: 10, feed_rate: 25.8000, blade_speed: 28.8000, time: 5, energy_Wh: 35),
  (cut_id: 55, mch_id: 3, mode_id: 10, feed_rate: 25.8000, blade_speed: 28.8000, time: 5, energy_Wh: 35),
  (cut_id: 55, mch_id: 1, mode_id: 10, feed_rate: 25.8000, blade_speed: 28.8000, time: 5, energy_Wh: 35),
  (cut_id: 55, mch_id: 2, mode_id: 11, feed_rate: 34.4000, blade_speed: 9.6000, time: 4, energy_Wh: 44),
  (cut_id: 55, mch_id: 3, mode_id: 11, feed_rate: 34.4000, blade_speed: 9.6000, time: 4, energy_Wh: 44),
  (cut_id: 55, mch_id: 1, mode_id: 11, feed_rate: 34.4000, blade_speed: 9.6000, time: 4, energy_Wh: 44),
  (cut_id: 55, mch_id: 2, mode_id: 12, feed_rate: 34.4000, blade_speed: 14.4000, time: 4, energy_Wh: 61),
  (cut_id: 55, mch_id: 3, mode_id: 12, feed_rate: 34.4000, blade_speed: 14.4000, time: 4, energy_Wh: 61),
  (cut_id: 55, mch_id: 1, mode_id: 12, feed_rate: 34.4000, blade_speed: 14.4000, time: 4, energy_Wh: 61),
  (cut_id: 55, mch_id: 2, mode_id: 13, feed_rate: 34.4000, blade_speed: 19.2000, time: 4, energy_Wh: 42),
  (cut_id: 55, mch_id: 3, mode_id: 13, feed_rate: 34.4000, blade_speed: 19.2000, time: 4, energy_Wh: 42),
  (cut_id: 55, mch_id: 1, mode_id: 13, feed_rate: 34.4000, blade_speed: 19.2000, time: 4, energy_Wh: 42),
  (cut_id: 55, mch_id: 2, mode_id: 14, feed_rate: 34.4000, blade_speed: 24.0000, time: 4, energy_Wh: 34),
  (cut_id: 55, mch_id: 3, mode_id: 14, feed_rate: 34.4000, blade_speed: 24.0000, time: 4, energy_Wh: 34),
  (cut_id: 55, mch_id: 1, mode_id: 14, feed_rate: 34.4000, blade_speed: 24.0000, time: 4, energy_Wh: 34),
  (cut_id: 55, mch_id: 2, mode_id: 15, feed_rate: 34.4000, blade_speed: 28.8000, time: 4, energy_Wh: 40),
  (cut_id: 55, mch_id: 3, mode_id: 15, feed_rate: 34.4000, blade_speed: 28.8000, time: 4, energy_Wh: 40),
  (cut_id: 55, mch_id: 1, mode_id: 15, feed_rate: 34.4000, blade_speed: 28.8000, time: 4, energy_Wh: 40),
  (cut_id: 55, mch_id: 2, mode_id: 16, feed_rate: 43.0000, blade_speed: 9.6000, time: 3, energy_Wh: 42),
  (cut_id: 55, mch_id: 3, mode_id: 16, feed_rate: 43.0000, blade_speed: 9.6000, time: 3, energy_Wh: 42),
  (cut_id: 55, mch_id: 1, mode_id: 16, feed_rate: 43.0000, blade_speed: 9.6000, time: 3, energy_Wh: 42),
  (cut_id: 55, mch_id: 2, mode_id: 17, feed_rate: 43.0000, blade_speed: 14.4000, time: 3, energy_Wh: 75),
  (cut_id: 55, mch_id: 3, mode_id: 17, feed_rate: 43.0000, blade_speed: 14.4000, time: 3, energy_Wh: 75),
  (cut_id: 55, mch_id: 1, mode_id: 17, feed_rate: 43.0000, blade_speed: 14.4000, time: 3, energy_Wh: 75),
  (cut_id: 55, mch_id: 2, mode_id: 18, feed_rate: 43.0000, blade_speed: 19.2000, time: 3, energy_Wh: 64),
  (cut_id: 55, mch_id: 3, mode_id: 18, feed_rate: 43.0000, blade_speed: 19.2000, time: 3, energy_Wh: 64),
  (cut_id: 55, mch_id: 1, mode_id: 18, feed_rate: 43.0000, blade_speed: 19.2000, time: 3, energy_Wh: 64),
  (cut_id: 55, mch_id: 2, mode_id: 19, feed_rate: 43.0000, blade_speed: 24.0000, time: 3, energy_Wh: 43),
  (cut_id: 55, mch_id: 3, mode_id: 19, feed_rate: 43.0000, blade_speed: 24.0000, time: 3, energy_Wh: 43),
  (cut_id: 55, mch_id: 1, mode_id: 19, feed_rate: 43.0000, blade_speed: 24.0000, time: 3, energy_Wh: 43),
  (cut_id: 55, mch_id: 2, mode_id: 20, feed_rate: 43.0000, blade_speed: 28.8000, time: 3, energy_Wh: 50),
  (cut_id: 55, mch_id: 3, mode_id: 20, feed_rate: 43.0000, blade_speed: 28.8000, time: 3, energy_Wh: 50),
  (cut_id: 55, mch_id: 1, mode_id: 20, feed_rate: 43.0000, blade_speed: 28.8000, time: 3, energy_Wh: 50),
  (cut_id: 55, mch_id: 2, mode_id: 21, feed_rate: 51.6000, blade_speed: 9.6000, time: 3, energy_Wh: 51),
  (cut_id: 55, mch_id: 3, mode_id: 21, feed_rate: 51.6000, blade_speed: 9.6000, time: 3, energy_Wh: 51),
  (cut_id: 55, mch_id: 1, mode_id: 21, feed_rate: 51.6000, blade_speed: 9.6000, time: 3, energy_Wh: 51),
  (cut_id: 55, mch_id: 2, mode_id: 22, feed_rate: 51.6000, blade_speed: 14.4000, time: 3, energy_Wh: 65),
  (cut_id: 55, mch_id: 3, mode_id: 22, feed_rate: 51.6000, blade_speed: 14.4000, time: 3, energy_Wh: 65),
  (cut_id: 55, mch_id: 1, mode_id: 22, feed_rate: 51.6000, blade_speed: 14.4000, time: 3, energy_Wh: 65),
  (cut_id: 55, mch_id: 2, mode_id: 23, feed_rate: 51.6000, blade_speed: 19.2000, time: 3, energy_Wh: 64),
  (cut_id: 55, mch_id: 3, mode_id: 23, feed_rate: 51.6000, blade_speed: 19.2000, time: 3, energy_Wh: 64),
  (cut_id: 55, mch_id: 1, mode_id: 23, feed_rate: 51.6000, blade_speed: 19.2000, time: 3, energy_Wh: 64),
  (cut_id: 55, mch_id: 2, mode_id: 24, feed_rate: 51.6000, blade_speed: 24.0000, time: 3, energy_Wh: 51),
  (cut_id: 55, mch_id: 3, mode_id: 24, feed_rate: 51.6000, blade_speed: 24.0000, time: 3, energy_Wh: 51),
  (cut_id: 55, mch_id: 1, mode_id: 24, feed_rate: 51.6000, blade_speed: 24.0000, time: 3, energy_Wh: 51),
  (cut_id: 55, mch_id: 2, mode_id: 25, feed_rate: 51.6000, blade_speed: 28.8000, time: 3, energy_Wh: 40),
  (cut_id: 55, mch_id: 3, mode_id: 25, feed_rate: 51.6000, blade_speed: 28.8000, time: 3, energy_Wh: 40),
  (cut_id: 55, mch_id: 1, mode_id: 25, feed_rate: 51.6000, blade_speed: 28.8000, time: 3, energy_Wh: 40),
  (cut_id: 56, mch_id: 1, mode_id: 1, feed_rate: 15.0000, blade_speed: 11.5900, time: 8, energy_Wh: 27),
  (cut_id: 56, mch_id: 3, mode_id: 1, feed_rate: 15.0000, blade_speed: 11.5900, time: 8, energy_Wh: 27),
  (cut_id: 56, mch_id: 2, mode_id: 1, feed_rate: 15.0000, blade_speed: 11.5900, time: 8, energy_Wh: 27),
  (cut_id: 56, mch_id: 1, mode_id: 2, feed_rate: 15.0000, blade_speed: 17.3900, time: 8, energy_Wh: 24),
  (cut_id: 56, mch_id: 3, mode_id: 2, feed_rate: 15.0000, blade_speed: 17.3900, time: 8, energy_Wh: 24),
  (cut_id: 56, mch_id: 2, mode_id: 2, feed_rate: 15.0000, blade_speed: 17.3900, time: 8, energy_Wh: 24),
  (cut_id: 56, mch_id: 1, mode_id: 3, feed_rate: 15.0000, blade_speed: 23.1800, time: 8, energy_Wh: 19),
  (cut_id: 56, mch_id: 3, mode_id: 3, feed_rate: 15.0000, blade_speed: 23.1800, time: 8, energy_Wh: 19),
  (cut_id: 56, mch_id: 2, mode_id: 3, feed_rate: 15.0000, blade_speed: 23.1800, time: 8, energy_Wh: 19),
  (cut_id: 56, mch_id: 1, mode_id: 4, feed_rate: 15.0000, blade_speed: 28.9800, time: 8, energy_Wh: 27),
  (cut_id: 56, mch_id: 3, mode_id: 4, feed_rate: 15.0000, blade_speed: 28.9800, time: 8, energy_Wh: 27),
  (cut_id: 56, mch_id: 2, mode_id: 4, feed_rate: 15.0000, blade_speed: 28.9800, time: 8, energy_Wh: 27),
  (cut_id: 56, mch_id: 1, mode_id: 5, feed_rate: 15.0000, blade_speed: 34.7800, time: 8, energy_Wh: 26),
  (cut_id: 56, mch_id: 3, mode_id: 5, feed_rate: 15.0000, blade_speed: 34.7800, time: 8, energy_Wh: 26),
  (cut_id: 56, mch_id: 2, mode_id: 5, feed_rate: 15.0000, blade_speed: 34.7800, time: 8, energy_Wh: 26),
  (cut_id: 56, mch_id: 1, mode_id: 6, feed_rate: 22.5000, blade_speed: 11.5900, time: 6, energy_Wh: 23),
  (cut_id: 56, mch_id: 3, mode_id: 6, feed_rate: 22.5000, blade_speed: 11.5900, time: 6, energy_Wh: 23),
  (cut_id: 56, mch_id: 2, mode_id: 6, feed_rate: 22.5000, blade_speed: 11.5900, time: 6, energy_Wh: 23),
  (cut_id: 56, mch_id: 1, mode_id: 7, feed_rate: 22.5000, blade_speed: 17.3900, time: 6, energy_Wh: 21),
  (cut_id: 56, mch_id: 3, mode_id: 7, feed_rate: 22.5000, blade_speed: 17.3900, time: 6, energy_Wh: 21),
  (cut_id: 56, mch_id: 2, mode_id: 7, feed_rate: 22.5000, blade_speed: 17.3900, time: 6, energy_Wh: 21),
  (cut_id: 56, mch_id: 1, mode_id: 8, feed_rate: 22.5000, blade_speed: 23.1800, time: 6, energy_Wh: 28),
  (cut_id: 56, mch_id: 3, mode_id: 8, feed_rate: 22.5000, blade_speed: 23.1800, time: 6, energy_Wh: 28),
  (cut_id: 56, mch_id: 2, mode_id: 8, feed_rate: 22.5000, blade_speed: 23.1800, time: 6, energy_Wh: 28),
  (cut_id: 56, mch_id: 1, mode_id: 9, feed_rate: 22.5000, blade_speed: 28.9800, time: 6, energy_Wh: 24),
  (cut_id: 56, mch_id: 3, mode_id: 9, feed_rate: 22.5000, blade_speed: 28.9800, time: 6, energy_Wh: 24),
  (cut_id: 56, mch_id: 2, mode_id: 9, feed_rate: 22.5000, blade_speed: 28.9800, time: 6, energy_Wh: 24),
  (cut_id: 56, mch_id: 1, mode_id: 10, feed_rate: 22.5000, blade_speed: 34.7800, time: 6, energy_Wh: 38),
  (cut_id: 56, mch_id: 3, mode_id: 10, feed_rate: 22.5000, blade_speed: 34.7800, time: 6, energy_Wh: 38),
  (cut_id: 56, mch_id: 2, mode_id: 10, feed_rate: 22.5000, blade_speed: 34.7800, time: 6, energy_Wh: 38),
  (cut_id: 56, mch_id: 1, mode_id: 11, feed_rate: 30.0000, blade_speed: 11.5900, time: 4, energy_Wh: 28),
  (cut_id: 56, mch_id: 3, mode_id: 11, feed_rate: 30.0000, blade_speed: 11.5900, time: 4, energy_Wh: 28),
  (cut_id: 56, mch_id: 2, mode_id: 11, feed_rate: 30.0000, blade_speed: 11.5900, time: 4, energy_Wh: 28),
  (cut_id: 56, mch_id: 1, mode_id: 12, feed_rate: 30.0000, blade_speed: 17.3900, time: 4, energy_Wh: 27),
  (cut_id: 56, mch_id: 3, mode_id: 12, feed_rate: 30.0000, blade_speed: 17.3900, time: 4, energy_Wh: 27),
  (cut_id: 56, mch_id: 2, mode_id: 12, feed_rate: 30.0000, blade_speed: 17.3900, time: 4, energy_Wh: 27),
  (cut_id: 56, mch_id: 1, mode_id: 13, feed_rate: 30.0000, blade_speed: 23.1800, time: 4, energy_Wh: 34),
  (cut_id: 56, mch_id: 3, mode_id: 13, feed_rate: 30.0000, blade_speed: 23.1800, time: 4, energy_Wh: 34),
  (cut_id: 56, mch_id: 2, mode_id: 13, feed_rate: 30.0000, blade_speed: 23.1800, time: 4, energy_Wh: 34),
  (cut_id: 56, mch_id: 1, mode_id: 14, feed_rate: 30.0000, blade_speed: 28.9800, time: 4, energy_Wh: 28),
  (cut_id: 56, mch_id: 3, mode_id: 14, feed_rate: 30.0000, blade_speed: 28.9800, time: 4, energy_Wh: 28),
  (cut_id: 56, mch_id: 2, mode_id: 14, feed_rate: 30.0000, blade_speed: 28.9800, time: 4, energy_Wh: 28),
  (cut_id: 56, mch_id: 1, mode_id: 15, feed_rate: 30.0000, blade_speed: 34.7800, time: 4, energy_Wh: 37),
  (cut_id: 56, mch_id: 3, mode_id: 15, feed_rate: 30.0000, blade_speed: 34.7800, time: 4, energy_Wh: 37),
  (cut_id: 56, mch_id: 2, mode_id: 15, feed_rate: 30.0000, blade_speed: 34.7800, time: 4, energy_Wh: 37),
  (cut_id: 56, mch_id: 1, mode_id: 16, feed_rate: 37.5000, blade_speed: 11.5900, time: 4, energy_Wh: 39),
  (cut_id: 56, mch_id: 3, mode_id: 16, feed_rate: 37.5000, blade_speed: 11.5900, time: 4, energy_Wh: 39),
  (cut_id: 56, mch_id: 2, mode_id: 16, feed_rate: 37.5000, blade_speed: 11.5900, time: 4, energy_Wh: 39),
  (cut_id: 56, mch_id: 1, mode_id: 17, feed_rate: 37.5000, blade_speed: 17.3900, time: 4, energy_Wh: 34),
  (cut_id: 56, mch_id: 3, mode_id: 17, feed_rate: 37.5000, blade_speed: 17.3900, time: 4, energy_Wh: 34),
  (cut_id: 56, mch_id: 2, mode_id: 17, feed_rate: 37.5000, blade_speed: 17.3900, time: 4, energy_Wh: 34),
  (cut_id: 56, mch_id: 1, mode_id: 18, feed_rate: 37.5000, blade_speed: 23.1800, time: 4, energy_Wh: 29),
  (cut_id: 56, mch_id: 3, mode_id: 18, feed_rate: 37.5000, blade_speed: 23.1800, time: 4, energy_Wh: 29),
  (cut_id: 56, mch_id: 2, mode_id: 18, feed_rate: 37.5000, blade_speed: 23.1800, time: 4, energy_Wh: 29),
  (cut_id: 56, mch_id: 1, mode_id: 19, feed_rate: 37.5000, blade_speed: 28.9800, time: 4, energy_Wh: 31),
  (cut_id: 56, mch_id: 3, mode_id: 19, feed_rate: 37.5000, blade_speed: 28.9800, time: 4, energy_Wh: 31),
  (cut_id: 56, mch_id: 2, mode_id: 19, feed_rate: 37.5000, blade_speed: 28.9800, time: 4, energy_Wh: 31),
  (cut_id: 56, mch_id: 1, mode_id: 20, feed_rate: 37.5000, blade_speed: 34.7800, time: 4, energy_Wh: 48),
  (cut_id: 56, mch_id: 3, mode_id: 20, feed_rate: 37.5000, blade_speed: 34.7800, time: 4, energy_Wh: 48),
  (cut_id: 56, mch_id: 2, mode_id: 20, feed_rate: 37.5000, blade_speed: 34.7800, time: 4, energy_Wh: 48),
  (cut_id: 56, mch_id: 1, mode_id: 21, feed_rate: 45.0000, blade_speed: 11.5900, time: 3, energy_Wh: 41),
  (cut_id: 56, mch_id: 3, mode_id: 21, feed_rate: 45.0000, blade_speed: 11.5900, time: 3, energy_Wh: 41),
  (cut_id: 56, mch_id: 2, mode_id: 21, feed_rate: 45.0000, blade_speed: 11.5900, time: 3, energy_Wh: 41),
  (cut_id: 56, mch_id: 1, mode_id: 22, feed_rate: 45.0000, blade_speed: 17.3900, time: 3, energy_Wh: 43),
  (cut_id: 56, mch_id: 3, mode_id: 22, feed_rate: 45.0000, blade_speed: 17.3900, time: 3, energy_Wh: 43),
  (cut_id: 56, mch_id: 2, mode_id: 22, feed_rate: 45.0000, blade_speed: 17.3900, time: 3, energy_Wh: 43),
  (cut_id: 56, mch_id: 1, mode_id: 23, feed_rate: 45.0000, blade_speed: 23.1800, time: 3, energy_Wh: 33),
  (cut_id: 56, mch_id: 3, mode_id: 23, feed_rate: 45.0000, blade_speed: 23.1800, time: 3, energy_Wh: 33),
  (cut_id: 56, mch_id: 2, mode_id: 23, feed_rate: 45.0000, blade_speed: 23.1800, time: 3, energy_Wh: 33),
  (cut_id: 56, mch_id: 1, mode_id: 24, feed_rate: 45.0000, blade_speed: 28.9800, time: 3, energy_Wh: 39),
  (cut_id: 56, mch_id: 3, mode_id: 24, feed_rate: 45.0000, blade_speed: 28.9800, time: 3, energy_Wh: 39),
  (cut_id: 56, mch_id: 2, mode_id: 24, feed_rate: 45.0000, blade_speed: 28.9800, time: 3, energy_Wh: 39),
  (cut_id: 56, mch_id: 1, mode_id: 25, feed_rate: 45.0000, blade_speed: 34.7800, time: 3, energy_Wh: 53),
  (cut_id: 56, mch_id: 3, mode_id: 25, feed_rate: 45.0000, blade_speed: 34.7800, time: 3, energy_Wh: 53),
  (cut_id: 56, mch_id: 2, mode_id: 25, feed_rate: 45.0000, blade_speed: 34.7800, time: 3, energy_Wh: 53),
  (cut_id: 57, mch_id: 2, mode_id: 1, feed_rate: 14.5000, blade_speed: 6.7500, time: 19, energy_Wh: 36),
  (cut_id: 57, mch_id: 3, mode_id: 1, feed_rate: 14.5000, blade_speed: 6.7500, time: 19, energy_Wh: 36),
  (cut_id: 57, mch_id: 1, mode_id: 1, feed_rate: 14.5000, blade_speed: 6.7500, time: 19, energy_Wh: 36),
  (cut_id: 57, mch_id: 2, mode_id: 2, feed_rate: 14.5000, blade_speed: 10.1200, time: 19, energy_Wh: 34),
  (cut_id: 57, mch_id: 3, mode_id: 2, feed_rate: 14.5000, blade_speed: 10.1200, time: 19, energy_Wh: 34),
  (cut_id: 57, mch_id: 1, mode_id: 2, feed_rate: 14.5000, blade_speed: 10.1200, time: 19, energy_Wh: 34),
  (cut_id: 57, mch_id: 2, mode_id: 3, feed_rate: 14.5000, blade_speed: 13.5000, time: 19, energy_Wh: 51),
  (cut_id: 57, mch_id: 3, mode_id: 3, feed_rate: 14.5000, blade_speed: 13.5000, time: 19, energy_Wh: 51),
  (cut_id: 57, mch_id: 1, mode_id: 3, feed_rate: 14.5000, blade_speed: 13.5000, time: 19, energy_Wh: 51),
  (cut_id: 57, mch_id: 2, mode_id: 4, feed_rate: 14.5000, blade_speed: 16.8800, time: 19, energy_Wh: 26),
  (cut_id: 57, mch_id: 3, mode_id: 4, feed_rate: 14.5000, blade_speed: 16.8800, time: 19, energy_Wh: 26),
  (cut_id: 57, mch_id: 1, mode_id: 4, feed_rate: 14.5000, blade_speed: 16.8800, time: 19, energy_Wh: 26),
  (cut_id: 57, mch_id: 2, mode_id: 5, feed_rate: 14.5000, blade_speed: 20.2500, time: 19, energy_Wh: 52),
  (cut_id: 57, mch_id: 3, mode_id: 5, feed_rate: 14.5000, blade_speed: 20.2500, time: 19, energy_Wh: 52),
  (cut_id: 57, mch_id: 1, mode_id: 5, feed_rate: 14.5000, blade_speed: 20.2500, time: 19, energy_Wh: 52),
  (cut_id: 57, mch_id: 2, mode_id: 6, feed_rate: 21.7500, blade_speed: 6.7500, time: 13, energy_Wh: 54),
  (cut_id: 57, mch_id: 3, mode_id: 6, feed_rate: 21.7500, blade_speed: 6.7500, time: 13, energy_Wh: 54),
  (cut_id: 57, mch_id: 1, mode_id: 6, feed_rate: 21.7500, blade_speed: 6.7500, time: 13, energy_Wh: 54),
  (cut_id: 57, mch_id: 2, mode_id: 7, feed_rate: 21.7500, blade_speed: 10.1200, time: 13, energy_Wh: 32),
  (cut_id: 57, mch_id: 3, mode_id: 7, feed_rate: 21.7500, blade_speed: 10.1200, time: 13, energy_Wh: 32),
  (cut_id: 57, mch_id: 1, mode_id: 7, feed_rate: 21.7500, blade_speed: 10.1200, time: 13, energy_Wh: 32),
  (cut_id: 57, mch_id: 2, mode_id: 8, feed_rate: 21.7500, blade_speed: 13.5000, time: 13, energy_Wh: 44),
  (cut_id: 57, mch_id: 3, mode_id: 8, feed_rate: 21.7500, blade_speed: 13.5000, time: 13, energy_Wh: 44),
  (cut_id: 57, mch_id: 1, mode_id: 8, feed_rate: 21.7500, blade_speed: 13.5000, time: 13, energy_Wh: 44),
  (cut_id: 57, mch_id: 2, mode_id: 9, feed_rate: 21.7500, blade_speed: 16.8800, time: 13, energy_Wh: 33),
  (cut_id: 57, mch_id: 3, mode_id: 9, feed_rate: 21.7500, blade_speed: 16.8800, time: 13, energy_Wh: 33),
  (cut_id: 57, mch_id: 1, mode_id: 9, feed_rate: 21.7500, blade_speed: 16.8800, time: 13, energy_Wh: 33),
  (cut_id: 57, mch_id: 2, mode_id: 10, feed_rate: 21.7500, blade_speed: 20.2500, time: 13, energy_Wh: 47),
  (cut_id: 57, mch_id: 3, mode_id: 10, feed_rate: 21.7500, blade_speed: 20.2500, time: 13, energy_Wh: 47),
  (cut_id: 57, mch_id: 1, mode_id: 10, feed_rate: 21.7500, blade_speed: 20.2500, time: 13, energy_Wh: 47),
  (cut_id: 57, mch_id: 2, mode_id: 11, feed_rate: 29.0000, blade_speed: 6.7500, time: 10, energy_Wh: 55),
  (cut_id: 57, mch_id: 3, mode_id: 11, feed_rate: 29.0000, blade_speed: 6.7500, time: 10, energy_Wh: 55),
  (cut_id: 57, mch_id: 1, mode_id: 11, feed_rate: 29.0000, blade_speed: 6.7500, time: 10, energy_Wh: 55),
  (cut_id: 57, mch_id: 2, mode_id: 12, feed_rate: 29.0000, blade_speed: 10.1200, time: 10, energy_Wh: 38),
  (cut_id: 57, mch_id: 3, mode_id: 12, feed_rate: 29.0000, blade_speed: 10.1200, time: 10, energy_Wh: 38),
  (cut_id: 57, mch_id: 1, mode_id: 12, feed_rate: 29.0000, blade_speed: 10.1200, time: 10, energy_Wh: 38),
  (cut_id: 57, mch_id: 2, mode_id: 13, feed_rate: 29.0000, blade_speed: 13.5000, time: 10, energy_Wh: 52),
  (cut_id: 57, mch_id: 3, mode_id: 13, feed_rate: 29.0000, blade_speed: 13.5000, time: 10, energy_Wh: 52),
  (cut_id: 57, mch_id: 1, mode_id: 13, feed_rate: 29.0000, blade_speed: 13.5000, time: 10, energy_Wh: 52),
  (cut_id: 57, mch_id: 2, mode_id: 14, feed_rate: 29.0000, blade_speed: 16.8800, time: 10, energy_Wh: 34),
  (cut_id: 57, mch_id: 3, mode_id: 14, feed_rate: 29.0000, blade_speed: 16.8800, time: 10, energy_Wh: 34),
  (cut_id: 57, mch_id: 1, mode_id: 14, feed_rate: 29.0000, blade_speed: 16.8800, time: 10, energy_Wh: 34),
  (cut_id: 57, mch_id: 2, mode_id: 15, feed_rate: 29.0000, blade_speed: 20.2500, time: 10, energy_Wh: 57),
  (cut_id: 57, mch_id: 3, mode_id: 15, feed_rate: 29.0000, blade_speed: 20.2500, time: 10, energy_Wh: 57),
  (cut_id: 57, mch_id: 1, mode_id: 15, feed_rate: 29.0000, blade_speed: 20.2500, time: 10, energy_Wh: 57),
  (cut_id: 57, mch_id: 2, mode_id: 16, feed_rate: 36.2500, blade_speed: 6.7500, time: 8, energy_Wh: 57),
  (cut_id: 57, mch_id: 3, mode_id: 16, feed_rate: 36.2500, blade_speed: 6.7500, time: 8, energy_Wh: 57),
  (cut_id: 57, mch_id: 1, mode_id: 16, feed_rate: 36.2500, blade_speed: 6.7500, time: 8, energy_Wh: 57),
  (cut_id: 57, mch_id: 2, mode_id: 17, feed_rate: 36.2500, blade_speed: 10.1200, time: 8, energy_Wh: 39),
  (cut_id: 57, mch_id: 3, mode_id: 17, feed_rate: 36.2500, blade_speed: 10.1200, time: 8, energy_Wh: 39),
  (cut_id: 57, mch_id: 1, mode_id: 17, feed_rate: 36.2500, blade_speed: 10.1200, time: 8, energy_Wh: 39),
  (cut_id: 57, mch_id: 2, mode_id: 18, feed_rate: 36.2500, blade_speed: 13.5000, time: 8, energy_Wh: 74),
  (cut_id: 57, mch_id: 3, mode_id: 18, feed_rate: 36.2500, blade_speed: 13.5000, time: 8, energy_Wh: 74),
  (cut_id: 57, mch_id: 1, mode_id: 18, feed_rate: 36.2500, blade_speed: 13.5000, time: 8, energy_Wh: 74),
  (cut_id: 57, mch_id: 2, mode_id: 19, feed_rate: 36.2500, blade_speed: 16.8800, time: 8, energy_Wh: 34),
  (cut_id: 57, mch_id: 3, mode_id: 19, feed_rate: 36.2500, blade_speed: 16.8800, time: 8, energy_Wh: 34),
  (cut_id: 57, mch_id: 1, mode_id: 19, feed_rate: 36.2500, blade_speed: 16.8800, time: 8, energy_Wh: 34),
  (cut_id: 57, mch_id: 2, mode_id: 20, feed_rate: 36.2500, blade_speed: 20.2500, time: 8, energy_Wh: 85),
  (cut_id: 57, mch_id: 3, mode_id: 20, feed_rate: 36.2500, blade_speed: 20.2500, time: 8, energy_Wh: 85),
  (cut_id: 57, mch_id: 1, mode_id: 20, feed_rate: 36.2500, blade_speed: 20.2500, time: 8, energy_Wh: 85),
  (cut_id: 57, mch_id: 2, mode_id: 21, feed_rate: 43.5000, blade_speed: 6.7500, time: 7, energy_Wh: 58),
  (cut_id: 57, mch_id: 3, mode_id: 21, feed_rate: 43.5000, blade_speed: 6.7500, time: 7, energy_Wh: 58),
  (cut_id: 57, mch_id: 1, mode_id: 21, feed_rate: 43.5000, blade_speed: 6.7500, time: 7, energy_Wh: 58),
  (cut_id: 57, mch_id: 2, mode_id: 22, feed_rate: 43.5000, blade_speed: 10.1200, time: 7, energy_Wh: 50),
  (cut_id: 57, mch_id: 3, mode_id: 22, feed_rate: 43.5000, blade_speed: 10.1200, time: 7, energy_Wh: 50),
  (cut_id: 57, mch_id: 1, mode_id: 22, feed_rate: 43.5000, blade_speed: 10.1200, time: 7, energy_Wh: 50),
  (cut_id: 57, mch_id: 2, mode_id: 23, feed_rate: 43.5000, blade_speed: 13.5000, time: 7, energy_Wh: 63),
  (cut_id: 57, mch_id: 3, mode_id: 23, feed_rate: 43.5000, blade_speed: 13.5000, time: 7, energy_Wh: 63),
  (cut_id: 57, mch_id: 1, mode_id: 23, feed_rate: 43.5000, blade_speed: 13.5000, time: 7, energy_Wh: 63),
  (cut_id: 57, mch_id: 2, mode_id: 24, feed_rate: 43.5000, blade_speed: 16.8800, time: 7, energy_Wh: 47),
  (cut_id: 57, mch_id: 3, mode_id: 24, feed_rate: 43.5000, blade_speed: 16.8800, time: 7, energy_Wh: 47),
  (cut_id: 57, mch_id: 1, mode_id: 24, feed_rate: 43.5000, blade_speed: 16.8800, time: 7, energy_Wh: 47),
  (cut_id: 57, mch_id: 2, mode_id: 25, feed_rate: 43.5000, blade_speed: 20.2500, time: 7, energy_Wh: 83),
  (cut_id: 57, mch_id: 3, mode_id: 25, feed_rate: 43.5000, blade_speed: 20.2500, time: 7, energy_Wh: 83),
  (cut_id: 57, mch_id: 1, mode_id: 25, feed_rate: 43.5000, blade_speed: 20.2500, time: 7, energy_Wh: 83),
  (cut_id: 58, mch_id: 2, mode_id: 1, feed_rate: 17.5000, blade_speed: 50.0000, time: 16, energy_Wh: 41),
  (cut_id: 58, mch_id: 1, mode_id: 1, feed_rate: 17.5000, blade_speed: 50.0000, time: 16, energy_Wh: 41),
  (cut_id: 58, mch_id: 3, mode_id: 1, feed_rate: 17.5000, blade_speed: 50.0000, time: 16, energy_Wh: 41),
  (cut_id: 58, mch_id: 2, mode_id: 2, feed_rate: 17.5000, blade_speed: 75.0000, time: 16, energy_Wh: 41),
  (cut_id: 58, mch_id: 1, mode_id: 2, feed_rate: 17.5000, blade_speed: 75.0000, time: 16, energy_Wh: 41),
  (cut_id: 58, mch_id: 3, mode_id: 2, feed_rate: 17.5000, blade_speed: 75.0000, time: 16, energy_Wh: 41),
  (cut_id: 58, mch_id: 2, mode_id: 3, feed_rate: 17.5000, blade_speed: 100.0000, time: 16, energy_Wh: 29),
  (cut_id: 58, mch_id: 1, mode_id: 3, feed_rate: 17.5000, blade_speed: 100.0000, time: 16, energy_Wh: 29),
  (cut_id: 58, mch_id: 3, mode_id: 3, feed_rate: 17.5000, blade_speed: 100.0000, time: 16, energy_Wh: 29),
  (cut_id: 58, mch_id: 2, mode_id: 4, feed_rate: 17.5000, blade_speed: 125.0000, time: 16, energy_Wh: 30),
  (cut_id: 58, mch_id: 1, mode_id: 4, feed_rate: 17.5000, blade_speed: 125.0000, time: 16, energy_Wh: 30),
  (cut_id: 58, mch_id: 3, mode_id: 4, feed_rate: 17.5000, blade_speed: 125.0000, time: 16, energy_Wh: 30),
  (cut_id: 58, mch_id: 2, mode_id: 5, feed_rate: 17.5000, blade_speed: 150.0000, time: 16, energy_Wh: 31),
  (cut_id: 58, mch_id: 1, mode_id: 5, feed_rate: 17.5000, blade_speed: 150.0000, time: 16, energy_Wh: 31),
  (cut_id: 58, mch_id: 3, mode_id: 5, feed_rate: 17.5000, blade_speed: 150.0000, time: 16, energy_Wh: 31),
  (cut_id: 58, mch_id: 2, mode_id: 6, feed_rate: 26.2500, blade_speed: 50.0000, time: 11, energy_Wh: 48),
  (cut_id: 58, mch_id: 1, mode_id: 6, feed_rate: 26.2500, blade_speed: 50.0000, time: 11, energy_Wh: 48),
  (cut_id: 58, mch_id: 3, mode_id: 6, feed_rate: 26.2500, blade_speed: 50.0000, time: 11, energy_Wh: 48),
  (cut_id: 58, mch_id: 2, mode_id: 7, feed_rate: 26.2500, blade_speed: 75.0000, time: 11, energy_Wh: 49),
  (cut_id: 58, mch_id: 1, mode_id: 7, feed_rate: 26.2500, blade_speed: 75.0000, time: 11, energy_Wh: 49),
  (cut_id: 58, mch_id: 3, mode_id: 7, feed_rate: 26.2500, blade_speed: 75.0000, time: 11, energy_Wh: 49),
  (cut_id: 58, mch_id: 2, mode_id: 8, feed_rate: 26.2500, blade_speed: 100.0000, time: 11, energy_Wh: 34),
  (cut_id: 58, mch_id: 1, mode_id: 8, feed_rate: 26.2500, blade_speed: 100.0000, time: 11, energy_Wh: 34),
  (cut_id: 58, mch_id: 3, mode_id: 8, feed_rate: 26.2500, blade_speed: 100.0000, time: 11, energy_Wh: 34),
  (cut_id: 58, mch_id: 2, mode_id: 9, feed_rate: 26.2500, blade_speed: 125.0000, time: 11, energy_Wh: 36),
  (cut_id: 58, mch_id: 1, mode_id: 9, feed_rate: 26.2500, blade_speed: 125.0000, time: 11, energy_Wh: 36),
  (cut_id: 58, mch_id: 3, mode_id: 9, feed_rate: 26.2500, blade_speed: 125.0000, time: 11, energy_Wh: 36),
  (cut_id: 58, mch_id: 2, mode_id: 10, feed_rate: 26.2500, blade_speed: 150.0000, time: 11, energy_Wh: 34),
  (cut_id: 58, mch_id: 1, mode_id: 10, feed_rate: 26.2500, blade_speed: 150.0000, time: 11, energy_Wh: 34),
  (cut_id: 58, mch_id: 3, mode_id: 10, feed_rate: 26.2500, blade_speed: 150.0000, time: 11, energy_Wh: 34),
  (cut_id: 58, mch_id: 2, mode_id: 11, feed_rate: 35.0000, blade_speed: 50.0000, time: 8, energy_Wh: 47),
  (cut_id: 58, mch_id: 1, mode_id: 11, feed_rate: 35.0000, blade_speed: 50.0000, time: 8, energy_Wh: 47),
  (cut_id: 58, mch_id: 3, mode_id: 11, feed_rate: 35.0000, blade_speed: 50.0000, time: 8, energy_Wh: 47),
  (cut_id: 58, mch_id: 2, mode_id: 12, feed_rate: 35.0000, blade_speed: 75.0000, time: 8, energy_Wh: 57),
  (cut_id: 58, mch_id: 1, mode_id: 12, feed_rate: 35.0000, blade_speed: 75.0000, time: 8, energy_Wh: 57),
  (cut_id: 58, mch_id: 3, mode_id: 12, feed_rate: 35.0000, blade_speed: 75.0000, time: 8, energy_Wh: 57),
  (cut_id: 58, mch_id: 2, mode_id: 13, feed_rate: 35.0000, blade_speed: 100.0000, time: 8, energy_Wh: 39),
  (cut_id: 58, mch_id: 1, mode_id: 13, feed_rate: 35.0000, blade_speed: 100.0000, time: 8, energy_Wh: 39),
  (cut_id: 58, mch_id: 3, mode_id: 13, feed_rate: 35.0000, blade_speed: 100.0000, time: 8, energy_Wh: 39),
  (cut_id: 58, mch_id: 2, mode_id: 14, feed_rate: 35.0000, blade_speed: 125.0000, time: 8, energy_Wh: 42),
  (cut_id: 58, mch_id: 1, mode_id: 14, feed_rate: 35.0000, blade_speed: 125.0000, time: 8, energy_Wh: 42),
  (cut_id: 58, mch_id: 3, mode_id: 14, feed_rate: 35.0000, blade_speed: 125.0000, time: 8, energy_Wh: 42),
  (cut_id: 58, mch_id: 2, mode_id: 15, feed_rate: 35.0000, blade_speed: 150.0000, time: 8, energy_Wh: 49),
  (cut_id: 58, mch_id: 1, mode_id: 15, feed_rate: 35.0000, blade_speed: 150.0000, time: 8, energy_Wh: 49),
  (cut_id: 58, mch_id: 3, mode_id: 15, feed_rate: 35.0000, blade_speed: 150.0000, time: 8, energy_Wh: 49),
  (cut_id: 58, mch_id: 2, mode_id: 16, feed_rate: 43.7500, blade_speed: 50.0000, time: 7, energy_Wh: 63),
  (cut_id: 58, mch_id: 1, mode_id: 16, feed_rate: 43.7500, blade_speed: 50.0000, time: 7, energy_Wh: 63),
  (cut_id: 58, mch_id: 3, mode_id: 16, feed_rate: 43.7500, blade_speed: 50.0000, time: 7, energy_Wh: 63),
  (cut_id: 58, mch_id: 2, mode_id: 17, feed_rate: 43.7500, blade_speed: 75.0000, time: 7, energy_Wh: 57),
  (cut_id: 58, mch_id: 1, mode_id: 17, feed_rate: 43.7500, blade_speed: 75.0000, time: 7, energy_Wh: 57),
  (cut_id: 58, mch_id: 3, mode_id: 17, feed_rate: 43.7500, blade_speed: 75.0000, time: 7, energy_Wh: 57),
  (cut_id: 58, mch_id: 2, mode_id: 18, feed_rate: 43.7500, blade_speed: 100.0000, time: 7, energy_Wh: 44),
  (cut_id: 58, mch_id: 1, mode_id: 18, feed_rate: 43.7500, blade_speed: 100.0000, time: 7, energy_Wh: 44),
  (cut_id: 58, mch_id: 3, mode_id: 18, feed_rate: 43.7500, blade_speed: 100.0000, time: 7, energy_Wh: 44),
  (cut_id: 58, mch_id: 2, mode_id: 19, feed_rate: 43.7500, blade_speed: 125.0000, time: 7, energy_Wh: 41),
  (cut_id: 58, mch_id: 1, mode_id: 19, feed_rate: 43.7500, blade_speed: 125.0000, time: 7, energy_Wh: 41),
  (cut_id: 58, mch_id: 3, mode_id: 19, feed_rate: 43.7500, blade_speed: 125.0000, time: 7, energy_Wh: 41),
  (cut_id: 58, mch_id: 2, mode_id: 20, feed_rate: 43.7500, blade_speed: 150.0000, time: 7, energy_Wh: 55),
  (cut_id: 58, mch_id: 1, mode_id: 20, feed_rate: 43.7500, blade_speed: 150.0000, time: 7, energy_Wh: 55),
  (cut_id: 58, mch_id: 3, mode_id: 20, feed_rate: 43.7500, blade_speed: 150.0000, time: 7, energy_Wh: 55),
  (cut_id: 58, mch_id: 2, mode_id: 21, feed_rate: 52.5000, blade_speed: 50.0000, time: 6, energy_Wh: 54),
  (cut_id: 58, mch_id: 1, mode_id: 21, feed_rate: 52.5000, blade_speed: 50.0000, time: 6, energy_Wh: 54),
  (cut_id: 58, mch_id: 3, mode_id: 21, feed_rate: 52.5000, blade_speed: 50.0000, time: 6, energy_Wh: 54),
  (cut_id: 58, mch_id: 2, mode_id: 22, feed_rate: 52.5000, blade_speed: 75.0000, time: 6, energy_Wh: 56),
  (cut_id: 58, mch_id: 1, mode_id: 22, feed_rate: 52.5000, blade_speed: 75.0000, time: 6, energy_Wh: 56),
  (cut_id: 58, mch_id: 3, mode_id: 22, feed_rate: 52.5000, blade_speed: 75.0000, time: 6, energy_Wh: 56),
  (cut_id: 58, mch_id: 2, mode_id: 23, feed_rate: 52.5000, blade_speed: 100.0000, time: 6, energy_Wh: 60),
  (cut_id: 58, mch_id: 1, mode_id: 23, feed_rate: 52.5000, blade_speed: 100.0000, time: 6, energy_Wh: 60),
  (cut_id: 58, mch_id: 3, mode_id: 23, feed_rate: 52.5000, blade_speed: 100.0000, time: 6, energy_Wh: 60),
  (cut_id: 58, mch_id: 2, mode_id: 24, feed_rate: 52.5000, blade_speed: 125.0000, time: 6, energy_Wh: 48),
  (cut_id: 58, mch_id: 1, mode_id: 24, feed_rate: 52.5000, blade_speed: 125.0000, time: 6, energy_Wh: 48),
  (cut_id: 58, mch_id: 3, mode_id: 24, feed_rate: 52.5000, blade_speed: 125.0000, time: 6, energy_Wh: 48),
  (cut_id: 58, mch_id: 2, mode_id: 25, feed_rate: 52.5000, blade_speed: 150.0000, time: 6, energy_Wh: 62),
  (cut_id: 58, mch_id: 1, mode_id: 25, feed_rate: 52.5000, blade_speed: 150.0000, time: 6, energy_Wh: 62),
  (cut_id: 58, mch_id: 3, mode_id: 25, feed_rate: 52.5000, blade_speed: 150.0000, time: 6, energy_Wh: 62),
  (cut_id: 59, mch_id: 2, mode_id: 1, feed_rate: 19.0300, blade_speed: 11.5300, time: 2, energy_Wh: 17),
  (cut_id: 59, mch_id: 3, mode_id: 1, feed_rate: 19.0300, blade_speed: 11.5300, time: 2, energy_Wh: 17),
  (cut_id: 59, mch_id: 1, mode_id: 1, feed_rate: 19.0300, blade_speed: 11.5300, time: 2, energy_Wh: 17),
  (cut_id: 59, mch_id: 2, mode_id: 2, feed_rate: 19.0300, blade_speed: 17.3000, time: 2, energy_Wh: 15),
  (cut_id: 59, mch_id: 3, mode_id: 2, feed_rate: 19.0300, blade_speed: 17.3000, time: 2, energy_Wh: 15),
  (cut_id: 59, mch_id: 1, mode_id: 2, feed_rate: 19.0300, blade_speed: 17.3000, time: 2, energy_Wh: 15),
  (cut_id: 59, mch_id: 2, mode_id: 3, feed_rate: 19.0300, blade_speed: 23.0700, time: 2, energy_Wh: 20),
  (cut_id: 59, mch_id: 3, mode_id: 3, feed_rate: 19.0300, blade_speed: 23.0700, time: 2, energy_Wh: 20),
  (cut_id: 59, mch_id: 1, mode_id: 3, feed_rate: 19.0300, blade_speed: 23.0700, time: 2, energy_Wh: 20),
  (cut_id: 59, mch_id: 2, mode_id: 4, feed_rate: 19.0300, blade_speed: 28.8400, time: 2, energy_Wh: 23),
  (cut_id: 59, mch_id: 3, mode_id: 4, feed_rate: 19.0300, blade_speed: 28.8400, time: 2, energy_Wh: 23),
  (cut_id: 59, mch_id: 1, mode_id: 4, feed_rate: 19.0300, blade_speed: 28.8400, time: 2, energy_Wh: 23),
  (cut_id: 59, mch_id: 2, mode_id: 5, feed_rate: 19.0300, blade_speed: 34.6000, time: 2, energy_Wh: 28),
  (cut_id: 59, mch_id: 3, mode_id: 5, feed_rate: 19.0300, blade_speed: 34.6000, time: 2, energy_Wh: 28),
  (cut_id: 59, mch_id: 1, mode_id: 5, feed_rate: 19.0300, blade_speed: 34.6000, time: 2, energy_Wh: 28),
  (cut_id: 59, mch_id: 2, mode_id: 6, feed_rate: 28.5500, blade_speed: 11.5300, time: 1, energy_Wh: 28),
  (cut_id: 59, mch_id: 3, mode_id: 6, feed_rate: 28.5500, blade_speed: 11.5300, time: 1, energy_Wh: 28),
  (cut_id: 59, mch_id: 1, mode_id: 6, feed_rate: 28.5500, blade_speed: 11.5300, time: 1, energy_Wh: 28),
  (cut_id: 59, mch_id: 2, mode_id: 7, feed_rate: 28.5500, blade_speed: 17.3000, time: 1, energy_Wh: 20),
  (cut_id: 59, mch_id: 3, mode_id: 7, feed_rate: 28.5500, blade_speed: 17.3000, time: 1, energy_Wh: 20),
  (cut_id: 59, mch_id: 1, mode_id: 7, feed_rate: 28.5500, blade_speed: 17.3000, time: 1, energy_Wh: 20),
  (cut_id: 59, mch_id: 2, mode_id: 8, feed_rate: 28.5500, blade_speed: 23.0700, time: 1, energy_Wh: 24),
  (cut_id: 59, mch_id: 3, mode_id: 8, feed_rate: 28.5500, blade_speed: 23.0700, time: 1, energy_Wh: 24),
  (cut_id: 59, mch_id: 1, mode_id: 8, feed_rate: 28.5500, blade_speed: 23.0700, time: 1, energy_Wh: 24),
  (cut_id: 59, mch_id: 2, mode_id: 9, feed_rate: 28.5500, blade_speed: 28.8400, time: 1, energy_Wh: 24),
  (cut_id: 59, mch_id: 3, mode_id: 9, feed_rate: 28.5500, blade_speed: 28.8400, time: 1, energy_Wh: 24),
  (cut_id: 59, mch_id: 1, mode_id: 9, feed_rate: 28.5500, blade_speed: 28.8400, time: 1, energy_Wh: 24),
  (cut_id: 59, mch_id: 2, mode_id: 10, feed_rate: 28.5500, blade_speed: 34.6000, time: 1, energy_Wh: 35),
  (cut_id: 59, mch_id: 3, mode_id: 10, feed_rate: 28.5500, blade_speed: 34.6000, time: 1, energy_Wh: 35),
  (cut_id: 59, mch_id: 1, mode_id: 10, feed_rate: 28.5500, blade_speed: 34.6000, time: 1, energy_Wh: 35),
  (cut_id: 59, mch_id: 2, mode_id: 11, feed_rate: 38.0700, blade_speed: 11.5300, time: 1, energy_Wh: 23),
  (cut_id: 59, mch_id: 3, mode_id: 11, feed_rate: 38.0700, blade_speed: 11.5300, time: 1, energy_Wh: 23),
  (cut_id: 59, mch_id: 1, mode_id: 11, feed_rate: 38.0700, blade_speed: 11.5300, time: 1, energy_Wh: 23),
  (cut_id: 59, mch_id: 2, mode_id: 12, feed_rate: 38.0700, blade_speed: 17.3000, time: 1, energy_Wh: 27),
  (cut_id: 59, mch_id: 3, mode_id: 12, feed_rate: 38.0700, blade_speed: 17.3000, time: 1, energy_Wh: 27),
  (cut_id: 59, mch_id: 1, mode_id: 12, feed_rate: 38.0700, blade_speed: 17.3000, time: 1, energy_Wh: 27),
  (cut_id: 59, mch_id: 2, mode_id: 13, feed_rate: 38.0700, blade_speed: 23.0700, time: 1, energy_Wh: 32),
  (cut_id: 59, mch_id: 3, mode_id: 13, feed_rate: 38.0700, blade_speed: 23.0700, time: 1, energy_Wh: 32),
  (cut_id: 59, mch_id: 1, mode_id: 13, feed_rate: 38.0700, blade_speed: 23.0700, time: 1, energy_Wh: 32),
  (cut_id: 59, mch_id: 2, mode_id: 14, feed_rate: 38.0700, blade_speed: 28.8400, time: 1, energy_Wh: 28),
  (cut_id: 59, mch_id: 3, mode_id: 14, feed_rate: 38.0700, blade_speed: 28.8400, time: 1, energy_Wh: 28),
  (cut_id: 59, mch_id: 1, mode_id: 14, feed_rate: 38.0700, blade_speed: 28.8400, time: 1, energy_Wh: 28),
  (cut_id: 59, mch_id: 2, mode_id: 15, feed_rate: 38.0700, blade_speed: 34.6000, time: 1, energy_Wh: 44),
  (cut_id: 59, mch_id: 3, mode_id: 15, feed_rate: 38.0700, blade_speed: 34.6000, time: 1, energy_Wh: 44),
  (cut_id: 59, mch_id: 1, mode_id: 15, feed_rate: 38.0700, blade_speed: 34.6000, time: 1, energy_Wh: 44),
  (cut_id: 59, mch_id: 2, mode_id: 16, feed_rate: 47.5900, blade_speed: 11.5300, time: 1, energy_Wh: 33),
  (cut_id: 59, mch_id: 3, mode_id: 16, feed_rate: 47.5900, blade_speed: 11.5300, time: 1, energy_Wh: 33),
  (cut_id: 59, mch_id: 1, mode_id: 16, feed_rate: 47.5900, blade_speed: 11.5300, time: 1, energy_Wh: 33),
  (cut_id: 59, mch_id: 2, mode_id: 17, feed_rate: 47.5900, blade_speed: 17.3000, time: 1, energy_Wh: 38),
  (cut_id: 59, mch_id: 3, mode_id: 17, feed_rate: 47.5900, blade_speed: 17.3000, time: 1, energy_Wh: 38),
  (cut_id: 59, mch_id: 1, mode_id: 17, feed_rate: 47.5900, blade_speed: 17.3000, time: 1, energy_Wh: 38),
  (cut_id: 59, mch_id: 2, mode_id: 18, feed_rate: 47.5900, blade_speed: 23.0700, time: 1, energy_Wh: 31),
  (cut_id: 59, mch_id: 3, mode_id: 18, feed_rate: 47.5900, blade_speed: 23.0700, time: 1, energy_Wh: 31),
  (cut_id: 59, mch_id: 1, mode_id: 18, feed_rate: 47.5900, blade_speed: 23.0700, time: 1, energy_Wh: 31),
  (cut_id: 59, mch_id: 2, mode_id: 19, feed_rate: 47.5900, blade_speed: 28.8400, time: 1, energy_Wh: 45),
  (cut_id: 59, mch_id: 3, mode_id: 19, feed_rate: 47.5900, blade_speed: 28.8400, time: 1, energy_Wh: 45),
  (cut_id: 59, mch_id: 1, mode_id: 19, feed_rate: 47.5900, blade_speed: 28.8400, time: 1, energy_Wh: 45),
  (cut_id: 59, mch_id: 2, mode_id: 20, feed_rate: 47.5900, blade_speed: 34.6000, time: 1, energy_Wh: 42),
  (cut_id: 59, mch_id: 3, mode_id: 20, feed_rate: 47.5900, blade_speed: 34.6000, time: 1, energy_Wh: 42),
  (cut_id: 59, mch_id: 1, mode_id: 20, feed_rate: 47.5900, blade_speed: 34.6000, time: 1, energy_Wh: 42),
  (cut_id: 59, mch_id: 2, mode_id: 21, feed_rate: 57.1000, blade_speed: 11.5300, time: 1, energy_Wh: 47),
  (cut_id: 59, mch_id: 3, mode_id: 21, feed_rate: 57.1000, blade_speed: 11.5300, time: 1, energy_Wh: 47),
  (cut_id: 59, mch_id: 1, mode_id: 21, feed_rate: 57.1000, blade_speed: 11.5300, time: 1, energy_Wh: 47),
  (cut_id: 59, mch_id: 2, mode_id: 22, feed_rate: 57.1000, blade_speed: 17.3000, time: 1, energy_Wh: 45),
  (cut_id: 59, mch_id: 3, mode_id: 22, feed_rate: 57.1000, blade_speed: 17.3000, time: 1, energy_Wh: 45),
  (cut_id: 59, mch_id: 1, mode_id: 22, feed_rate: 57.1000, blade_speed: 17.3000, time: 1, energy_Wh: 45),
  (cut_id: 59, mch_id: 2, mode_id: 23, feed_rate: 57.1000, blade_speed: 23.0700, time: 1, energy_Wh: 42),
  (cut_id: 59, mch_id: 3, mode_id: 23, feed_rate: 57.1000, blade_speed: 23.0700, time: 1, energy_Wh: 42),
  (cut_id: 59, mch_id: 1, mode_id: 23, feed_rate: 57.1000, blade_speed: 23.0700, time: 1, energy_Wh: 42),
  (cut_id: 59, mch_id: 2, mode_id: 24, feed_rate: 57.1000, blade_speed: 28.8400, time: 1, energy_Wh: 51),
  (cut_id: 59, mch_id: 3, mode_id: 24, feed_rate: 57.1000, blade_speed: 28.8400, time: 1, energy_Wh: 51),
  (cut_id: 59, mch_id: 1, mode_id: 24, feed_rate: 57.1000, blade_speed: 28.8400, time: 1, energy_Wh: 51),
  (cut_id: 59, mch_id: 2, mode_id: 25, feed_rate: 57.1000, blade_speed: 34.6000, time: 1, energy_Wh: 60),
  (cut_id: 59, mch_id: 3, mode_id: 25, feed_rate: 57.1000, blade_speed: 34.6000, time: 1, energy_Wh: 60),
  (cut_id: 59, mch_id: 1, mode_id: 25, feed_rate: 57.1000, blade_speed: 34.6000, time: 1, energy_Wh: 60),
  (cut_id: 60, mch_id: 3, mode_id: 1, feed_rate: 36.0000, blade_speed: 21.5300, time: 1, energy_Wh: 33),
  (cut_id: 60, mch_id: 2, mode_id: 1, feed_rate: 36.0000, blade_speed: 21.5300, time: 1, energy_Wh: 33),
  (cut_id: 60, mch_id: 1, mode_id: 1, feed_rate: 36.0000, blade_speed: 21.5300, time: 1, energy_Wh: 33),
  (cut_id: 60, mch_id: 3, mode_id: 2, feed_rate: 36.0000, blade_speed: 32.3000, time: 1, energy_Wh: 39),
  (cut_id: 60, mch_id: 2, mode_id: 2, feed_rate: 36.0000, blade_speed: 32.3000, time: 1, energy_Wh: 39),
  (cut_id: 60, mch_id: 1, mode_id: 2, feed_rate: 36.0000, blade_speed: 32.3000, time: 1, energy_Wh: 39),
  (cut_id: 60, mch_id: 3, mode_id: 3, feed_rate: 36.0000, blade_speed: 43.0700, time: 1, energy_Wh: 26),
  (cut_id: 60, mch_id: 2, mode_id: 3, feed_rate: 36.0000, blade_speed: 43.0700, time: 1, energy_Wh: 26),
  (cut_id: 60, mch_id: 1, mode_id: 3, feed_rate: 36.0000, blade_speed: 43.0700, time: 1, energy_Wh: 26),
  (cut_id: 60, mch_id: 3, mode_id: 4, feed_rate: 36.0000, blade_speed: 53.8400, time: 1, energy_Wh: 32),
  (cut_id: 60, mch_id: 2, mode_id: 4, feed_rate: 36.0000, blade_speed: 53.8400, time: 1, energy_Wh: 32),
  (cut_id: 60, mch_id: 1, mode_id: 4, feed_rate: 36.0000, blade_speed: 53.8400, time: 1, energy_Wh: 32),
  (cut_id: 60, mch_id: 3, mode_id: 5, feed_rate: 36.0000, blade_speed: 64.6000, time: 1, energy_Wh: 54),
  (cut_id: 60, mch_id: 2, mode_id: 5, feed_rate: 36.0000, blade_speed: 64.6000, time: 1, energy_Wh: 54),
  (cut_id: 60, mch_id: 1, mode_id: 5, feed_rate: 36.0000, blade_speed: 64.6000, time: 1, energy_Wh: 54),
  (cut_id: 60, mch_id: 3, mode_id: 6, feed_rate: 54.0000, blade_speed: 21.5300, time: 1, energy_Wh: 51),
  (cut_id: 60, mch_id: 2, mode_id: 6, feed_rate: 54.0000, blade_speed: 21.5300, time: 1, energy_Wh: 51),
  (cut_id: 60, mch_id: 1, mode_id: 6, feed_rate: 54.0000, blade_speed: 21.5300, time: 1, energy_Wh: 51),
  (cut_id: 60, mch_id: 3, mode_id: 7, feed_rate: 54.0000, blade_speed: 32.3000, time: 1, energy_Wh: 72),
  (cut_id: 60, mch_id: 2, mode_id: 7, feed_rate: 54.0000, blade_speed: 32.3000, time: 1, energy_Wh: 72),
  (cut_id: 60, mch_id: 1, mode_id: 7, feed_rate: 54.0000, blade_speed: 32.3000, time: 1, energy_Wh: 72),
  (cut_id: 60, mch_id: 3, mode_id: 8, feed_rate: 54.0000, blade_speed: 43.0700, time: 1, energy_Wh: 33),
  (cut_id: 60, mch_id: 2, mode_id: 8, feed_rate: 54.0000, blade_speed: 43.0700, time: 1, energy_Wh: 33),
  (cut_id: 60, mch_id: 1, mode_id: 8, feed_rate: 54.0000, blade_speed: 43.0700, time: 1, energy_Wh: 33),
  (cut_id: 60, mch_id: 3, mode_id: 9, feed_rate: 54.0000, blade_speed: 53.8400, time: 1, energy_Wh: 53),
  (cut_id: 60, mch_id: 2, mode_id: 9, feed_rate: 54.0000, blade_speed: 53.8400, time: 1, energy_Wh: 53),
  (cut_id: 60, mch_id: 1, mode_id: 9, feed_rate: 54.0000, blade_speed: 53.8400, time: 1, energy_Wh: 53),
  (cut_id: 60, mch_id: 3, mode_id: 10, feed_rate: 54.0000, blade_speed: 64.6000, time: 1, energy_Wh: 76),
  (cut_id: 60, mch_id: 2, mode_id: 10, feed_rate: 54.0000, blade_speed: 64.6000, time: 1, energy_Wh: 76),
  (cut_id: 60, mch_id: 1, mode_id: 10, feed_rate: 54.0000, blade_speed: 64.6000, time: 1, energy_Wh: 76),
  (cut_id: 60, mch_id: 3, mode_id: 11, feed_rate: 72.0000, blade_speed: 21.5300, time: 1, energy_Wh: 83),
  (cut_id: 60, mch_id: 2, mode_id: 11, feed_rate: 72.0000, blade_speed: 21.5300, time: 1, energy_Wh: 83),
  (cut_id: 60, mch_id: 1, mode_id: 11, feed_rate: 72.0000, blade_speed: 21.5300, time: 1, energy_Wh: 83),
  (cut_id: 60, mch_id: 3, mode_id: 12, feed_rate: 72.0000, blade_speed: 32.3000, time: 1, energy_Wh: 85),
  (cut_id: 60, mch_id: 2, mode_id: 12, feed_rate: 72.0000, blade_speed: 32.3000, time: 1, energy_Wh: 85),
  (cut_id: 60, mch_id: 1, mode_id: 12, feed_rate: 72.0000, blade_speed: 32.3000, time: 1, energy_Wh: 85),
  (cut_id: 60, mch_id: 3, mode_id: 13, feed_rate: 72.0000, blade_speed: 43.0700, time: 1, energy_Wh: 67),
  (cut_id: 60, mch_id: 2, mode_id: 13, feed_rate: 72.0000, blade_speed: 43.0700, time: 1, energy_Wh: 67),
  (cut_id: 60, mch_id: 1, mode_id: 13, feed_rate: 72.0000, blade_speed: 43.0700, time: 1, energy_Wh: 67),
  (cut_id: 60, mch_id: 3, mode_id: 14, feed_rate: 72.0000, blade_speed: 53.8400, time: 1, energy_Wh: 63),
  (cut_id: 60, mch_id: 2, mode_id: 14, feed_rate: 72.0000, blade_speed: 53.8400, time: 1, energy_Wh: 63),
  (cut_id: 60, mch_id: 1, mode_id: 14, feed_rate: 72.0000, blade_speed: 53.8400, time: 1, energy_Wh: 63),
  (cut_id: 60, mch_id: 3, mode_id: 15, feed_rate: 72.0000, blade_speed: 64.6000, time: 1, energy_Wh: 109),
  (cut_id: 60, mch_id: 2, mode_id: 15, feed_rate: 72.0000, blade_speed: 64.6000, time: 1, energy_Wh: 109),
  (cut_id: 60, mch_id: 1, mode_id: 15, feed_rate: 72.0000, blade_speed: 64.6000, time: 1, energy_Wh: 109),
  (cut_id: 60, mch_id: 3, mode_id: 16, feed_rate: 90.0000, blade_speed: 21.5300, time: 1, energy_Wh: 136),
  (cut_id: 60, mch_id: 2, mode_id: 16, feed_rate: 90.0000, blade_speed: 21.5300, time: 1, energy_Wh: 136),
  (cut_id: 60, mch_id: 1, mode_id: 16, feed_rate: 90.0000, blade_speed: 21.5300, time: 1, energy_Wh: 136),
  (cut_id: 60, mch_id: 3, mode_id: 17, feed_rate: 90.0000, blade_speed: 32.3000, time: 1, energy_Wh: 139),
  (cut_id: 60, mch_id: 2, mode_id: 17, feed_rate: 90.0000, blade_speed: 32.3000, time: 1, energy_Wh: 139),
  (cut_id: 60, mch_id: 1, mode_id: 17, feed_rate: 90.0000, blade_speed: 32.3000, time: 1, energy_Wh: 139),
  (cut_id: 60, mch_id: 3, mode_id: 18, feed_rate: 90.0000, blade_speed: 43.0700, time: 1, energy_Wh: 72),
  (cut_id: 60, mch_id: 2, mode_id: 18, feed_rate: 90.0000, blade_speed: 43.0700, time: 1, energy_Wh: 72),
  (cut_id: 60, mch_id: 1, mode_id: 18, feed_rate: 90.0000, blade_speed: 43.0700, time: 1, energy_Wh: 72),
  (cut_id: 60, mch_id: 3, mode_id: 19, feed_rate: 90.0000, blade_speed: 53.8400, time: 1, energy_Wh: 104),
  (cut_id: 60, mch_id: 2, mode_id: 19, feed_rate: 90.0000, blade_speed: 53.8400, time: 1, energy_Wh: 104),
  (cut_id: 60, mch_id: 1, mode_id: 19, feed_rate: 90.0000, blade_speed: 53.8400, time: 1, energy_Wh: 104),
  (cut_id: 60, mch_id: 3, mode_id: 20, feed_rate: 90.0000, blade_speed: 64.6000, time: 1, energy_Wh: 127),
  (cut_id: 60, mch_id: 2, mode_id: 20, feed_rate: 90.0000, blade_speed: 64.6000, time: 1, energy_Wh: 127),
  (cut_id: 60, mch_id: 1, mode_id: 20, feed_rate: 90.0000, blade_speed: 64.6000, time: 1, energy_Wh: 127),
  (cut_id: 60, mch_id: 3, mode_id: 21, feed_rate: 108.0000, blade_speed: 21.5300, time: 1, energy_Wh: 169),
  (cut_id: 60, mch_id: 2, mode_id: 21, feed_rate: 108.0000, blade_speed: 21.5300, time: 1, energy_Wh: 169),
  (cut_id: 60, mch_id: 1, mode_id: 21, feed_rate: 108.0000, blade_speed: 21.5300, time: 1, energy_Wh: 169),
  (cut_id: 60, mch_id: 3, mode_id: 22, feed_rate: 108.0000, blade_speed: 32.3000, time: 1, energy_Wh: 170),
  (cut_id: 60, mch_id: 2, mode_id: 22, feed_rate: 108.0000, blade_speed: 32.3000, time: 1, energy_Wh: 170),
  (cut_id: 60, mch_id: 1, mode_id: 22, feed_rate: 108.0000, blade_speed: 32.3000, time: 1, energy_Wh: 170),
  (cut_id: 60, mch_id: 3, mode_id: 23, feed_rate: 108.0000, blade_speed: 43.0700, time: 1, energy_Wh: 109),
  (cut_id: 60, mch_id: 2, mode_id: 23, feed_rate: 108.0000, blade_speed: 43.0700, time: 1, energy_Wh: 109),
  (cut_id: 60, mch_id: 1, mode_id: 23, feed_rate: 108.0000, blade_speed: 43.0700, time: 1, energy_Wh: 109),
  (cut_id: 60, mch_id: 3, mode_id: 24, feed_rate: 108.0000, blade_speed: 53.8400, time: 1, energy_Wh: 139),
  (cut_id: 60, mch_id: 2, mode_id: 24, feed_rate: 108.0000, blade_speed: 53.8400, time: 1, energy_Wh: 139),
  (cut_id: 60, mch_id: 1, mode_id: 24, feed_rate: 108.0000, blade_speed: 53.8400, time: 1, energy_Wh: 139),
  (cut_id: 60, mch_id: 3, mode_id: 25, feed_rate: 108.0000, blade_speed: 64.6000, time: 1, energy_Wh: 166),
  (cut_id: 60, mch_id: 2, mode_id: 25, feed_rate: 108.0000, blade_speed: 64.6000, time: 1, energy_Wh: 166),
  (cut_id: 60, mch_id: 1, mode_id: 25, feed_rate: 108.0000, blade_speed: 64.6000, time: 1, energy_Wh: 166),
  (cut_id: 61, mch_id: 1, mode_id: 1, feed_rate: 16.5000, blade_speed: 8.0000, time: 5, energy_Wh: 34),
  (cut_id: 61, mch_id: 2, mode_id: 1, feed_rate: 16.5000, blade_speed: 8.0000, time: 5, energy_Wh: 34),
  (cut_id: 61, mch_id: 3, mode_id: 1, feed_rate: 16.5000, blade_speed: 8.0000, time: 5, energy_Wh: 34),
  (cut_id: 61, mch_id: 1, mode_id: 2, feed_rate: 16.5000, blade_speed: 12.0000, time: 5, energy_Wh: 27),
  (cut_id: 61, mch_id: 2, mode_id: 2, feed_rate: 16.5000, blade_speed: 12.0000, time: 5, energy_Wh: 27),
  (cut_id: 61, mch_id: 3, mode_id: 2, feed_rate: 16.5000, blade_speed: 12.0000, time: 5, energy_Wh: 27),
  (cut_id: 61, mch_id: 1, mode_id: 3, feed_rate: 16.5000, blade_speed: 16.0000, time: 5, energy_Wh: 27),
  (cut_id: 61, mch_id: 2, mode_id: 3, feed_rate: 16.5000, blade_speed: 16.0000, time: 5, energy_Wh: 27),
  (cut_id: 61, mch_id: 3, mode_id: 3, feed_rate: 16.5000, blade_speed: 16.0000, time: 5, energy_Wh: 27),
  (cut_id: 61, mch_id: 1, mode_id: 4, feed_rate: 16.5000, blade_speed: 20.0000, time: 5, energy_Wh: 33),
  (cut_id: 61, mch_id: 2, mode_id: 4, feed_rate: 16.5000, blade_speed: 20.0000, time: 5, energy_Wh: 33),
  (cut_id: 61, mch_id: 3, mode_id: 4, feed_rate: 16.5000, blade_speed: 20.0000, time: 5, energy_Wh: 33),
  (cut_id: 61, mch_id: 1, mode_id: 5, feed_rate: 16.5000, blade_speed: 24.0000, time: 5, energy_Wh: 19),
  (cut_id: 61, mch_id: 2, mode_id: 5, feed_rate: 16.5000, blade_speed: 24.0000, time: 5, energy_Wh: 19),
  (cut_id: 61, mch_id: 3, mode_id: 5, feed_rate: 16.5000, blade_speed: 24.0000, time: 5, energy_Wh: 19),
  (cut_id: 61, mch_id: 1, mode_id: 6, feed_rate: 24.7500, blade_speed: 8.0000, time: 4, energy_Wh: 39),
  (cut_id: 61, mch_id: 2, mode_id: 6, feed_rate: 24.7500, blade_speed: 8.0000, time: 4, energy_Wh: 39),
  (cut_id: 61, mch_id: 3, mode_id: 6, feed_rate: 24.7500, blade_speed: 8.0000, time: 4, energy_Wh: 39),
  (cut_id: 61, mch_id: 1, mode_id: 7, feed_rate: 24.7500, blade_speed: 12.0000, time: 4, energy_Wh: 22),
  (cut_id: 61, mch_id: 2, mode_id: 7, feed_rate: 24.7500, blade_speed: 12.0000, time: 4, energy_Wh: 22),
  (cut_id: 61, mch_id: 3, mode_id: 7, feed_rate: 24.7500, blade_speed: 12.0000, time: 4, energy_Wh: 22),
  (cut_id: 61, mch_id: 1, mode_id: 8, feed_rate: 24.7500, blade_speed: 16.0000, time: 4, energy_Wh: 34),
  (cut_id: 61, mch_id: 2, mode_id: 8, feed_rate: 24.7500, blade_speed: 16.0000, time: 4, energy_Wh: 34),
  (cut_id: 61, mch_id: 3, mode_id: 8, feed_rate: 24.7500, blade_speed: 16.0000, time: 4, energy_Wh: 34),
  (cut_id: 61, mch_id: 1, mode_id: 9, feed_rate: 24.7500, blade_speed: 20.0000, time: 4, energy_Wh: 46),
  (cut_id: 61, mch_id: 2, mode_id: 9, feed_rate: 24.7500, blade_speed: 20.0000, time: 4, energy_Wh: 46),
  (cut_id: 61, mch_id: 3, mode_id: 9, feed_rate: 24.7500, blade_speed: 20.0000, time: 4, energy_Wh: 46),
  (cut_id: 61, mch_id: 1, mode_id: 10, feed_rate: 24.7500, blade_speed: 24.0000, time: 4, energy_Wh: 27),
  (cut_id: 61, mch_id: 2, mode_id: 10, feed_rate: 24.7500, blade_speed: 24.0000, time: 4, energy_Wh: 27),
  (cut_id: 61, mch_id: 3, mode_id: 10, feed_rate: 24.7500, blade_speed: 24.0000, time: 4, energy_Wh: 27),
  (cut_id: 61, mch_id: 1, mode_id: 11, feed_rate: 33.0000, blade_speed: 8.0000, time: 3, energy_Wh: 48),
  (cut_id: 61, mch_id: 2, mode_id: 11, feed_rate: 33.0000, blade_speed: 8.0000, time: 3, energy_Wh: 48),
  (cut_id: 61, mch_id: 3, mode_id: 11, feed_rate: 33.0000, blade_speed: 8.0000, time: 3, energy_Wh: 48),
  (cut_id: 61, mch_id: 1, mode_id: 12, feed_rate: 33.0000, blade_speed: 12.0000, time: 3, energy_Wh: 25),
  (cut_id: 61, mch_id: 2, mode_id: 12, feed_rate: 33.0000, blade_speed: 12.0000, time: 3, energy_Wh: 25),
  (cut_id: 61, mch_id: 3, mode_id: 12, feed_rate: 33.0000, blade_speed: 12.0000, time: 3, energy_Wh: 25),
  (cut_id: 61, mch_id: 1, mode_id: 13, feed_rate: 33.0000, blade_speed: 16.0000, time: 3, energy_Wh: 28),
  (cut_id: 61, mch_id: 2, mode_id: 13, feed_rate: 33.0000, blade_speed: 16.0000, time: 3, energy_Wh: 28),
  (cut_id: 61, mch_id: 3, mode_id: 13, feed_rate: 33.0000, blade_speed: 16.0000, time: 3, energy_Wh: 28),
  (cut_id: 61, mch_id: 1, mode_id: 14, feed_rate: 33.0000, blade_speed: 20.0000, time: 3, energy_Wh: 42),
  (cut_id: 61, mch_id: 2, mode_id: 14, feed_rate: 33.0000, blade_speed: 20.0000, time: 3, energy_Wh: 42),
  (cut_id: 61, mch_id: 3, mode_id: 14, feed_rate: 33.0000, blade_speed: 20.0000, time: 3, energy_Wh: 42),
  (cut_id: 61, mch_id: 1, mode_id: 15, feed_rate: 33.0000, blade_speed: 24.0000, time: 3, energy_Wh: 27),
  (cut_id: 61, mch_id: 2, mode_id: 15, feed_rate: 33.0000, blade_speed: 24.0000, time: 3, energy_Wh: 27),
  (cut_id: 61, mch_id: 3, mode_id: 15, feed_rate: 33.0000, blade_speed: 24.0000, time: 3, energy_Wh: 27),
  (cut_id: 61, mch_id: 1, mode_id: 16, feed_rate: 41.2500, blade_speed: 8.0000, time: 2, energy_Wh: 52),
  (cut_id: 61, mch_id: 2, mode_id: 16, feed_rate: 41.2500, blade_speed: 8.0000, time: 2, energy_Wh: 52),
  (cut_id: 61, mch_id: 3, mode_id: 16, feed_rate: 41.2500, blade_speed: 8.0000, time: 2, energy_Wh: 52),
  (cut_id: 61, mch_id: 1, mode_id: 17, feed_rate: 41.2500, blade_speed: 12.0000, time: 2, energy_Wh: 43),
  (cut_id: 61, mch_id: 2, mode_id: 17, feed_rate: 41.2500, blade_speed: 12.0000, time: 2, energy_Wh: 43),
  (cut_id: 61, mch_id: 3, mode_id: 17, feed_rate: 41.2500, blade_speed: 12.0000, time: 2, energy_Wh: 43),
  (cut_id: 61, mch_id: 1, mode_id: 18, feed_rate: 41.2500, blade_speed: 16.0000, time: 2, energy_Wh: 46),
  (cut_id: 61, mch_id: 2, mode_id: 18, feed_rate: 41.2500, blade_speed: 16.0000, time: 2, energy_Wh: 46),
  (cut_id: 61, mch_id: 3, mode_id: 18, feed_rate: 41.2500, blade_speed: 16.0000, time: 2, energy_Wh: 46),
  (cut_id: 61, mch_id: 1, mode_id: 19, feed_rate: 41.2500, blade_speed: 20.0000, time: 2, energy_Wh: 54),
  (cut_id: 61, mch_id: 2, mode_id: 19, feed_rate: 41.2500, blade_speed: 20.0000, time: 2, energy_Wh: 54),
  (cut_id: 61, mch_id: 3, mode_id: 19, feed_rate: 41.2500, blade_speed: 20.0000, time: 2, energy_Wh: 54),
  (cut_id: 61, mch_id: 1, mode_id: 20, feed_rate: 41.2500, blade_speed: 24.0000, time: 2, energy_Wh: 29),
  (cut_id: 61, mch_id: 2, mode_id: 20, feed_rate: 41.2500, blade_speed: 24.0000, time: 2, energy_Wh: 29),
  (cut_id: 61, mch_id: 3, mode_id: 20, feed_rate: 41.2500, blade_speed: 24.0000, time: 2, energy_Wh: 29),
  (cut_id: 61, mch_id: 1, mode_id: 21, feed_rate: 49.5000, blade_speed: 8.0000, time: 2, energy_Wh: 63),
  (cut_id: 61, mch_id: 2, mode_id: 21, feed_rate: 49.5000, blade_speed: 8.0000, time: 2, energy_Wh: 63),
  (cut_id: 61, mch_id: 3, mode_id: 21, feed_rate: 49.5000, blade_speed: 8.0000, time: 2, energy_Wh: 63),
  (cut_id: 61, mch_id: 1, mode_id: 22, feed_rate: 49.5000, blade_speed: 12.0000, time: 2, energy_Wh: 42),
  (cut_id: 61, mch_id: 2, mode_id: 22, feed_rate: 49.5000, blade_speed: 12.0000, time: 2, energy_Wh: 42),
  (cut_id: 61, mch_id: 3, mode_id: 22, feed_rate: 49.5000, blade_speed: 12.0000, time: 2, energy_Wh: 42),
  (cut_id: 61, mch_id: 1, mode_id: 23, feed_rate: 49.5000, blade_speed: 16.0000, time: 2, energy_Wh: 45),
  (cut_id: 61, mch_id: 2, mode_id: 23, feed_rate: 49.5000, blade_speed: 16.0000, time: 2, energy_Wh: 45),
  (cut_id: 61, mch_id: 3, mode_id: 23, feed_rate: 49.5000, blade_speed: 16.0000, time: 2, energy_Wh: 45),
  (cut_id: 61, mch_id: 1, mode_id: 24, feed_rate: 49.5000, blade_speed: 20.0000, time: 2, energy_Wh: 55),
  (cut_id: 61, mch_id: 2, mode_id: 24, feed_rate: 49.5000, blade_speed: 20.0000, time: 2, energy_Wh: 55),
  (cut_id: 61, mch_id: 3, mode_id: 24, feed_rate: 49.5000, blade_speed: 20.0000, time: 2, energy_Wh: 55),
  (cut_id: 61, mch_id: 1, mode_id: 25, feed_rate: 49.5000, blade_speed: 24.0000, time: 2, energy_Wh: 42),
  (cut_id: 61, mch_id: 2, mode_id: 25, feed_rate: 49.5000, blade_speed: 24.0000, time: 2, energy_Wh: 42),
  (cut_id: 61, mch_id: 3, mode_id: 25, feed_rate: 49.5000, blade_speed: 24.0000, time: 2, energy_Wh: 42),
  (cut_id: 62, mch_id: 3, mode_id: 1, feed_rate: 10.1700, blade_speed: 2.8900, time: 33, energy_Wh: 45),
  (cut_id: 62, mch_id: 2, mode_id: 1, feed_rate: 10.1700, blade_speed: 2.8900, time: 33, energy_Wh: 45),
  (cut_id: 62, mch_id: 1, mode_id: 1, feed_rate: 10.1700, blade_speed: 2.8900, time: 33, energy_Wh: 45),
  (cut_id: 62, mch_id: 3, mode_id: 2, feed_rate: 10.1700, blade_speed: 4.3400, time: 33, energy_Wh: 22),
  (cut_id: 62, mch_id: 2, mode_id: 2, feed_rate: 10.1700, blade_speed: 4.3400, time: 33, energy_Wh: 22),
  (cut_id: 62, mch_id: 1, mode_id: 2, feed_rate: 10.1700, blade_speed: 4.3400, time: 33, energy_Wh: 22),
  (cut_id: 62, mch_id: 3, mode_id: 3, feed_rate: 10.1700, blade_speed: 5.7800, time: 33, energy_Wh: 31),
  (cut_id: 62, mch_id: 2, mode_id: 3, feed_rate: 10.1700, blade_speed: 5.7800, time: 33, energy_Wh: 31),
  (cut_id: 62, mch_id: 1, mode_id: 3, feed_rate: 10.1700, blade_speed: 5.7800, time: 33, energy_Wh: 31),
  (cut_id: 62, mch_id: 3, mode_id: 4, feed_rate: 10.1700, blade_speed: 7.2300, time: 33, energy_Wh: 42),
  (cut_id: 62, mch_id: 2, mode_id: 4, feed_rate: 10.1700, blade_speed: 7.2300, time: 33, energy_Wh: 42),
  (cut_id: 62, mch_id: 1, mode_id: 4, feed_rate: 10.1700, blade_speed: 7.2300, time: 33, energy_Wh: 42),
  (cut_id: 62, mch_id: 3, mode_id: 5, feed_rate: 10.1700, blade_speed: 8.6700, time: 33, energy_Wh: 40),
  (cut_id: 62, mch_id: 2, mode_id: 5, feed_rate: 10.1700, blade_speed: 8.6700, time: 33, energy_Wh: 40),
  (cut_id: 62, mch_id: 1, mode_id: 5, feed_rate: 10.1700, blade_speed: 8.6700, time: 33, energy_Wh: 40),
  (cut_id: 62, mch_id: 3, mode_id: 6, feed_rate: 15.2600, blade_speed: 2.8900, time: 22, energy_Wh: 43),
  (cut_id: 62, mch_id: 2, mode_id: 6, feed_rate: 15.2600, blade_speed: 2.8900, time: 22, energy_Wh: 43),
  (cut_id: 62, mch_id: 1, mode_id: 6, feed_rate: 15.2600, blade_speed: 2.8900, time: 22, energy_Wh: 43),
  (cut_id: 62, mch_id: 3, mode_id: 7, feed_rate: 15.2600, blade_speed: 4.3400, time: 22, energy_Wh: 39),
  (cut_id: 62, mch_id: 2, mode_id: 7, feed_rate: 15.2600, blade_speed: 4.3400, time: 22, energy_Wh: 39),
  (cut_id: 62, mch_id: 1, mode_id: 7, feed_rate: 15.2600, blade_speed: 4.3400, time: 22, energy_Wh: 39),
  (cut_id: 62, mch_id: 3, mode_id: 8, feed_rate: 15.2600, blade_speed: 5.7800, time: 22, energy_Wh: 33),
  (cut_id: 62, mch_id: 2, mode_id: 8, feed_rate: 15.2600, blade_speed: 5.7800, time: 22, energy_Wh: 33),
  (cut_id: 62, mch_id: 1, mode_id: 8, feed_rate: 15.2600, blade_speed: 5.7800, time: 22, energy_Wh: 33),
  (cut_id: 62, mch_id: 3, mode_id: 9, feed_rate: 15.2600, blade_speed: 7.2300, time: 22, energy_Wh: 50),
  (cut_id: 62, mch_id: 2, mode_id: 9, feed_rate: 15.2600, blade_speed: 7.2300, time: 22, energy_Wh: 50),
  (cut_id: 62, mch_id: 1, mode_id: 9, feed_rate: 15.2600, blade_speed: 7.2300, time: 22, energy_Wh: 50),
  (cut_id: 62, mch_id: 3, mode_id: 10, feed_rate: 15.2600, blade_speed: 8.6700, time: 22, energy_Wh: 51),
  (cut_id: 62, mch_id: 2, mode_id: 10, feed_rate: 15.2600, blade_speed: 8.6700, time: 22, energy_Wh: 51),
  (cut_id: 62, mch_id: 1, mode_id: 10, feed_rate: 15.2600, blade_speed: 8.6700, time: 22, energy_Wh: 51),
  (cut_id: 62, mch_id: 3, mode_id: 11, feed_rate: 20.3500, blade_speed: 2.8900, time: 17, energy_Wh: 47),
  (cut_id: 62, mch_id: 2, mode_id: 11, feed_rate: 20.3500, blade_speed: 2.8900, time: 17, energy_Wh: 47),
  (cut_id: 62, mch_id: 1, mode_id: 11, feed_rate: 20.3500, blade_speed: 2.8900, time: 17, energy_Wh: 47),
  (cut_id: 62, mch_id: 3, mode_id: 12, feed_rate: 20.3500, blade_speed: 4.3400, time: 17, energy_Wh: 42),
  (cut_id: 62, mch_id: 2, mode_id: 12, feed_rate: 20.3500, blade_speed: 4.3400, time: 17, energy_Wh: 42),
  (cut_id: 62, mch_id: 1, mode_id: 12, feed_rate: 20.3500, blade_speed: 4.3400, time: 17, energy_Wh: 42),
  (cut_id: 62, mch_id: 3, mode_id: 13, feed_rate: 20.3500, blade_speed: 5.7800, time: 17, energy_Wh: 38),
  (cut_id: 62, mch_id: 2, mode_id: 13, feed_rate: 20.3500, blade_speed: 5.7800, time: 17, energy_Wh: 38),
  (cut_id: 62, mch_id: 1, mode_id: 13, feed_rate: 20.3500, blade_speed: 5.7800, time: 17, energy_Wh: 38),
  (cut_id: 62, mch_id: 3, mode_id: 14, feed_rate: 20.3500, blade_speed: 7.2300, time: 17, energy_Wh: 71),
  (cut_id: 62, mch_id: 2, mode_id: 14, feed_rate: 20.3500, blade_speed: 7.2300, time: 17, energy_Wh: 71),
  (cut_id: 62, mch_id: 1, mode_id: 14, feed_rate: 20.3500, blade_speed: 7.2300, time: 17, energy_Wh: 71),
  (cut_id: 62, mch_id: 3, mode_id: 15, feed_rate: 20.3500, blade_speed: 8.6700, time: 17, energy_Wh: 63),
  (cut_id: 62, mch_id: 2, mode_id: 15, feed_rate: 20.3500, blade_speed: 8.6700, time: 17, energy_Wh: 63),
  (cut_id: 62, mch_id: 1, mode_id: 15, feed_rate: 20.3500, blade_speed: 8.6700, time: 17, energy_Wh: 63),
  (cut_id: 62, mch_id: 3, mode_id: 16, feed_rate: 25.4300, blade_speed: 2.8900, time: 14, energy_Wh: 50),
  (cut_id: 62, mch_id: 2, mode_id: 16, feed_rate: 25.4300, blade_speed: 2.8900, time: 14, energy_Wh: 50),
  (cut_id: 62, mch_id: 1, mode_id: 16, feed_rate: 25.4300, blade_speed: 2.8900, time: 14, energy_Wh: 50),
  (cut_id: 62, mch_id: 3, mode_id: 17, feed_rate: 25.4300, blade_speed: 4.3400, time: 14, energy_Wh: 45),
  (cut_id: 62, mch_id: 2, mode_id: 17, feed_rate: 25.4300, blade_speed: 4.3400, time: 14, energy_Wh: 45),
  (cut_id: 62, mch_id: 1, mode_id: 17, feed_rate: 25.4300, blade_speed: 4.3400, time: 14, energy_Wh: 45),
  (cut_id: 62, mch_id: 3, mode_id: 18, feed_rate: 25.4300, blade_speed: 5.7800, time: 14, energy_Wh: 48),
  (cut_id: 62, mch_id: 2, mode_id: 18, feed_rate: 25.4300, blade_speed: 5.7800, time: 14, energy_Wh: 48),
  (cut_id: 62, mch_id: 1, mode_id: 18, feed_rate: 25.4300, blade_speed: 5.7800, time: 14, energy_Wh: 48),
  (cut_id: 62, mch_id: 3, mode_id: 19, feed_rate: 25.4300, blade_speed: 7.2300, time: 14, energy_Wh: 60),
  (cut_id: 62, mch_id: 2, mode_id: 19, feed_rate: 25.4300, blade_speed: 7.2300, time: 14, energy_Wh: 60),
  (cut_id: 62, mch_id: 1, mode_id: 19, feed_rate: 25.4300, blade_speed: 7.2300, time: 14, energy_Wh: 60),
  (cut_id: 62, mch_id: 3, mode_id: 20, feed_rate: 25.4300, blade_speed: 8.6700, time: 14, energy_Wh: 60),
  (cut_id: 62, mch_id: 2, mode_id: 20, feed_rate: 25.4300, blade_speed: 8.6700, time: 14, energy_Wh: 60),
  (cut_id: 62, mch_id: 1, mode_id: 20, feed_rate: 25.4300, blade_speed: 8.6700, time: 14, energy_Wh: 60),
  (cut_id: 62, mch_id: 3, mode_id: 21, feed_rate: 30.5200, blade_speed: 2.8900, time: 11, energy_Wh: 73),
  (cut_id: 62, mch_id: 2, mode_id: 21, feed_rate: 30.5200, blade_speed: 2.8900, time: 11, energy_Wh: 73),
  (cut_id: 62, mch_id: 1, mode_id: 21, feed_rate: 30.5200, blade_speed: 2.8900, time: 11, energy_Wh: 73),
  (cut_id: 62, mch_id: 3, mode_id: 22, feed_rate: 30.5200, blade_speed: 4.3400, time: 11, energy_Wh: 42),
  (cut_id: 62, mch_id: 2, mode_id: 22, feed_rate: 30.5200, blade_speed: 4.3400, time: 11, energy_Wh: 42),
  (cut_id: 62, mch_id: 1, mode_id: 22, feed_rate: 30.5200, blade_speed: 4.3400, time: 11, energy_Wh: 42),
  (cut_id: 62, mch_id: 3, mode_id: 23, feed_rate: 30.5200, blade_speed: 5.7800, time: 11, energy_Wh: 42),
  (cut_id: 62, mch_id: 2, mode_id: 23, feed_rate: 30.5200, blade_speed: 5.7800, time: 11, energy_Wh: 42),
  (cut_id: 62, mch_id: 1, mode_id: 23, feed_rate: 30.5200, blade_speed: 5.7800, time: 11, energy_Wh: 42),
  (cut_id: 62, mch_id: 3, mode_id: 24, feed_rate: 30.5200, blade_speed: 7.2300, time: 11, energy_Wh: 85),
  (cut_id: 62, mch_id: 2, mode_id: 24, feed_rate: 30.5200, blade_speed: 7.2300, time: 11, energy_Wh: 85),
  (cut_id: 62, mch_id: 1, mode_id: 24, feed_rate: 30.5200, blade_speed: 7.2300, time: 11, energy_Wh: 85),
  (cut_id: 62, mch_id: 3, mode_id: 25, feed_rate: 30.5200, blade_speed: 8.6700, time: 11, energy_Wh: 70),
  (cut_id: 62, mch_id: 2, mode_id: 25, feed_rate: 30.5200, blade_speed: 8.6700, time: 11, energy_Wh: 70),
  (cut_id: 62, mch_id: 1, mode_id: 25, feed_rate: 30.5200, blade_speed: 8.6700, time: 11, energy_Wh: 70),
  (cut_id: 63, mch_id: 3, mode_id: 1, feed_rate: 18.9400, blade_speed: 10.9400, time: 18, energy_Wh: 33),
  (cut_id: 63, mch_id: 2, mode_id: 1, feed_rate: 18.9400, blade_speed: 10.9400, time: 18, energy_Wh: 33),
  (cut_id: 63, mch_id: 1, mode_id: 1, feed_rate: 18.9400, blade_speed: 10.9400, time: 18, energy_Wh: 33),
  (cut_id: 63, mch_id: 3, mode_id: 2, feed_rate: 18.9400, blade_speed: 16.4100, time: 18, energy_Wh: 34),
  (cut_id: 63, mch_id: 2, mode_id: 2, feed_rate: 18.9400, blade_speed: 16.4100, time: 18, energy_Wh: 34),
  (cut_id: 63, mch_id: 1, mode_id: 2, feed_rate: 18.9400, blade_speed: 16.4100, time: 18, energy_Wh: 34),
  (cut_id: 63, mch_id: 3, mode_id: 3, feed_rate: 18.9400, blade_speed: 21.8800, time: 18, energy_Wh: 49),
  (cut_id: 63, mch_id: 2, mode_id: 3, feed_rate: 18.9400, blade_speed: 21.8800, time: 18, energy_Wh: 49),
  (cut_id: 63, mch_id: 1, mode_id: 3, feed_rate: 18.9400, blade_speed: 21.8800, time: 18, energy_Wh: 49),
  (cut_id: 63, mch_id: 3, mode_id: 4, feed_rate: 18.9400, blade_speed: 27.3500, time: 18, energy_Wh: 54),
  (cut_id: 63, mch_id: 2, mode_id: 4, feed_rate: 18.9400, blade_speed: 27.3500, time: 18, energy_Wh: 54),
  (cut_id: 63, mch_id: 1, mode_id: 4, feed_rate: 18.9400, blade_speed: 27.3500, time: 18, energy_Wh: 54),
  (cut_id: 63, mch_id: 3, mode_id: 5, feed_rate: 18.9400, blade_speed: 32.8200, time: 18, energy_Wh: 63),
  (cut_id: 63, mch_id: 2, mode_id: 5, feed_rate: 18.9400, blade_speed: 32.8200, time: 18, energy_Wh: 63),
  (cut_id: 63, mch_id: 1, mode_id: 5, feed_rate: 18.9400, blade_speed: 32.8200, time: 18, energy_Wh: 63),
  (cut_id: 63, mch_id: 3, mode_id: 6, feed_rate: 28.4100, blade_speed: 10.9400, time: 12, energy_Wh: 41),
  (cut_id: 63, mch_id: 2, mode_id: 6, feed_rate: 28.4100, blade_speed: 10.9400, time: 12, energy_Wh: 41),
  (cut_id: 63, mch_id: 1, mode_id: 6, feed_rate: 28.4100, blade_speed: 10.9400, time: 12, energy_Wh: 41),
  (cut_id: 63, mch_id: 3, mode_id: 7, feed_rate: 28.4100, blade_speed: 16.4100, time: 12, energy_Wh: 47),
  (cut_id: 63, mch_id: 2, mode_id: 7, feed_rate: 28.4100, blade_speed: 16.4100, time: 12, energy_Wh: 47),
  (cut_id: 63, mch_id: 1, mode_id: 7, feed_rate: 28.4100, blade_speed: 16.4100, time: 12, energy_Wh: 47),
  (cut_id: 63, mch_id: 3, mode_id: 8, feed_rate: 28.4100, blade_speed: 21.8800, time: 12, energy_Wh: 64),
  (cut_id: 63, mch_id: 2, mode_id: 8, feed_rate: 28.4100, blade_speed: 21.8800, time: 12, energy_Wh: 64),
  (cut_id: 63, mch_id: 1, mode_id: 8, feed_rate: 28.4100, blade_speed: 21.8800, time: 12, energy_Wh: 64),
  (cut_id: 63, mch_id: 3, mode_id: 9, feed_rate: 28.4100, blade_speed: 27.3500, time: 12, energy_Wh: 57),
  (cut_id: 63, mch_id: 2, mode_id: 9, feed_rate: 28.4100, blade_speed: 27.3500, time: 12, energy_Wh: 57),
  (cut_id: 63, mch_id: 1, mode_id: 9, feed_rate: 28.4100, blade_speed: 27.3500, time: 12, energy_Wh: 57),
  (cut_id: 63, mch_id: 3, mode_id: 10, feed_rate: 28.4100, blade_speed: 32.8200, time: 12, energy_Wh: 62),
  (cut_id: 63, mch_id: 2, mode_id: 10, feed_rate: 28.4100, blade_speed: 32.8200, time: 12, energy_Wh: 62),
  (cut_id: 63, mch_id: 1, mode_id: 10, feed_rate: 28.4100, blade_speed: 32.8200, time: 12, energy_Wh: 62),
  (cut_id: 63, mch_id: 3, mode_id: 11, feed_rate: 37.8800, blade_speed: 10.9400, time: 9, energy_Wh: 43),
  (cut_id: 63, mch_id: 2, mode_id: 11, feed_rate: 37.8800, blade_speed: 10.9400, time: 9, energy_Wh: 43),
  (cut_id: 63, mch_id: 1, mode_id: 11, feed_rate: 37.8800, blade_speed: 10.9400, time: 9, energy_Wh: 43),
  (cut_id: 63, mch_id: 3, mode_id: 12, feed_rate: 37.8800, blade_speed: 16.4100, time: 9, energy_Wh: 44),
  (cut_id: 63, mch_id: 2, mode_id: 12, feed_rate: 37.8800, blade_speed: 16.4100, time: 9, energy_Wh: 44),
  (cut_id: 63, mch_id: 1, mode_id: 12, feed_rate: 37.8800, blade_speed: 16.4100, time: 9, energy_Wh: 44),
  (cut_id: 63, mch_id: 3, mode_id: 13, feed_rate: 37.8800, blade_speed: 21.8800, time: 9, energy_Wh: 74),
  (cut_id: 63, mch_id: 2, mode_id: 13, feed_rate: 37.8800, blade_speed: 21.8800, time: 9, energy_Wh: 74),
  (cut_id: 63, mch_id: 1, mode_id: 13, feed_rate: 37.8800, blade_speed: 21.8800, time: 9, energy_Wh: 74),
  (cut_id: 63, mch_id: 3, mode_id: 14, feed_rate: 37.8800, blade_speed: 27.3500, time: 9, energy_Wh: 88),
  (cut_id: 63, mch_id: 2, mode_id: 14, feed_rate: 37.8800, blade_speed: 27.3500, time: 9, energy_Wh: 88),
  (cut_id: 63, mch_id: 1, mode_id: 14, feed_rate: 37.8800, blade_speed: 27.3500, time: 9, energy_Wh: 88),
  (cut_id: 63, mch_id: 3, mode_id: 15, feed_rate: 37.8800, blade_speed: 32.8200, time: 9, energy_Wh: 75),
  (cut_id: 63, mch_id: 2, mode_id: 15, feed_rate: 37.8800, blade_speed: 32.8200, time: 9, energy_Wh: 75),
  (cut_id: 63, mch_id: 1, mode_id: 15, feed_rate: 37.8800, blade_speed: 32.8200, time: 9, energy_Wh: 75),
  (cut_id: 63, mch_id: 3, mode_id: 16, feed_rate: 47.3500, blade_speed: 10.9400, time: 8, energy_Wh: 53),
  (cut_id: 63, mch_id: 2, mode_id: 16, feed_rate: 47.3500, blade_speed: 10.9400, time: 8, energy_Wh: 53),
  (cut_id: 63, mch_id: 1, mode_id: 16, feed_rate: 47.3500, blade_speed: 10.9400, time: 8, energy_Wh: 53),
  (cut_id: 63, mch_id: 3, mode_id: 17, feed_rate: 47.3500, blade_speed: 16.4100, time: 8, energy_Wh: 54),
  (cut_id: 63, mch_id: 2, mode_id: 17, feed_rate: 47.3500, blade_speed: 16.4100, time: 8, energy_Wh: 54),
  (cut_id: 63, mch_id: 1, mode_id: 17, feed_rate: 47.3500, blade_speed: 16.4100, time: 8, energy_Wh: 54),
  (cut_id: 63, mch_id: 3, mode_id: 18, feed_rate: 47.3500, blade_speed: 21.8800, time: 8, energy_Wh: 72),
  (cut_id: 63, mch_id: 2, mode_id: 18, feed_rate: 47.3500, blade_speed: 21.8800, time: 8, energy_Wh: 72),
  (cut_id: 63, mch_id: 1, mode_id: 18, feed_rate: 47.3500, blade_speed: 21.8800, time: 8, energy_Wh: 72),
  (cut_id: 63, mch_id: 3, mode_id: 19, feed_rate: 47.3500, blade_speed: 27.3500, time: 8, energy_Wh: 97),
  (cut_id: 63, mch_id: 2, mode_id: 19, feed_rate: 47.3500, blade_speed: 27.3500, time: 8, energy_Wh: 97),
  (cut_id: 63, mch_id: 1, mode_id: 19, feed_rate: 47.3500, blade_speed: 27.3500, time: 8, energy_Wh: 97),
  (cut_id: 63, mch_id: 3, mode_id: 20, feed_rate: 47.3500, blade_speed: 32.8200, time: 8, energy_Wh: 95),
  (cut_id: 63, mch_id: 2, mode_id: 20, feed_rate: 47.3500, blade_speed: 32.8200, time: 8, energy_Wh: 95),
  (cut_id: 63, mch_id: 1, mode_id: 20, feed_rate: 47.3500, blade_speed: 32.8200, time: 8, energy_Wh: 95),
  (cut_id: 63, mch_id: 3, mode_id: 21, feed_rate: 56.8200, blade_speed: 10.9400, time: 6, energy_Wh: 50),
  (cut_id: 63, mch_id: 2, mode_id: 21, feed_rate: 56.8200, blade_speed: 10.9400, time: 6, energy_Wh: 50),
  (cut_id: 63, mch_id: 1, mode_id: 21, feed_rate: 56.8200, blade_speed: 10.9400, time: 6, energy_Wh: 50),
  (cut_id: 63, mch_id: 3, mode_id: 22, feed_rate: 56.8200, blade_speed: 16.4100, time: 6, energy_Wh: 56),
  (cut_id: 63, mch_id: 2, mode_id: 22, feed_rate: 56.8200, blade_speed: 16.4100, time: 6, energy_Wh: 56),
  (cut_id: 63, mch_id: 1, mode_id: 22, feed_rate: 56.8200, blade_speed: 16.4100, time: 6, energy_Wh: 56),
  (cut_id: 63, mch_id: 3, mode_id: 23, feed_rate: 56.8200, blade_speed: 21.8800, time: 6, energy_Wh: 91),
  (cut_id: 63, mch_id: 2, mode_id: 23, feed_rate: 56.8200, blade_speed: 21.8800, time: 6, energy_Wh: 91),
  (cut_id: 63, mch_id: 1, mode_id: 23, feed_rate: 56.8200, blade_speed: 21.8800, time: 6, energy_Wh: 91),
  (cut_id: 63, mch_id: 3, mode_id: 24, feed_rate: 56.8200, blade_speed: 27.3500, time: 6, energy_Wh: 120),
  (cut_id: 63, mch_id: 2, mode_id: 24, feed_rate: 56.8200, blade_speed: 27.3500, time: 6, energy_Wh: 120),
  (cut_id: 63, mch_id: 1, mode_id: 24, feed_rate: 56.8200, blade_speed: 27.3500, time: 6, energy_Wh: 120),
  (cut_id: 63, mch_id: 3, mode_id: 25, feed_rate: 56.8200, blade_speed: 32.8200, time: 6, energy_Wh: 115),
  (cut_id: 63, mch_id: 2, mode_id: 25, feed_rate: 56.8200, blade_speed: 32.8200, time: 6, energy_Wh: 115),
  (cut_id: 63, mch_id: 1, mode_id: 25, feed_rate: 56.8200, blade_speed: 32.8200, time: 6, energy_Wh: 115),
  (cut_id: 64, mch_id: 3, mode_id: 1, feed_rate: 12.5000, blade_speed: 5.8200, time: 14, energy_Wh: 31),
  (cut_id: 64, mch_id: 1, mode_id: 1, feed_rate: 12.5000, blade_speed: 5.8200, time: 14, energy_Wh: 31),
  (cut_id: 64, mch_id: 2, mode_id: 1, feed_rate: 12.5000, blade_speed: 5.8200, time: 14, energy_Wh: 31),
  (cut_id: 64, mch_id: 3, mode_id: 2, feed_rate: 12.5000, blade_speed: 8.7300, time: 14, energy_Wh: 39),
  (cut_id: 64, mch_id: 1, mode_id: 2, feed_rate: 12.5000, blade_speed: 8.7300, time: 14, energy_Wh: 39),
  (cut_id: 64, mch_id: 2, mode_id: 2, feed_rate: 12.5000, blade_speed: 8.7300, time: 14, energy_Wh: 39),
  (cut_id: 64, mch_id: 3, mode_id: 3, feed_rate: 12.5000, blade_speed: 11.6400, time: 14, energy_Wh: 24),
  (cut_id: 64, mch_id: 1, mode_id: 3, feed_rate: 12.5000, blade_speed: 11.6400, time: 14, energy_Wh: 24),
  (cut_id: 64, mch_id: 2, mode_id: 3, feed_rate: 12.5000, blade_speed: 11.6400, time: 14, energy_Wh: 24),
  (cut_id: 64, mch_id: 3, mode_id: 4, feed_rate: 12.5000, blade_speed: 14.5500, time: 14, energy_Wh: 37),
  (cut_id: 64, mch_id: 1, mode_id: 4, feed_rate: 12.5000, blade_speed: 14.5500, time: 14, energy_Wh: 37),
  (cut_id: 64, mch_id: 2, mode_id: 4, feed_rate: 12.5000, blade_speed: 14.5500, time: 14, energy_Wh: 37),
  (cut_id: 64, mch_id: 3, mode_id: 5, feed_rate: 12.5000, blade_speed: 17.4600, time: 14, energy_Wh: 22),
  (cut_id: 64, mch_id: 1, mode_id: 5, feed_rate: 12.5000, blade_speed: 17.4600, time: 14, energy_Wh: 22),
  (cut_id: 64, mch_id: 2, mode_id: 5, feed_rate: 12.5000, blade_speed: 17.4600, time: 14, energy_Wh: 22),
  (cut_id: 64, mch_id: 3, mode_id: 6, feed_rate: 18.7500, blade_speed: 5.8200, time: 9, energy_Wh: 32),
  (cut_id: 64, mch_id: 1, mode_id: 6, feed_rate: 18.7500, blade_speed: 5.8200, time: 9, energy_Wh: 32),
  (cut_id: 64, mch_id: 2, mode_id: 6, feed_rate: 18.7500, blade_speed: 5.8200, time: 9, energy_Wh: 32),
  (cut_id: 64, mch_id: 3, mode_id: 7, feed_rate: 18.7500, blade_speed: 8.7300, time: 9, energy_Wh: 45),
  (cut_id: 64, mch_id: 1, mode_id: 7, feed_rate: 18.7500, blade_speed: 8.7300, time: 9, energy_Wh: 45),
  (cut_id: 64, mch_id: 2, mode_id: 7, feed_rate: 18.7500, blade_speed: 8.7300, time: 9, energy_Wh: 45),
  (cut_id: 64, mch_id: 3, mode_id: 8, feed_rate: 18.7500, blade_speed: 11.6400, time: 9, energy_Wh: 23),
  (cut_id: 64, mch_id: 1, mode_id: 8, feed_rate: 18.7500, blade_speed: 11.6400, time: 9, energy_Wh: 23),
  (cut_id: 64, mch_id: 2, mode_id: 8, feed_rate: 18.7500, blade_speed: 11.6400, time: 9, energy_Wh: 23),
  (cut_id: 64, mch_id: 3, mode_id: 9, feed_rate: 18.7500, blade_speed: 14.5500, time: 9, energy_Wh: 46),
  (cut_id: 64, mch_id: 1, mode_id: 9, feed_rate: 18.7500, blade_speed: 14.5500, time: 9, energy_Wh: 46),
  (cut_id: 64, mch_id: 2, mode_id: 9, feed_rate: 18.7500, blade_speed: 14.5500, time: 9, energy_Wh: 46),
  (cut_id: 64, mch_id: 3, mode_id: 10, feed_rate: 18.7500, blade_speed: 17.4600, time: 9, energy_Wh: 31),
  (cut_id: 64, mch_id: 1, mode_id: 10, feed_rate: 18.7500, blade_speed: 17.4600, time: 9, energy_Wh: 31),
  (cut_id: 64, mch_id: 2, mode_id: 10, feed_rate: 18.7500, blade_speed: 17.4600, time: 9, energy_Wh: 31),
  (cut_id: 64, mch_id: 3, mode_id: 11, feed_rate: 25.0000, blade_speed: 5.8200, time: 7, energy_Wh: 35),
  (cut_id: 64, mch_id: 1, mode_id: 11, feed_rate: 25.0000, blade_speed: 5.8200, time: 7, energy_Wh: 35),
  (cut_id: 64, mch_id: 2, mode_id: 11, feed_rate: 25.0000, blade_speed: 5.8200, time: 7, energy_Wh: 35),
  (cut_id: 64, mch_id: 3, mode_id: 12, feed_rate: 25.0000, blade_speed: 8.7300, time: 7, energy_Wh: 54),
  (cut_id: 64, mch_id: 1, mode_id: 12, feed_rate: 25.0000, blade_speed: 8.7300, time: 7, energy_Wh: 54),
  (cut_id: 64, mch_id: 2, mode_id: 12, feed_rate: 25.0000, blade_speed: 8.7300, time: 7, energy_Wh: 54),
  (cut_id: 64, mch_id: 3, mode_id: 13, feed_rate: 25.0000, blade_speed: 11.6400, time: 7, energy_Wh: 33),
  (cut_id: 64, mch_id: 1, mode_id: 13, feed_rate: 25.0000, blade_speed: 11.6400, time: 7, energy_Wh: 33),
  (cut_id: 64, mch_id: 2, mode_id: 13, feed_rate: 25.0000, blade_speed: 11.6400, time: 7, energy_Wh: 33),
  (cut_id: 64, mch_id: 3, mode_id: 14, feed_rate: 25.0000, blade_speed: 14.5500, time: 7, energy_Wh: 62),
  (cut_id: 64, mch_id: 1, mode_id: 14, feed_rate: 25.0000, blade_speed: 14.5500, time: 7, energy_Wh: 62),
  (cut_id: 64, mch_id: 2, mode_id: 14, feed_rate: 25.0000, blade_speed: 14.5500, time: 7, energy_Wh: 62),
  (cut_id: 64, mch_id: 3, mode_id: 15, feed_rate: 25.0000, blade_speed: 17.4600, time: 7, energy_Wh: 30),
  (cut_id: 64, mch_id: 1, mode_id: 15, feed_rate: 25.0000, blade_speed: 17.4600, time: 7, energy_Wh: 30),
  (cut_id: 64, mch_id: 2, mode_id: 15, feed_rate: 25.0000, blade_speed: 17.4600, time: 7, energy_Wh: 30),
  (cut_id: 64, mch_id: 3, mode_id: 16, feed_rate: 31.2500, blade_speed: 5.8200, time: 6, energy_Wh: 33),
  (cut_id: 64, mch_id: 1, mode_id: 16, feed_rate: 31.2500, blade_speed: 5.8200, time: 6, energy_Wh: 33),
  (cut_id: 64, mch_id: 2, mode_id: 16, feed_rate: 31.2500, blade_speed: 5.8200, time: 6, energy_Wh: 33),
  (cut_id: 64, mch_id: 3, mode_id: 17, feed_rate: 31.2500, blade_speed: 8.7300, time: 6, energy_Wh: 55),
  (cut_id: 64, mch_id: 1, mode_id: 17, feed_rate: 31.2500, blade_speed: 8.7300, time: 6, energy_Wh: 55),
  (cut_id: 64, mch_id: 2, mode_id: 17, feed_rate: 31.2500, blade_speed: 8.7300, time: 6, energy_Wh: 55),
  (cut_id: 64, mch_id: 3, mode_id: 18, feed_rate: 31.2500, blade_speed: 11.6400, time: 6, energy_Wh: 41),
  (cut_id: 64, mch_id: 1, mode_id: 18, feed_rate: 31.2500, blade_speed: 11.6400, time: 6, energy_Wh: 41),
  (cut_id: 64, mch_id: 2, mode_id: 18, feed_rate: 31.2500, blade_speed: 11.6400, time: 6, energy_Wh: 41),
  (cut_id: 64, mch_id: 3, mode_id: 19, feed_rate: 31.2500, blade_speed: 14.5500, time: 6, energy_Wh: 69),
  (cut_id: 64, mch_id: 1, mode_id: 19, feed_rate: 31.2500, blade_speed: 14.5500, time: 6, energy_Wh: 69),
  (cut_id: 64, mch_id: 2, mode_id: 19, feed_rate: 31.2500, blade_speed: 14.5500, time: 6, energy_Wh: 69),
  (cut_id: 64, mch_id: 3, mode_id: 20, feed_rate: 31.2500, blade_speed: 17.4600, time: 6, energy_Wh: 34),
  (cut_id: 64, mch_id: 1, mode_id: 20, feed_rate: 31.2500, blade_speed: 17.4600, time: 6, energy_Wh: 34),
  (cut_id: 64, mch_id: 2, mode_id: 20, feed_rate: 31.2500, blade_speed: 17.4600, time: 6, energy_Wh: 34),
  (cut_id: 64, mch_id: 3, mode_id: 21, feed_rate: 37.5000, blade_speed: 5.8200, time: 5, energy_Wh: 41),
  (cut_id: 64, mch_id: 1, mode_id: 21, feed_rate: 37.5000, blade_speed: 5.8200, time: 5, energy_Wh: 41),
  (cut_id: 64, mch_id: 2, mode_id: 21, feed_rate: 37.5000, blade_speed: 5.8200, time: 5, energy_Wh: 41),
  (cut_id: 64, mch_id: 3, mode_id: 22, feed_rate: 37.5000, blade_speed: 8.7300, time: 5, energy_Wh: 63),
  (cut_id: 64, mch_id: 1, mode_id: 22, feed_rate: 37.5000, blade_speed: 8.7300, time: 5, energy_Wh: 63),
  (cut_id: 64, mch_id: 2, mode_id: 22, feed_rate: 37.5000, blade_speed: 8.7300, time: 5, energy_Wh: 63),
  (cut_id: 64, mch_id: 3, mode_id: 23, feed_rate: 37.5000, blade_speed: 11.6400, time: 5, energy_Wh: 32),
  (cut_id: 64, mch_id: 1, mode_id: 23, feed_rate: 37.5000, blade_speed: 11.6400, time: 5, energy_Wh: 32),
  (cut_id: 64, mch_id: 2, mode_id: 23, feed_rate: 37.5000, blade_speed: 11.6400, time: 5, energy_Wh: 32),
  (cut_id: 64, mch_id: 3, mode_id: 24, feed_rate: 37.5000, blade_speed: 14.5500, time: 5, energy_Wh: 72),
  (cut_id: 64, mch_id: 1, mode_id: 24, feed_rate: 37.5000, blade_speed: 14.5500, time: 5, energy_Wh: 72),
  (cut_id: 64, mch_id: 2, mode_id: 24, feed_rate: 37.5000, blade_speed: 14.5500, time: 5, energy_Wh: 72),
  (cut_id: 64, mch_id: 3, mode_id: 25, feed_rate: 37.5000, blade_speed: 17.4600, time: 5, energy_Wh: 40),
  (cut_id: 64, mch_id: 1, mode_id: 25, feed_rate: 37.5000, blade_speed: 17.4600, time: 5, energy_Wh: 40),
  (cut_id: 64, mch_id: 2, mode_id: 25, feed_rate: 37.5000, blade_speed: 17.4600, time: 5, energy_Wh: 40),
  (cut_id: 65, mch_id: 2, mode_id: 1, feed_rate: 8.6600, blade_speed: 2.0800, time: 15, energy_Wh: 34),
  (cut_id: 65, mch_id: 1, mode_id: 1, feed_rate: 8.6600, blade_speed: 2.0800, time: 15, energy_Wh: 34),
  (cut_id: 65, mch_id: 3, mode_id: 1, feed_rate: 8.6600, blade_speed: 2.0800, time: 15, energy_Wh: 34),
  (cut_id: 65, mch_id: 2, mode_id: 2, feed_rate: 8.6600, blade_speed: 3.1200, time: 15, energy_Wh: 23),
  (cut_id: 65, mch_id: 1, mode_id: 2, feed_rate: 8.6600, blade_speed: 3.1200, time: 15, energy_Wh: 23),
  (cut_id: 65, mch_id: 3, mode_id: 2, feed_rate: 8.6600, blade_speed: 3.1200, time: 15, energy_Wh: 23),
  (cut_id: 65, mch_id: 2, mode_id: 3, feed_rate: 8.6600, blade_speed: 4.1600, time: 15, energy_Wh: 20),
  (cut_id: 65, mch_id: 1, mode_id: 3, feed_rate: 8.6600, blade_speed: 4.1600, time: 15, energy_Wh: 20),
  (cut_id: 65, mch_id: 3, mode_id: 3, feed_rate: 8.6600, blade_speed: 4.1600, time: 15, energy_Wh: 20),
  (cut_id: 65, mch_id: 2, mode_id: 4, feed_rate: 8.6600, blade_speed: 5.2100, time: 15, energy_Wh: 18),
  (cut_id: 65, mch_id: 1, mode_id: 4, feed_rate: 8.6600, blade_speed: 5.2100, time: 15, energy_Wh: 18),
  (cut_id: 65, mch_id: 3, mode_id: 4, feed_rate: 8.6600, blade_speed: 5.2100, time: 15, energy_Wh: 18),
  (cut_id: 65, mch_id: 2, mode_id: 5, feed_rate: 8.6600, blade_speed: 6.2500, time: 15, energy_Wh: 24),
  (cut_id: 65, mch_id: 1, mode_id: 5, feed_rate: 8.6600, blade_speed: 6.2500, time: 15, energy_Wh: 24),
  (cut_id: 65, mch_id: 3, mode_id: 5, feed_rate: 8.6600, blade_speed: 6.2500, time: 15, energy_Wh: 24),
  (cut_id: 65, mch_id: 2, mode_id: 6, feed_rate: 13.0000, blade_speed: 2.0800, time: 10, energy_Wh: 40),
  (cut_id: 65, mch_id: 1, mode_id: 6, feed_rate: 13.0000, blade_speed: 2.0800, time: 10, energy_Wh: 40),
  (cut_id: 65, mch_id: 3, mode_id: 6, feed_rate: 13.0000, blade_speed: 2.0800, time: 10, energy_Wh: 40),
  (cut_id: 65, mch_id: 2, mode_id: 7, feed_rate: 13.0000, blade_speed: 3.1200, time: 10, energy_Wh: 31),
  (cut_id: 65, mch_id: 1, mode_id: 7, feed_rate: 13.0000, blade_speed: 3.1200, time: 10, energy_Wh: 31),
  (cut_id: 65, mch_id: 3, mode_id: 7, feed_rate: 13.0000, blade_speed: 3.1200, time: 10, energy_Wh: 31),
  (cut_id: 65, mch_id: 2, mode_id: 8, feed_rate: 13.0000, blade_speed: 4.1600, time: 10, energy_Wh: 24),
  (cut_id: 65, mch_id: 1, mode_id: 8, feed_rate: 13.0000, blade_speed: 4.1600, time: 10, energy_Wh: 24),
  (cut_id: 65, mch_id: 3, mode_id: 8, feed_rate: 13.0000, blade_speed: 4.1600, time: 10, energy_Wh: 24),
  (cut_id: 65, mch_id: 2, mode_id: 9, feed_rate: 13.0000, blade_speed: 5.2100, time: 10, energy_Wh: 26),
  (cut_id: 65, mch_id: 1, mode_id: 9, feed_rate: 13.0000, blade_speed: 5.2100, time: 10, energy_Wh: 26),
  (cut_id: 65, mch_id: 3, mode_id: 9, feed_rate: 13.0000, blade_speed: 5.2100, time: 10, energy_Wh: 26),
  (cut_id: 65, mch_id: 2, mode_id: 10, feed_rate: 13.0000, blade_speed: 6.2500, time: 10, energy_Wh: 27),
  (cut_id: 65, mch_id: 1, mode_id: 10, feed_rate: 13.0000, blade_speed: 6.2500, time: 10, energy_Wh: 27),
  (cut_id: 65, mch_id: 3, mode_id: 10, feed_rate: 13.0000, blade_speed: 6.2500, time: 10, energy_Wh: 27),
  (cut_id: 65, mch_id: 2, mode_id: 11, feed_rate: 17.3300, blade_speed: 2.0800, time: 8, energy_Wh: 36),
  (cut_id: 65, mch_id: 1, mode_id: 11, feed_rate: 17.3300, blade_speed: 2.0800, time: 8, energy_Wh: 36),
  (cut_id: 65, mch_id: 3, mode_id: 11, feed_rate: 17.3300, blade_speed: 2.0800, time: 8, energy_Wh: 36),
  (cut_id: 65, mch_id: 2, mode_id: 12, feed_rate: 17.3300, blade_speed: 3.1200, time: 8, energy_Wh: 40),
  (cut_id: 65, mch_id: 1, mode_id: 12, feed_rate: 17.3300, blade_speed: 3.1200, time: 8, energy_Wh: 40),
  (cut_id: 65, mch_id: 3, mode_id: 12, feed_rate: 17.3300, blade_speed: 3.1200, time: 8, energy_Wh: 40),
  (cut_id: 65, mch_id: 2, mode_id: 13, feed_rate: 17.3300, blade_speed: 4.1600, time: 8, energy_Wh: 27),
  (cut_id: 65, mch_id: 1, mode_id: 13, feed_rate: 17.3300, blade_speed: 4.1600, time: 8, energy_Wh: 27),
  (cut_id: 65, mch_id: 3, mode_id: 13, feed_rate: 17.3300, blade_speed: 4.1600, time: 8, energy_Wh: 27),
  (cut_id: 65, mch_id: 2, mode_id: 14, feed_rate: 17.3300, blade_speed: 5.2100, time: 8, energy_Wh: 24),
  (cut_id: 65, mch_id: 1, mode_id: 14, feed_rate: 17.3300, blade_speed: 5.2100, time: 8, energy_Wh: 24),
  (cut_id: 65, mch_id: 3, mode_id: 14, feed_rate: 17.3300, blade_speed: 5.2100, time: 8, energy_Wh: 24),
  (cut_id: 65, mch_id: 2, mode_id: 15, feed_rate: 17.3300, blade_speed: 6.2500, time: 8, energy_Wh: 29),
  (cut_id: 65, mch_id: 1, mode_id: 15, feed_rate: 17.3300, blade_speed: 6.2500, time: 8, energy_Wh: 29),
  (cut_id: 65, mch_id: 3, mode_id: 15, feed_rate: 17.3300, blade_speed: 6.2500, time: 8, energy_Wh: 29),
  (cut_id: 65, mch_id: 2, mode_id: 16, feed_rate: 21.6600, blade_speed: 2.0800, time: 6, energy_Wh: 48),
  (cut_id: 65, mch_id: 1, mode_id: 16, feed_rate: 21.6600, blade_speed: 2.0800, time: 6, energy_Wh: 48),
  (cut_id: 65, mch_id: 3, mode_id: 16, feed_rate: 21.6600, blade_speed: 2.0800, time: 6, energy_Wh: 48),
  (cut_id: 65, mch_id: 2, mode_id: 17, feed_rate: 21.6600, blade_speed: 3.1200, time: 6, energy_Wh: 41),
  (cut_id: 65, mch_id: 1, mode_id: 17, feed_rate: 21.6600, blade_speed: 3.1200, time: 6, energy_Wh: 41),
  (cut_id: 65, mch_id: 3, mode_id: 17, feed_rate: 21.6600, blade_speed: 3.1200, time: 6, energy_Wh: 41),
  (cut_id: 65, mch_id: 2, mode_id: 18, feed_rate: 21.6600, blade_speed: 4.1600, time: 6, energy_Wh: 30),
  (cut_id: 65, mch_id: 1, mode_id: 18, feed_rate: 21.6600, blade_speed: 4.1600, time: 6, energy_Wh: 30),
  (cut_id: 65, mch_id: 3, mode_id: 18, feed_rate: 21.6600, blade_speed: 4.1600, time: 6, energy_Wh: 30),
  (cut_id: 65, mch_id: 2, mode_id: 19, feed_rate: 21.6600, blade_speed: 5.2100, time: 6, energy_Wh: 31),
  (cut_id: 65, mch_id: 1, mode_id: 19, feed_rate: 21.6600, blade_speed: 5.2100, time: 6, energy_Wh: 31),
  (cut_id: 65, mch_id: 3, mode_id: 19, feed_rate: 21.6600, blade_speed: 5.2100, time: 6, energy_Wh: 31),
  (cut_id: 65, mch_id: 2, mode_id: 20, feed_rate: 21.6600, blade_speed: 6.2500, time: 6, energy_Wh: 40),
  (cut_id: 65, mch_id: 1, mode_id: 20, feed_rate: 21.6600, blade_speed: 6.2500, time: 6, energy_Wh: 40),
  (cut_id: 65, mch_id: 3, mode_id: 20, feed_rate: 21.6600, blade_speed: 6.2500, time: 6, energy_Wh: 40),
  (cut_id: 65, mch_id: 2, mode_id: 21, feed_rate: 25.9900, blade_speed: 2.0800, time: 5, energy_Wh: 43),
  (cut_id: 65, mch_id: 1, mode_id: 21, feed_rate: 25.9900, blade_speed: 2.0800, time: 5, energy_Wh: 43),
  (cut_id: 65, mch_id: 3, mode_id: 21, feed_rate: 25.9900, blade_speed: 2.0800, time: 5, energy_Wh: 43),
  (cut_id: 65, mch_id: 2, mode_id: 22, feed_rate: 25.9900, blade_speed: 3.1200, time: 5, energy_Wh: 43),
  (cut_id: 65, mch_id: 1, mode_id: 22, feed_rate: 25.9900, blade_speed: 3.1200, time: 5, energy_Wh: 43),
  (cut_id: 65, mch_id: 3, mode_id: 22, feed_rate: 25.9900, blade_speed: 3.1200, time: 5, energy_Wh: 43),
  (cut_id: 65, mch_id: 2, mode_id: 23, feed_rate: 25.9900, blade_speed: 4.1600, time: 5, energy_Wh: 30),
  (cut_id: 65, mch_id: 1, mode_id: 23, feed_rate: 25.9900, blade_speed: 4.1600, time: 5, energy_Wh: 30),
  (cut_id: 65, mch_id: 3, mode_id: 23, feed_rate: 25.9900, blade_speed: 4.1600, time: 5, energy_Wh: 30),
  (cut_id: 65, mch_id: 2, mode_id: 24, feed_rate: 25.9900, blade_speed: 5.2100, time: 5, energy_Wh: 31),
  (cut_id: 65, mch_id: 1, mode_id: 24, feed_rate: 25.9900, blade_speed: 5.2100, time: 5, energy_Wh: 31),
  (cut_id: 65, mch_id: 3, mode_id: 24, feed_rate: 25.9900, blade_speed: 5.2100, time: 5, energy_Wh: 31),
  (cut_id: 65, mch_id: 2, mode_id: 25, feed_rate: 25.9900, blade_speed: 6.2500, time: 5, energy_Wh: 37),
  (cut_id: 65, mch_id: 1, mode_id: 25, feed_rate: 25.9900, blade_speed: 6.2500, time: 5, energy_Wh: 37),
  (cut_id: 65, mch_id: 3, mode_id: 25, feed_rate: 25.9900, blade_speed: 6.2500, time: 5, energy_Wh: 37),
  (cut_id: 66, mch_id: 3, mode_id: 1, feed_rate: 15.2500, blade_speed: 6.7500, time: 2, energy_Wh: 34),
  (cut_id: 66, mch_id: 1, mode_id: 1, feed_rate: 15.2500, blade_speed: 6.7500, time: 2, energy_Wh: 34),
  (cut_id: 66, mch_id: 2, mode_id: 1, feed_rate: 15.2500, blade_speed: 6.7500, time: 2, energy_Wh: 34),
  (cut_id: 66, mch_id: 3, mode_id: 2, feed_rate: 15.2500, blade_speed: 10.1200, time: 2, energy_Wh: 17),
  (cut_id: 66, mch_id: 1, mode_id: 2, feed_rate: 15.2500, blade_speed: 10.1200, time: 2, energy_Wh: 17),
  (cut_id: 66, mch_id: 2, mode_id: 2, feed_rate: 15.2500, blade_speed: 10.1200, time: 2, energy_Wh: 17),
  (cut_id: 66, mch_id: 3, mode_id: 3, feed_rate: 15.2500, blade_speed: 13.5000, time: 2, energy_Wh: 35),
  (cut_id: 66, mch_id: 1, mode_id: 3, feed_rate: 15.2500, blade_speed: 13.5000, time: 2, energy_Wh: 35),
  (cut_id: 66, mch_id: 2, mode_id: 3, feed_rate: 15.2500, blade_speed: 13.5000, time: 2, energy_Wh: 35),
  (cut_id: 66, mch_id: 3, mode_id: 4, feed_rate: 15.2500, blade_speed: 16.8700, time: 2, energy_Wh: 20),
  (cut_id: 66, mch_id: 1, mode_id: 4, feed_rate: 15.2500, blade_speed: 16.8700, time: 2, energy_Wh: 20),
  (cut_id: 66, mch_id: 2, mode_id: 4, feed_rate: 15.2500, blade_speed: 16.8700, time: 2, energy_Wh: 20),
  (cut_id: 66, mch_id: 3, mode_id: 5, feed_rate: 15.2500, blade_speed: 20.2500, time: 2, energy_Wh: 35),
  (cut_id: 66, mch_id: 1, mode_id: 5, feed_rate: 15.2500, blade_speed: 20.2500, time: 2, energy_Wh: 35),
  (cut_id: 66, mch_id: 2, mode_id: 5, feed_rate: 15.2500, blade_speed: 20.2500, time: 2, energy_Wh: 35),
  (cut_id: 66, mch_id: 3, mode_id: 6, feed_rate: 22.8700, blade_speed: 6.7500, time: 1, energy_Wh: 34),
  (cut_id: 66, mch_id: 1, mode_id: 6, feed_rate: 22.8700, blade_speed: 6.7500, time: 1, energy_Wh: 34),
  (cut_id: 66, mch_id: 2, mode_id: 6, feed_rate: 22.8700, blade_speed: 6.7500, time: 1, energy_Wh: 34),
  (cut_id: 66, mch_id: 3, mode_id: 7, feed_rate: 22.8700, blade_speed: 10.1200, time: 1, energy_Wh: 27),
  (cut_id: 66, mch_id: 1, mode_id: 7, feed_rate: 22.8700, blade_speed: 10.1200, time: 1, energy_Wh: 27),
  (cut_id: 66, mch_id: 2, mode_id: 7, feed_rate: 22.8700, blade_speed: 10.1200, time: 1, energy_Wh: 27),
  (cut_id: 66, mch_id: 3, mode_id: 8, feed_rate: 22.8700, blade_speed: 13.5000, time: 1, energy_Wh: 34),
  (cut_id: 66, mch_id: 1, mode_id: 8, feed_rate: 22.8700, blade_speed: 13.5000, time: 1, energy_Wh: 34),
  (cut_id: 66, mch_id: 2, mode_id: 8, feed_rate: 22.8700, blade_speed: 13.5000, time: 1, energy_Wh: 34),
  (cut_id: 66, mch_id: 3, mode_id: 9, feed_rate: 22.8700, blade_speed: 16.8700, time: 1, energy_Wh: 19),
  (cut_id: 66, mch_id: 1, mode_id: 9, feed_rate: 22.8700, blade_speed: 16.8700, time: 1, energy_Wh: 19),
  (cut_id: 66, mch_id: 2, mode_id: 9, feed_rate: 22.8700, blade_speed: 16.8700, time: 1, energy_Wh: 19),
  (cut_id: 66, mch_id: 3, mode_id: 10, feed_rate: 22.8700, blade_speed: 20.2500, time: 1, energy_Wh: 37),
  (cut_id: 66, mch_id: 1, mode_id: 10, feed_rate: 22.8700, blade_speed: 20.2500, time: 1, energy_Wh: 37),
  (cut_id: 66, mch_id: 2, mode_id: 10, feed_rate: 22.8700, blade_speed: 20.2500, time: 1, energy_Wh: 37),
  (cut_id: 66, mch_id: 3, mode_id: 11, feed_rate: 30.5000, blade_speed: 6.7500, time: 1, energy_Wh: 30),
  (cut_id: 66, mch_id: 1, mode_id: 11, feed_rate: 30.5000, blade_speed: 6.7500, time: 1, energy_Wh: 30),
  (cut_id: 66, mch_id: 2, mode_id: 11, feed_rate: 30.5000, blade_speed: 6.7500, time: 1, energy_Wh: 30),
  (cut_id: 66, mch_id: 3, mode_id: 12, feed_rate: 30.5000, blade_speed: 10.1200, time: 1, energy_Wh: 26),
  (cut_id: 66, mch_id: 1, mode_id: 12, feed_rate: 30.5000, blade_speed: 10.1200, time: 1, energy_Wh: 26),
  (cut_id: 66, mch_id: 2, mode_id: 12, feed_rate: 30.5000, blade_speed: 10.1200, time: 1, energy_Wh: 26),
  (cut_id: 66, mch_id: 3, mode_id: 13, feed_rate: 30.5000, blade_speed: 13.5000, time: 1, energy_Wh: 33),
  (cut_id: 66, mch_id: 1, mode_id: 13, feed_rate: 30.5000, blade_speed: 13.5000, time: 1, energy_Wh: 33),
  (cut_id: 66, mch_id: 2, mode_id: 13, feed_rate: 30.5000, blade_speed: 13.5000, time: 1, energy_Wh: 33),
  (cut_id: 66, mch_id: 3, mode_id: 14, feed_rate: 30.5000, blade_speed: 16.8700, time: 1, energy_Wh: 21),
  (cut_id: 66, mch_id: 1, mode_id: 14, feed_rate: 30.5000, blade_speed: 16.8700, time: 1, energy_Wh: 21),
  (cut_id: 66, mch_id: 2, mode_id: 14, feed_rate: 30.5000, blade_speed: 16.8700, time: 1, energy_Wh: 21),
  (cut_id: 66, mch_id: 3, mode_id: 15, feed_rate: 30.5000, blade_speed: 20.2500, time: 1, energy_Wh: 51),
  (cut_id: 66, mch_id: 1, mode_id: 15, feed_rate: 30.5000, blade_speed: 20.2500, time: 1, energy_Wh: 51),
  (cut_id: 66, mch_id: 2, mode_id: 15, feed_rate: 30.5000, blade_speed: 20.2500, time: 1, energy_Wh: 51),
  (cut_id: 66, mch_id: 3, mode_id: 16, feed_rate: 38.1200, blade_speed: 6.7500, time: 1, energy_Wh: 37),
  (cut_id: 66, mch_id: 1, mode_id: 16, feed_rate: 38.1200, blade_speed: 6.7500, time: 1, energy_Wh: 37),
  (cut_id: 66, mch_id: 2, mode_id: 16, feed_rate: 38.1200, blade_speed: 6.7500, time: 1, energy_Wh: 37),
  (cut_id: 66, mch_id: 3, mode_id: 17, feed_rate: 38.1200, blade_speed: 10.1200, time: 1, energy_Wh: 30),
  (cut_id: 66, mch_id: 1, mode_id: 17, feed_rate: 38.1200, blade_speed: 10.1200, time: 1, energy_Wh: 30),
  (cut_id: 66, mch_id: 2, mode_id: 17, feed_rate: 38.1200, blade_speed: 10.1200, time: 1, energy_Wh: 30),
  (cut_id: 66, mch_id: 3, mode_id: 18, feed_rate: 38.1200, blade_speed: 13.5000, time: 1, energy_Wh: 47),
  (cut_id: 66, mch_id: 1, mode_id: 18, feed_rate: 38.1200, blade_speed: 13.5000, time: 1, energy_Wh: 47),
  (cut_id: 66, mch_id: 2, mode_id: 18, feed_rate: 38.1200, blade_speed: 13.5000, time: 1, energy_Wh: 47),
  (cut_id: 66, mch_id: 3, mode_id: 19, feed_rate: 38.1200, blade_speed: 16.8700, time: 1, energy_Wh: 24),
  (cut_id: 66, mch_id: 1, mode_id: 19, feed_rate: 38.1200, blade_speed: 16.8700, time: 1, energy_Wh: 24),
  (cut_id: 66, mch_id: 2, mode_id: 19, feed_rate: 38.1200, blade_speed: 16.8700, time: 1, energy_Wh: 24),
  (cut_id: 66, mch_id: 3, mode_id: 20, feed_rate: 38.1200, blade_speed: 20.2500, time: 1, energy_Wh: 46),
  (cut_id: 66, mch_id: 1, mode_id: 20, feed_rate: 38.1200, blade_speed: 20.2500, time: 1, energy_Wh: 46),
  (cut_id: 66, mch_id: 2, mode_id: 20, feed_rate: 38.1200, blade_speed: 20.2500, time: 1, energy_Wh: 46),
  (cut_id: 66, mch_id: 3, mode_id: 21, feed_rate: 45.7500, blade_speed: 6.7500, time: 1, energy_Wh: 58),
  (cut_id: 66, mch_id: 1, mode_id: 21, feed_rate: 45.7500, blade_speed: 6.7500, time: 1, energy_Wh: 58),
  (cut_id: 66, mch_id: 2, mode_id: 21, feed_rate: 45.7500, blade_speed: 6.7500, time: 1, energy_Wh: 58),
  (cut_id: 66, mch_id: 3, mode_id: 22, feed_rate: 45.7500, blade_speed: 10.1200, time: 1, energy_Wh: 38),
  (cut_id: 66, mch_id: 1, mode_id: 22, feed_rate: 45.7500, blade_speed: 10.1200, time: 1, energy_Wh: 38),
  (cut_id: 66, mch_id: 2, mode_id: 22, feed_rate: 45.7500, blade_speed: 10.1200, time: 1, energy_Wh: 38),
  (cut_id: 66, mch_id: 3, mode_id: 23, feed_rate: 45.7500, blade_speed: 13.5000, time: 1, energy_Wh: 66),
  (cut_id: 66, mch_id: 1, mode_id: 23, feed_rate: 45.7500, blade_speed: 13.5000, time: 1, energy_Wh: 66),
  (cut_id: 66, mch_id: 2, mode_id: 23, feed_rate: 45.7500, blade_speed: 13.5000, time: 1, energy_Wh: 66),
  (cut_id: 66, mch_id: 3, mode_id: 24, feed_rate: 45.7500, blade_speed: 16.8700, time: 1, energy_Wh: 33),
  (cut_id: 66, mch_id: 1, mode_id: 24, feed_rate: 45.7500, blade_speed: 16.8700, time: 1, energy_Wh: 33),
  (cut_id: 66, mch_id: 2, mode_id: 24, feed_rate: 45.7500, blade_speed: 16.8700, time: 1, energy_Wh: 33),
  (cut_id: 66, mch_id: 3, mode_id: 25, feed_rate: 45.7500, blade_speed: 20.2500, time: 1, energy_Wh: 55),
  (cut_id: 66, mch_id: 1, mode_id: 25, feed_rate: 45.7500, blade_speed: 20.2500, time: 1, energy_Wh: 55),
  (cut_id: 66, mch_id: 2, mode_id: 25, feed_rate: 45.7500, blade_speed: 20.2500, time: 1, energy_Wh: 55),
  (cut_id: 67, mch_id: 2, mode_id: 1, feed_rate: 11.5000, blade_speed: 3.7500, time: 13, energy_Wh: 23),
  (cut_id: 67, mch_id: 1, mode_id: 1, feed_rate: 11.5000, blade_speed: 3.7500, time: 13, energy_Wh: 23),
  (cut_id: 67, mch_id: 3, mode_id: 1, feed_rate: 11.5000, blade_speed: 3.7500, time: 13, energy_Wh: 23),
  (cut_id: 67, mch_id: 2, mode_id: 2, feed_rate: 11.5000, blade_speed: 5.6200, time: 13, energy_Wh: 25),
  (cut_id: 67, mch_id: 1, mode_id: 2, feed_rate: 11.5000, blade_speed: 5.6200, time: 13, energy_Wh: 25),
  (cut_id: 67, mch_id: 3, mode_id: 2, feed_rate: 11.5000, blade_speed: 5.6200, time: 13, energy_Wh: 25),
  (cut_id: 67, mch_id: 2, mode_id: 3, feed_rate: 11.5000, blade_speed: 7.5000, time: 13, energy_Wh: 36),
  (cut_id: 67, mch_id: 1, mode_id: 3, feed_rate: 11.5000, blade_speed: 7.5000, time: 13, energy_Wh: 36),
  (cut_id: 67, mch_id: 3, mode_id: 3, feed_rate: 11.5000, blade_speed: 7.5000, time: 13, energy_Wh: 36),
  (cut_id: 67, mch_id: 2, mode_id: 4, feed_rate: 11.5000, blade_speed: 9.3800, time: 13, energy_Wh: 34),
  (cut_id: 67, mch_id: 1, mode_id: 4, feed_rate: 11.5000, blade_speed: 9.3800, time: 13, energy_Wh: 34),
  (cut_id: 67, mch_id: 3, mode_id: 4, feed_rate: 11.5000, blade_speed: 9.3800, time: 13, energy_Wh: 34),
  (cut_id: 67, mch_id: 2, mode_id: 5, feed_rate: 11.5000, blade_speed: 11.2500, time: 13, energy_Wh: 21),
  (cut_id: 67, mch_id: 1, mode_id: 5, feed_rate: 11.5000, blade_speed: 11.2500, time: 13, energy_Wh: 21),
  (cut_id: 67, mch_id: 3, mode_id: 5, feed_rate: 11.5000, blade_speed: 11.2500, time: 13, energy_Wh: 21),
  (cut_id: 67, mch_id: 2, mode_id: 6, feed_rate: 17.2500, blade_speed: 3.7500, time: 9, energy_Wh: 28),
  (cut_id: 67, mch_id: 1, mode_id: 6, feed_rate: 17.2500, blade_speed: 3.7500, time: 9, energy_Wh: 28),
  (cut_id: 67, mch_id: 3, mode_id: 6, feed_rate: 17.2500, blade_speed: 3.7500, time: 9, energy_Wh: 28),
  (cut_id: 67, mch_id: 2, mode_id: 7, feed_rate: 17.2500, blade_speed: 5.6200, time: 9, energy_Wh: 29),
  (cut_id: 67, mch_id: 1, mode_id: 7, feed_rate: 17.2500, blade_speed: 5.6200, time: 9, energy_Wh: 29),
  (cut_id: 67, mch_id: 3, mode_id: 7, feed_rate: 17.2500, blade_speed: 5.6200, time: 9, energy_Wh: 29),
  (cut_id: 67, mch_id: 2, mode_id: 8, feed_rate: 17.2500, blade_speed: 7.5000, time: 9, energy_Wh: 50),
  (cut_id: 67, mch_id: 1, mode_id: 8, feed_rate: 17.2500, blade_speed: 7.5000, time: 9, energy_Wh: 50),
  (cut_id: 67, mch_id: 3, mode_id: 8, feed_rate: 17.2500, blade_speed: 7.5000, time: 9, energy_Wh: 50),
  (cut_id: 67, mch_id: 2, mode_id: 9, feed_rate: 17.2500, blade_speed: 9.3800, time: 9, energy_Wh: 40),
  (cut_id: 67, mch_id: 1, mode_id: 9, feed_rate: 17.2500, blade_speed: 9.3800, time: 9, energy_Wh: 40),
  (cut_id: 67, mch_id: 3, mode_id: 9, feed_rate: 17.2500, blade_speed: 9.3800, time: 9, energy_Wh: 40),
  (cut_id: 67, mch_id: 2, mode_id: 10, feed_rate: 17.2500, blade_speed: 11.2500, time: 9, energy_Wh: 24),
  (cut_id: 67, mch_id: 1, mode_id: 10, feed_rate: 17.2500, blade_speed: 11.2500, time: 9, energy_Wh: 24),
  (cut_id: 67, mch_id: 3, mode_id: 10, feed_rate: 17.2500, blade_speed: 11.2500, time: 9, energy_Wh: 24),
  (cut_id: 67, mch_id: 2, mode_id: 11, feed_rate: 23.0000, blade_speed: 3.7500, time: 7, energy_Wh: 28),
  (cut_id: 67, mch_id: 1, mode_id: 11, feed_rate: 23.0000, blade_speed: 3.7500, time: 7, energy_Wh: 28),
  (cut_id: 67, mch_id: 3, mode_id: 11, feed_rate: 23.0000, blade_speed: 3.7500, time: 7, energy_Wh: 28),
  (cut_id: 67, mch_id: 2, mode_id: 12, feed_rate: 23.0000, blade_speed: 5.6200, time: 7, energy_Wh: 28),
  (cut_id: 67, mch_id: 1, mode_id: 12, feed_rate: 23.0000, blade_speed: 5.6200, time: 7, energy_Wh: 28),
  (cut_id: 67, mch_id: 3, mode_id: 12, feed_rate: 23.0000, blade_speed: 5.6200, time: 7, energy_Wh: 28),
  (cut_id: 67, mch_id: 2, mode_id: 13, feed_rate: 23.0000, blade_speed: 7.5000, time: 7, energy_Wh: 47),
  (cut_id: 67, mch_id: 1, mode_id: 13, feed_rate: 23.0000, blade_speed: 7.5000, time: 7, energy_Wh: 47),
  (cut_id: 67, mch_id: 3, mode_id: 13, feed_rate: 23.0000, blade_speed: 7.5000, time: 7, energy_Wh: 47),
  (cut_id: 67, mch_id: 2, mode_id: 14, feed_rate: 23.0000, blade_speed: 9.3800, time: 7, energy_Wh: 31),
  (cut_id: 67, mch_id: 1, mode_id: 14, feed_rate: 23.0000, blade_speed: 9.3800, time: 7, energy_Wh: 31),
  (cut_id: 67, mch_id: 3, mode_id: 14, feed_rate: 23.0000, blade_speed: 9.3800, time: 7, energy_Wh: 31),
  (cut_id: 67, mch_id: 2, mode_id: 15, feed_rate: 23.0000, blade_speed: 11.2500, time: 7, energy_Wh: 24),
  (cut_id: 67, mch_id: 1, mode_id: 15, feed_rate: 23.0000, blade_speed: 11.2500, time: 7, energy_Wh: 24),
  (cut_id: 67, mch_id: 3, mode_id: 15, feed_rate: 23.0000, blade_speed: 11.2500, time: 7, energy_Wh: 24),
  (cut_id: 67, mch_id: 2, mode_id: 16, feed_rate: 28.7500, blade_speed: 3.7500, time: 6, energy_Wh: 33),
  (cut_id: 67, mch_id: 1, mode_id: 16, feed_rate: 28.7500, blade_speed: 3.7500, time: 6, energy_Wh: 33),
  (cut_id: 67, mch_id: 3, mode_id: 16, feed_rate: 28.7500, blade_speed: 3.7500, time: 6, energy_Wh: 33),
  (cut_id: 67, mch_id: 2, mode_id: 17, feed_rate: 28.7500, blade_speed: 5.6200, time: 6, energy_Wh: 37),
  (cut_id: 67, mch_id: 1, mode_id: 17, feed_rate: 28.7500, blade_speed: 5.6200, time: 6, energy_Wh: 37),
  (cut_id: 67, mch_id: 3, mode_id: 17, feed_rate: 28.7500, blade_speed: 5.6200, time: 6, energy_Wh: 37),
  (cut_id: 67, mch_id: 2, mode_id: 18, feed_rate: 28.7500, blade_speed: 7.5000, time: 6, energy_Wh: 44),
  (cut_id: 67, mch_id: 1, mode_id: 18, feed_rate: 28.7500, blade_speed: 7.5000, time: 6, energy_Wh: 44),
  (cut_id: 67, mch_id: 3, mode_id: 18, feed_rate: 28.7500, blade_speed: 7.5000, time: 6, energy_Wh: 44),
  (cut_id: 67, mch_id: 2, mode_id: 19, feed_rate: 28.7500, blade_speed: 9.3800, time: 6, energy_Wh: 40),
  (cut_id: 67, mch_id: 1, mode_id: 19, feed_rate: 28.7500, blade_speed: 9.3800, time: 6, energy_Wh: 40),
  (cut_id: 67, mch_id: 3, mode_id: 19, feed_rate: 28.7500, blade_speed: 9.3800, time: 6, energy_Wh: 40),
  (cut_id: 67, mch_id: 2, mode_id: 20, feed_rate: 28.7500, blade_speed: 11.2500, time: 6, energy_Wh: 34),
  (cut_id: 67, mch_id: 1, mode_id: 20, feed_rate: 28.7500, blade_speed: 11.2500, time: 6, energy_Wh: 34),
  (cut_id: 67, mch_id: 3, mode_id: 20, feed_rate: 28.7500, blade_speed: 11.2500, time: 6, energy_Wh: 34),
  (cut_id: 67, mch_id: 2, mode_id: 21, feed_rate: 34.5000, blade_speed: 3.7500, time: 5, energy_Wh: 35),
  (cut_id: 67, mch_id: 1, mode_id: 21, feed_rate: 34.5000, blade_speed: 3.7500, time: 5, energy_Wh: 35),
  (cut_id: 67, mch_id: 3, mode_id: 21, feed_rate: 34.5000, blade_speed: 3.7500, time: 5, energy_Wh: 35),
  (cut_id: 67, mch_id: 2, mode_id: 22, feed_rate: 34.5000, blade_speed: 5.6200, time: 5, energy_Wh: 32),
  (cut_id: 67, mch_id: 1, mode_id: 22, feed_rate: 34.5000, blade_speed: 5.6200, time: 5, energy_Wh: 32),
  (cut_id: 67, mch_id: 3, mode_id: 22, feed_rate: 34.5000, blade_speed: 5.6200, time: 5, energy_Wh: 32),
  (cut_id: 67, mch_id: 2, mode_id: 23, feed_rate: 34.5000, blade_speed: 7.5000, time: 5, energy_Wh: 57),
  (cut_id: 67, mch_id: 1, mode_id: 23, feed_rate: 34.5000, blade_speed: 7.5000, time: 5, energy_Wh: 57),
  (cut_id: 67, mch_id: 3, mode_id: 23, feed_rate: 34.5000, blade_speed: 7.5000, time: 5, energy_Wh: 57),
  (cut_id: 67, mch_id: 2, mode_id: 24, feed_rate: 34.5000, blade_speed: 9.3800, time: 5, energy_Wh: 38),
  (cut_id: 67, mch_id: 1, mode_id: 24, feed_rate: 34.5000, blade_speed: 9.3800, time: 5, energy_Wh: 38),
  (cut_id: 67, mch_id: 3, mode_id: 24, feed_rate: 34.5000, blade_speed: 9.3800, time: 5, energy_Wh: 38),
  (cut_id: 67, mch_id: 2, mode_id: 25, feed_rate: 34.5000, blade_speed: 11.2500, time: 5, energy_Wh: 30),
  (cut_id: 67, mch_id: 1, mode_id: 25, feed_rate: 34.5000, blade_speed: 11.2500, time: 5, energy_Wh: 30),
  (cut_id: 67, mch_id: 3, mode_id: 25, feed_rate: 34.5000, blade_speed: 11.2500, time: 5, energy_Wh: 30),
  (cut_id: 68, mch_id: 3, mode_id: 1, feed_rate: 17.8200, blade_speed: 10.3200, time: 9, energy_Wh: 21),
  (cut_id: 68, mch_id: 1, mode_id: 1, feed_rate: 17.8200, blade_speed: 10.3200, time: 9, energy_Wh: 21),
  (cut_id: 68, mch_id: 2, mode_id: 1, feed_rate: 17.8200, blade_speed: 10.3200, time: 9, energy_Wh: 21),
  (cut_id: 68, mch_id: 3, mode_id: 2, feed_rate: 17.8200, blade_speed: 15.4700, time: 9, energy_Wh: 41),
  (cut_id: 68, mch_id: 1, mode_id: 2, feed_rate: 17.8200, blade_speed: 15.4700, time: 9, energy_Wh: 41),
  (cut_id: 68, mch_id: 2, mode_id: 2, feed_rate: 17.8200, blade_speed: 15.4700, time: 9, energy_Wh: 41),
  (cut_id: 68, mch_id: 3, mode_id: 3, feed_rate: 17.8200, blade_speed: 20.6300, time: 9, energy_Wh: 46),
  (cut_id: 68, mch_id: 1, mode_id: 3, feed_rate: 17.8200, blade_speed: 20.6300, time: 9, energy_Wh: 46),
  (cut_id: 68, mch_id: 2, mode_id: 3, feed_rate: 17.8200, blade_speed: 20.6300, time: 9, energy_Wh: 46),
  (cut_id: 68, mch_id: 3, mode_id: 4, feed_rate: 17.8200, blade_speed: 25.7900, time: 9, energy_Wh: 38),
  (cut_id: 68, mch_id: 1, mode_id: 4, feed_rate: 17.8200, blade_speed: 25.7900, time: 9, energy_Wh: 38),
  (cut_id: 68, mch_id: 2, mode_id: 4, feed_rate: 17.8200, blade_speed: 25.7900, time: 9, energy_Wh: 38),
  (cut_id: 68, mch_id: 3, mode_id: 5, feed_rate: 17.8200, blade_speed: 30.9500, time: 9, energy_Wh: 31),
  (cut_id: 68, mch_id: 1, mode_id: 5, feed_rate: 17.8200, blade_speed: 30.9500, time: 9, energy_Wh: 31),
  (cut_id: 68, mch_id: 2, mode_id: 5, feed_rate: 17.8200, blade_speed: 30.9500, time: 9, energy_Wh: 31),
  (cut_id: 68, mch_id: 3, mode_id: 6, feed_rate: 26.7200, blade_speed: 10.3200, time: 6, energy_Wh: 35),
  (cut_id: 68, mch_id: 1, mode_id: 6, feed_rate: 26.7200, blade_speed: 10.3200, time: 6, energy_Wh: 35),
  (cut_id: 68, mch_id: 2, mode_id: 6, feed_rate: 26.7200, blade_speed: 10.3200, time: 6, energy_Wh: 35),
  (cut_id: 68, mch_id: 3, mode_id: 7, feed_rate: 26.7200, blade_speed: 15.4700, time: 6, energy_Wh: 36),
  (cut_id: 68, mch_id: 1, mode_id: 7, feed_rate: 26.7200, blade_speed: 15.4700, time: 6, energy_Wh: 36),
  (cut_id: 68, mch_id: 2, mode_id: 7, feed_rate: 26.7200, blade_speed: 15.4700, time: 6, energy_Wh: 36),
  (cut_id: 68, mch_id: 3, mode_id: 8, feed_rate: 26.7200, blade_speed: 20.6300, time: 6, energy_Wh: 47),
  (cut_id: 68, mch_id: 1, mode_id: 8, feed_rate: 26.7200, blade_speed: 20.6300, time: 6, energy_Wh: 47),
  (cut_id: 68, mch_id: 2, mode_id: 8, feed_rate: 26.7200, blade_speed: 20.6300, time: 6, energy_Wh: 47),
  (cut_id: 68, mch_id: 3, mode_id: 9, feed_rate: 26.7200, blade_speed: 25.7900, time: 6, energy_Wh: 54),
  (cut_id: 68, mch_id: 1, mode_id: 9, feed_rate: 26.7200, blade_speed: 25.7900, time: 6, energy_Wh: 54),
  (cut_id: 68, mch_id: 2, mode_id: 9, feed_rate: 26.7200, blade_speed: 25.7900, time: 6, energy_Wh: 54),
  (cut_id: 68, mch_id: 3, mode_id: 10, feed_rate: 26.7200, blade_speed: 30.9500, time: 6, energy_Wh: 42),
  (cut_id: 68, mch_id: 1, mode_id: 10, feed_rate: 26.7200, blade_speed: 30.9500, time: 6, energy_Wh: 42),
  (cut_id: 68, mch_id: 2, mode_id: 10, feed_rate: 26.7200, blade_speed: 30.9500, time: 6, energy_Wh: 42),
  (cut_id: 68, mch_id: 3, mode_id: 11, feed_rate: 35.6300, blade_speed: 10.3200, time: 5, energy_Wh: 41),
  (cut_id: 68, mch_id: 1, mode_id: 11, feed_rate: 35.6300, blade_speed: 10.3200, time: 5, energy_Wh: 41),
  (cut_id: 68, mch_id: 2, mode_id: 11, feed_rate: 35.6300, blade_speed: 10.3200, time: 5, energy_Wh: 41),
  (cut_id: 68, mch_id: 3, mode_id: 12, feed_rate: 35.6300, blade_speed: 15.4700, time: 5, energy_Wh: 46),
  (cut_id: 68, mch_id: 1, mode_id: 12, feed_rate: 35.6300, blade_speed: 15.4700, time: 5, energy_Wh: 46),
  (cut_id: 68, mch_id: 2, mode_id: 12, feed_rate: 35.6300, blade_speed: 15.4700, time: 5, energy_Wh: 46),
  (cut_id: 68, mch_id: 3, mode_id: 13, feed_rate: 35.6300, blade_speed: 20.6300, time: 5, energy_Wh: 54),
  (cut_id: 68, mch_id: 1, mode_id: 13, feed_rate: 35.6300, blade_speed: 20.6300, time: 5, energy_Wh: 54),
  (cut_id: 68, mch_id: 2, mode_id: 13, feed_rate: 35.6300, blade_speed: 20.6300, time: 5, energy_Wh: 54),
  (cut_id: 68, mch_id: 3, mode_id: 14, feed_rate: 35.6300, blade_speed: 25.7900, time: 5, energy_Wh: 47),
  (cut_id: 68, mch_id: 1, mode_id: 14, feed_rate: 35.6300, blade_speed: 25.7900, time: 5, energy_Wh: 47),
  (cut_id: 68, mch_id: 2, mode_id: 14, feed_rate: 35.6300, blade_speed: 25.7900, time: 5, energy_Wh: 47),
  (cut_id: 68, mch_id: 3, mode_id: 15, feed_rate: 35.6300, blade_speed: 30.9500, time: 5, energy_Wh: 34),
  (cut_id: 68, mch_id: 1, mode_id: 15, feed_rate: 35.6300, blade_speed: 30.9500, time: 5, energy_Wh: 34),
  (cut_id: 68, mch_id: 2, mode_id: 15, feed_rate: 35.6300, blade_speed: 30.9500, time: 5, energy_Wh: 34),
  (cut_id: 68, mch_id: 3, mode_id: 16, feed_rate: 44.5400, blade_speed: 10.3200, time: 4, energy_Wh: 36),
  (cut_id: 68, mch_id: 1, mode_id: 16, feed_rate: 44.5400, blade_speed: 10.3200, time: 4, energy_Wh: 36),
  (cut_id: 68, mch_id: 2, mode_id: 16, feed_rate: 44.5400, blade_speed: 10.3200, time: 4, energy_Wh: 36),
  (cut_id: 68, mch_id: 3, mode_id: 17, feed_rate: 44.5400, blade_speed: 15.4700, time: 4, energy_Wh: 57),
  (cut_id: 68, mch_id: 1, mode_id: 17, feed_rate: 44.5400, blade_speed: 15.4700, time: 4, energy_Wh: 57),
  (cut_id: 68, mch_id: 2, mode_id: 17, feed_rate: 44.5400, blade_speed: 15.4700, time: 4, energy_Wh: 57),
  (cut_id: 68, mch_id: 3, mode_id: 18, feed_rate: 44.5400, blade_speed: 20.6300, time: 4, energy_Wh: 75),
  (cut_id: 68, mch_id: 1, mode_id: 18, feed_rate: 44.5400, blade_speed: 20.6300, time: 4, energy_Wh: 75),
  (cut_id: 68, mch_id: 2, mode_id: 18, feed_rate: 44.5400, blade_speed: 20.6300, time: 4, energy_Wh: 75),
  (cut_id: 68, mch_id: 3, mode_id: 19, feed_rate: 44.5400, blade_speed: 25.7900, time: 4, energy_Wh: 51),
  (cut_id: 68, mch_id: 1, mode_id: 19, feed_rate: 44.5400, blade_speed: 25.7900, time: 4, energy_Wh: 51),
  (cut_id: 68, mch_id: 2, mode_id: 19, feed_rate: 44.5400, blade_speed: 25.7900, time: 4, energy_Wh: 51),
  (cut_id: 68, mch_id: 3, mode_id: 20, feed_rate: 44.5400, blade_speed: 30.9500, time: 4, energy_Wh: 41),
  (cut_id: 68, mch_id: 1, mode_id: 20, feed_rate: 44.5400, blade_speed: 30.9500, time: 4, energy_Wh: 41),
  (cut_id: 68, mch_id: 2, mode_id: 20, feed_rate: 44.5400, blade_speed: 30.9500, time: 4, energy_Wh: 41),
  (cut_id: 68, mch_id: 3, mode_id: 21, feed_rate: 53.4500, blade_speed: 10.3200, time: 3, energy_Wh: 54),
  (cut_id: 68, mch_id: 1, mode_id: 21, feed_rate: 53.4500, blade_speed: 10.3200, time: 3, energy_Wh: 54),
  (cut_id: 68, mch_id: 2, mode_id: 21, feed_rate: 53.4500, blade_speed: 10.3200, time: 3, energy_Wh: 54),
  (cut_id: 68, mch_id: 3, mode_id: 22, feed_rate: 53.4500, blade_speed: 15.4700, time: 3, energy_Wh: 75),
  (cut_id: 68, mch_id: 1, mode_id: 22, feed_rate: 53.4500, blade_speed: 15.4700, time: 3, energy_Wh: 75),
  (cut_id: 68, mch_id: 2, mode_id: 22, feed_rate: 53.4500, blade_speed: 15.4700, time: 3, energy_Wh: 75),
  (cut_id: 68, mch_id: 3, mode_id: 23, feed_rate: 53.4500, blade_speed: 20.6300, time: 3, energy_Wh: 75),
  (cut_id: 68, mch_id: 1, mode_id: 23, feed_rate: 53.4500, blade_speed: 20.6300, time: 3, energy_Wh: 75),
  (cut_id: 68, mch_id: 2, mode_id: 23, feed_rate: 53.4500, blade_speed: 20.6300, time: 3, energy_Wh: 75),
  (cut_id: 68, mch_id: 3, mode_id: 24, feed_rate: 53.4500, blade_speed: 25.7900, time: 3, energy_Wh: 89),
  (cut_id: 68, mch_id: 1, mode_id: 24, feed_rate: 53.4500, blade_speed: 25.7900, time: 3, energy_Wh: 89),
  (cut_id: 68, mch_id: 2, mode_id: 24, feed_rate: 53.4500, blade_speed: 25.7900, time: 3, energy_Wh: 89),
  (cut_id: 68, mch_id: 3, mode_id: 25, feed_rate: 53.4500, blade_speed: 30.9500, time: 3, energy_Wh: 48),
  (cut_id: 68, mch_id: 1, mode_id: 25, feed_rate: 53.4500, blade_speed: 30.9500, time: 3, energy_Wh: 48),
  (cut_id: 68, mch_id: 2, mode_id: 25, feed_rate: 53.4500, blade_speed: 30.9500, time: 3, energy_Wh: 48),
  (cut_id: 69, mch_id: 1, mode_id: 1, feed_rate: 15.0000, blade_speed: 7.8500, time: 7, energy_Wh: 43),
  (cut_id: 69, mch_id: 2, mode_id: 1, feed_rate: 15.0000, blade_speed: 7.8500, time: 7, energy_Wh: 43),
  (cut_id: 69, mch_id: 3, mode_id: 1, feed_rate: 15.0000, blade_speed: 7.8500, time: 7, energy_Wh: 43),
  (cut_id: 69, mch_id: 1, mode_id: 2, feed_rate: 15.0000, blade_speed: 11.7800, time: 7, energy_Wh: 26),
  (cut_id: 69, mch_id: 2, mode_id: 2, feed_rate: 15.0000, blade_speed: 11.7800, time: 7, energy_Wh: 26),
  (cut_id: 69, mch_id: 3, mode_id: 2, feed_rate: 15.0000, blade_speed: 11.7800, time: 7, energy_Wh: 26),
  (cut_id: 69, mch_id: 1, mode_id: 3, feed_rate: 15.0000, blade_speed: 15.7000, time: 7, energy_Wh: 28),
  (cut_id: 69, mch_id: 2, mode_id: 3, feed_rate: 15.0000, blade_speed: 15.7000, time: 7, energy_Wh: 28),
  (cut_id: 69, mch_id: 3, mode_id: 3, feed_rate: 15.0000, blade_speed: 15.7000, time: 7, energy_Wh: 28),
  (cut_id: 69, mch_id: 1, mode_id: 4, feed_rate: 15.0000, blade_speed: 19.6300, time: 7, energy_Wh: 44),
  (cut_id: 69, mch_id: 2, mode_id: 4, feed_rate: 15.0000, blade_speed: 19.6300, time: 7, energy_Wh: 44),
  (cut_id: 69, mch_id: 3, mode_id: 4, feed_rate: 15.0000, blade_speed: 19.6300, time: 7, energy_Wh: 44),
  (cut_id: 69, mch_id: 1, mode_id: 5, feed_rate: 15.0000, blade_speed: 23.5500, time: 7, energy_Wh: 23),
  (cut_id: 69, mch_id: 2, mode_id: 5, feed_rate: 15.0000, blade_speed: 23.5500, time: 7, energy_Wh: 23),
  (cut_id: 69, mch_id: 3, mode_id: 5, feed_rate: 15.0000, blade_speed: 23.5500, time: 7, energy_Wh: 23),
  (cut_id: 69, mch_id: 1, mode_id: 6, feed_rate: 22.5000, blade_speed: 7.8500, time: 5, energy_Wh: 53),
  (cut_id: 69, mch_id: 2, mode_id: 6, feed_rate: 22.5000, blade_speed: 7.8500, time: 5, energy_Wh: 53),
  (cut_id: 69, mch_id: 3, mode_id: 6, feed_rate: 22.5000, blade_speed: 7.8500, time: 5, energy_Wh: 53),
  (cut_id: 69, mch_id: 1, mode_id: 7, feed_rate: 22.5000, blade_speed: 11.7800, time: 5, energy_Wh: 26),
  (cut_id: 69, mch_id: 2, mode_id: 7, feed_rate: 22.5000, blade_speed: 11.7800, time: 5, energy_Wh: 26),
  (cut_id: 69, mch_id: 3, mode_id: 7, feed_rate: 22.5000, blade_speed: 11.7800, time: 5, energy_Wh: 26),
  (cut_id: 69, mch_id: 1, mode_id: 8, feed_rate: 22.5000, blade_speed: 15.7000, time: 5, energy_Wh: 29),
  (cut_id: 69, mch_id: 2, mode_id: 8, feed_rate: 22.5000, blade_speed: 15.7000, time: 5, energy_Wh: 29),
  (cut_id: 69, mch_id: 3, mode_id: 8, feed_rate: 22.5000, blade_speed: 15.7000, time: 5, energy_Wh: 29),
  (cut_id: 69, mch_id: 1, mode_id: 9, feed_rate: 22.5000, blade_speed: 19.6300, time: 5, energy_Wh: 47),
  (cut_id: 69, mch_id: 2, mode_id: 9, feed_rate: 22.5000, blade_speed: 19.6300, time: 5, energy_Wh: 47),
  (cut_id: 69, mch_id: 3, mode_id: 9, feed_rate: 22.5000, blade_speed: 19.6300, time: 5, energy_Wh: 47),
  (cut_id: 69, mch_id: 1, mode_id: 10, feed_rate: 22.5000, blade_speed: 23.5500, time: 5, energy_Wh: 22),
  (cut_id: 69, mch_id: 2, mode_id: 10, feed_rate: 22.5000, blade_speed: 23.5500, time: 5, energy_Wh: 22),
  (cut_id: 69, mch_id: 3, mode_id: 10, feed_rate: 22.5000, blade_speed: 23.5500, time: 5, energy_Wh: 22),
  (cut_id: 69, mch_id: 1, mode_id: 11, feed_rate: 30.0000, blade_speed: 7.8500, time: 4, energy_Wh: 50),
  (cut_id: 69, mch_id: 2, mode_id: 11, feed_rate: 30.0000, blade_speed: 7.8500, time: 4, energy_Wh: 50),
  (cut_id: 69, mch_id: 3, mode_id: 11, feed_rate: 30.0000, blade_speed: 7.8500, time: 4, energy_Wh: 50),
  (cut_id: 69, mch_id: 1, mode_id: 12, feed_rate: 30.0000, blade_speed: 11.7800, time: 4, energy_Wh: 33),
  (cut_id: 69, mch_id: 2, mode_id: 12, feed_rate: 30.0000, blade_speed: 11.7800, time: 4, energy_Wh: 33),
  (cut_id: 69, mch_id: 3, mode_id: 12, feed_rate: 30.0000, blade_speed: 11.7800, time: 4, energy_Wh: 33),
  (cut_id: 69, mch_id: 1, mode_id: 13, feed_rate: 30.0000, blade_speed: 15.7000, time: 4, energy_Wh: 44),
  (cut_id: 69, mch_id: 2, mode_id: 13, feed_rate: 30.0000, blade_speed: 15.7000, time: 4, energy_Wh: 44),
  (cut_id: 69, mch_id: 3, mode_id: 13, feed_rate: 30.0000, blade_speed: 15.7000, time: 4, energy_Wh: 44),
  (cut_id: 69, mch_id: 1, mode_id: 14, feed_rate: 30.0000, blade_speed: 19.6300, time: 4, energy_Wh: 54),
  (cut_id: 69, mch_id: 2, mode_id: 14, feed_rate: 30.0000, blade_speed: 19.6300, time: 4, energy_Wh: 54),
  (cut_id: 69, mch_id: 3, mode_id: 14, feed_rate: 30.0000, blade_speed: 19.6300, time: 4, energy_Wh: 54),
  (cut_id: 69, mch_id: 1, mode_id: 15, feed_rate: 30.0000, blade_speed: 23.5500, time: 4, energy_Wh: 29),
  (cut_id: 69, mch_id: 2, mode_id: 15, feed_rate: 30.0000, blade_speed: 23.5500, time: 4, energy_Wh: 29),
  (cut_id: 69, mch_id: 3, mode_id: 15, feed_rate: 30.0000, blade_speed: 23.5500, time: 4, energy_Wh: 29),
  (cut_id: 69, mch_id: 1, mode_id: 16, feed_rate: 37.5000, blade_speed: 7.8500, time: 3, energy_Wh: 67),
  (cut_id: 69, mch_id: 2, mode_id: 16, feed_rate: 37.5000, blade_speed: 7.8500, time: 3, energy_Wh: 67),
  (cut_id: 69, mch_id: 3, mode_id: 16, feed_rate: 37.5000, blade_speed: 7.8500, time: 3, energy_Wh: 67),
  (cut_id: 69, mch_id: 1, mode_id: 17, feed_rate: 37.5000, blade_speed: 11.7800, time: 3, energy_Wh: 39),
  (cut_id: 69, mch_id: 2, mode_id: 17, feed_rate: 37.5000, blade_speed: 11.7800, time: 3, energy_Wh: 39),
  (cut_id: 69, mch_id: 3, mode_id: 17, feed_rate: 37.5000, blade_speed: 11.7800, time: 3, energy_Wh: 39),
  (cut_id: 69, mch_id: 1, mode_id: 18, feed_rate: 37.5000, blade_speed: 15.7000, time: 3, energy_Wh: 38),
  (cut_id: 69, mch_id: 2, mode_id: 18, feed_rate: 37.5000, blade_speed: 15.7000, time: 3, energy_Wh: 38),
  (cut_id: 69, mch_id: 3, mode_id: 18, feed_rate: 37.5000, blade_speed: 15.7000, time: 3, energy_Wh: 38),
  (cut_id: 69, mch_id: 1, mode_id: 19, feed_rate: 37.5000, blade_speed: 19.6300, time: 3, energy_Wh: 60),
  (cut_id: 69, mch_id: 2, mode_id: 19, feed_rate: 37.5000, blade_speed: 19.6300, time: 3, energy_Wh: 60),
  (cut_id: 69, mch_id: 3, mode_id: 19, feed_rate: 37.5000, blade_speed: 19.6300, time: 3, energy_Wh: 60),
  (cut_id: 69, mch_id: 1, mode_id: 20, feed_rate: 37.5000, blade_speed: 23.5500, time: 3, energy_Wh: 31),
  (cut_id: 69, mch_id: 2, mode_id: 20, feed_rate: 37.5000, blade_speed: 23.5500, time: 3, energy_Wh: 31),
  (cut_id: 69, mch_id: 3, mode_id: 20, feed_rate: 37.5000, blade_speed: 23.5500, time: 3, energy_Wh: 31),
  (cut_id: 69, mch_id: 1, mode_id: 21, feed_rate: 45.0000, blade_speed: 7.8500, time: 3, energy_Wh: 77),
  (cut_id: 69, mch_id: 2, mode_id: 21, feed_rate: 45.0000, blade_speed: 7.8500, time: 3, energy_Wh: 77),
  (cut_id: 69, mch_id: 3, mode_id: 21, feed_rate: 45.0000, blade_speed: 7.8500, time: 3, energy_Wh: 77),
  (cut_id: 69, mch_id: 1, mode_id: 22, feed_rate: 45.0000, blade_speed: 11.7800, time: 3, energy_Wh: 34),
  (cut_id: 69, mch_id: 2, mode_id: 22, feed_rate: 45.0000, blade_speed: 11.7800, time: 3, energy_Wh: 34),
  (cut_id: 69, mch_id: 3, mode_id: 22, feed_rate: 45.0000, blade_speed: 11.7800, time: 3, energy_Wh: 34),
  (cut_id: 69, mch_id: 1, mode_id: 23, feed_rate: 45.0000, blade_speed: 15.7000, time: 3, energy_Wh: 60),
  (cut_id: 69, mch_id: 2, mode_id: 23, feed_rate: 45.0000, blade_speed: 15.7000, time: 3, energy_Wh: 60),
  (cut_id: 69, mch_id: 3, mode_id: 23, feed_rate: 45.0000, blade_speed: 15.7000, time: 3, energy_Wh: 60),
  (cut_id: 69, mch_id: 1, mode_id: 24, feed_rate: 45.0000, blade_speed: 19.6300, time: 3, energy_Wh: 63),
  (cut_id: 69, mch_id: 2, mode_id: 24, feed_rate: 45.0000, blade_speed: 19.6300, time: 3, energy_Wh: 63),
  (cut_id: 69, mch_id: 3, mode_id: 24, feed_rate: 45.0000, blade_speed: 19.6300, time: 3, energy_Wh: 63),
  (cut_id: 69, mch_id: 1, mode_id: 25, feed_rate: 45.0000, blade_speed: 23.5500, time: 3, energy_Wh: 37),
  (cut_id: 69, mch_id: 2, mode_id: 25, feed_rate: 45.0000, blade_speed: 23.5500, time: 3, energy_Wh: 37),
  (cut_id: 69, mch_id: 3, mode_id: 25, feed_rate: 45.0000, blade_speed: 23.5500, time: 3, energy_Wh: 37),
  (cut_id: 70, mch_id: 1, mode_id: 1, feed_rate: 17.5000, blade_speed: 10.0000, time: 8, energy_Wh: 36),
  (cut_id: 70, mch_id: 2, mode_id: 1, feed_rate: 17.5000, blade_speed: 10.0000, time: 8, energy_Wh: 36),
  (cut_id: 70, mch_id: 3, mode_id: 1, feed_rate: 17.5000, blade_speed: 10.0000, time: 8, energy_Wh: 36),
  (cut_id: 70, mch_id: 1, mode_id: 2, feed_rate: 17.5000, blade_speed: 15.0000, time: 8, energy_Wh: 71),
  (cut_id: 70, mch_id: 2, mode_id: 2, feed_rate: 17.5000, blade_speed: 15.0000, time: 8, energy_Wh: 71),
  (cut_id: 70, mch_id: 3, mode_id: 2, feed_rate: 17.5000, blade_speed: 15.0000, time: 8, energy_Wh: 71),
  (cut_id: 70, mch_id: 1, mode_id: 3, feed_rate: 17.5000, blade_speed: 20.0000, time: 8, energy_Wh: 56),
  (cut_id: 70, mch_id: 2, mode_id: 3, feed_rate: 17.5000, blade_speed: 20.0000, time: 8, energy_Wh: 56),
  (cut_id: 70, mch_id: 3, mode_id: 3, feed_rate: 17.5000, blade_speed: 20.0000, time: 8, energy_Wh: 56),
  (cut_id: 70, mch_id: 1, mode_id: 4, feed_rate: 17.5000, blade_speed: 25.0000, time: 8, energy_Wh: 53),
  (cut_id: 70, mch_id: 2, mode_id: 4, feed_rate: 17.5000, blade_speed: 25.0000, time: 8, energy_Wh: 53),
  (cut_id: 70, mch_id: 3, mode_id: 4, feed_rate: 17.5000, blade_speed: 25.0000, time: 8, energy_Wh: 53),
  (cut_id: 70, mch_id: 1, mode_id: 5, feed_rate: 17.5000, blade_speed: 30.0000, time: 8, energy_Wh: 29),
  (cut_id: 70, mch_id: 2, mode_id: 5, feed_rate: 17.5000, blade_speed: 30.0000, time: 8, energy_Wh: 29),
  (cut_id: 70, mch_id: 3, mode_id: 5, feed_rate: 17.5000, blade_speed: 30.0000, time: 8, energy_Wh: 29),
  (cut_id: 70, mch_id: 1, mode_id: 6, feed_rate: 26.2500, blade_speed: 10.0000, time: 6, energy_Wh: 48),
  (cut_id: 70, mch_id: 2, mode_id: 6, feed_rate: 26.2500, blade_speed: 10.0000, time: 6, energy_Wh: 48),
  (cut_id: 70, mch_id: 3, mode_id: 6, feed_rate: 26.2500, blade_speed: 10.0000, time: 6, energy_Wh: 48),
  (cut_id: 70, mch_id: 1, mode_id: 7, feed_rate: 26.2500, blade_speed: 15.0000, time: 6, energy_Wh: 58),
  (cut_id: 70, mch_id: 2, mode_id: 7, feed_rate: 26.2500, blade_speed: 15.0000, time: 6, energy_Wh: 58),
  (cut_id: 70, mch_id: 3, mode_id: 7, feed_rate: 26.2500, blade_speed: 15.0000, time: 6, energy_Wh: 58),
  (cut_id: 70, mch_id: 1, mode_id: 8, feed_rate: 26.2500, blade_speed: 20.0000, time: 6, energy_Wh: 77),
  (cut_id: 70, mch_id: 2, mode_id: 8, feed_rate: 26.2500, blade_speed: 20.0000, time: 6, energy_Wh: 77),
  (cut_id: 70, mch_id: 3, mode_id: 8, feed_rate: 26.2500, blade_speed: 20.0000, time: 6, energy_Wh: 77),
  (cut_id: 70, mch_id: 1, mode_id: 9, feed_rate: 26.2500, blade_speed: 25.0000, time: 6, energy_Wh: 52),
  (cut_id: 70, mch_id: 2, mode_id: 9, feed_rate: 26.2500, blade_speed: 25.0000, time: 6, energy_Wh: 52),
  (cut_id: 70, mch_id: 3, mode_id: 9, feed_rate: 26.2500, blade_speed: 25.0000, time: 6, energy_Wh: 52),
  (cut_id: 70, mch_id: 1, mode_id: 10, feed_rate: 26.2500, blade_speed: 30.0000, time: 6, energy_Wh: 47),
  (cut_id: 70, mch_id: 2, mode_id: 10, feed_rate: 26.2500, blade_speed: 30.0000, time: 6, energy_Wh: 47),
  (cut_id: 70, mch_id: 3, mode_id: 10, feed_rate: 26.2500, blade_speed: 30.0000, time: 6, energy_Wh: 47),
  (cut_id: 70, mch_id: 1, mode_id: 11, feed_rate: 35.0000, blade_speed: 10.0000, time: 4, energy_Wh: 47),
  (cut_id: 70, mch_id: 2, mode_id: 11, feed_rate: 35.0000, blade_speed: 10.0000, time: 4, energy_Wh: 47),
  (cut_id: 70, mch_id: 3, mode_id: 11, feed_rate: 35.0000, blade_speed: 10.0000, time: 4, energy_Wh: 47),
  (cut_id: 70, mch_id: 1, mode_id: 12, feed_rate: 35.0000, blade_speed: 15.0000, time: 4, energy_Wh: 88),
  (cut_id: 70, mch_id: 2, mode_id: 12, feed_rate: 35.0000, blade_speed: 15.0000, time: 4, energy_Wh: 88),
  (cut_id: 70, mch_id: 3, mode_id: 12, feed_rate: 35.0000, blade_speed: 15.0000, time: 4, energy_Wh: 88),
  (cut_id: 70, mch_id: 1, mode_id: 13, feed_rate: 35.0000, blade_speed: 20.0000, time: 4, energy_Wh: 88),
  (cut_id: 70, mch_id: 2, mode_id: 13, feed_rate: 35.0000, blade_speed: 20.0000, time: 4, energy_Wh: 88),
  (cut_id: 70, mch_id: 3, mode_id: 13, feed_rate: 35.0000, blade_speed: 20.0000, time: 4, energy_Wh: 88),
  (cut_id: 70, mch_id: 1, mode_id: 14, feed_rate: 35.0000, blade_speed: 25.0000, time: 4, energy_Wh: 58),
  (cut_id: 70, mch_id: 2, mode_id: 14, feed_rate: 35.0000, blade_speed: 25.0000, time: 4, energy_Wh: 58),
  (cut_id: 70, mch_id: 3, mode_id: 14, feed_rate: 35.0000, blade_speed: 25.0000, time: 4, energy_Wh: 58),
  (cut_id: 70, mch_id: 1, mode_id: 15, feed_rate: 35.0000, blade_speed: 30.0000, time: 4, energy_Wh: 49),
  (cut_id: 70, mch_id: 2, mode_id: 15, feed_rate: 35.0000, blade_speed: 30.0000, time: 4, energy_Wh: 49),
  (cut_id: 70, mch_id: 3, mode_id: 15, feed_rate: 35.0000, blade_speed: 30.0000, time: 4, energy_Wh: 49),
  (cut_id: 70, mch_id: 1, mode_id: 16, feed_rate: 43.7500, blade_speed: 10.0000, time: 4, energy_Wh: 57),
  (cut_id: 70, mch_id: 2, mode_id: 16, feed_rate: 43.7500, blade_speed: 10.0000, time: 4, energy_Wh: 57),
  (cut_id: 70, mch_id: 3, mode_id: 16, feed_rate: 43.7500, blade_speed: 10.0000, time: 4, energy_Wh: 57),
  (cut_id: 70, mch_id: 1, mode_id: 17, feed_rate: 43.7500, blade_speed: 15.0000, time: 4, energy_Wh: 79),
  (cut_id: 70, mch_id: 2, mode_id: 17, feed_rate: 43.7500, blade_speed: 15.0000, time: 4, energy_Wh: 79),
  (cut_id: 70, mch_id: 3, mode_id: 17, feed_rate: 43.7500, blade_speed: 15.0000, time: 4, energy_Wh: 79),
  (cut_id: 70, mch_id: 1, mode_id: 18, feed_rate: 43.7500, blade_speed: 20.0000, time: 4, energy_Wh: 97),
  (cut_id: 70, mch_id: 2, mode_id: 18, feed_rate: 43.7500, blade_speed: 20.0000, time: 4, energy_Wh: 97),
  (cut_id: 70, mch_id: 3, mode_id: 18, feed_rate: 43.7500, blade_speed: 20.0000, time: 4, energy_Wh: 97),
  (cut_id: 70, mch_id: 1, mode_id: 19, feed_rate: 43.7500, blade_speed: 25.0000, time: 4, energy_Wh: 75),
  (cut_id: 70, mch_id: 2, mode_id: 19, feed_rate: 43.7500, blade_speed: 25.0000, time: 4, energy_Wh: 75),
  (cut_id: 70, mch_id: 3, mode_id: 19, feed_rate: 43.7500, blade_speed: 25.0000, time: 4, energy_Wh: 75),
  (cut_id: 70, mch_id: 1, mode_id: 20, feed_rate: 43.7500, blade_speed: 30.0000, time: 4, energy_Wh: 47),
  (cut_id: 70, mch_id: 2, mode_id: 20, feed_rate: 43.7500, blade_speed: 30.0000, time: 4, energy_Wh: 47),
  (cut_id: 70, mch_id: 3, mode_id: 20, feed_rate: 43.7500, blade_speed: 30.0000, time: 4, energy_Wh: 47),
  (cut_id: 70, mch_id: 1, mode_id: 21, feed_rate: 52.5000, blade_speed: 10.0000, time: 3, energy_Wh: 71),
  (cut_id: 70, mch_id: 2, mode_id: 21, feed_rate: 52.5000, blade_speed: 10.0000, time: 3, energy_Wh: 71),
  (cut_id: 70, mch_id: 3, mode_id: 21, feed_rate: 52.5000, blade_speed: 10.0000, time: 3, energy_Wh: 71),
  (cut_id: 70, mch_id: 1, mode_id: 22, feed_rate: 52.5000, blade_speed: 15.0000, time: 3, energy_Wh: 80),
  (cut_id: 70, mch_id: 2, mode_id: 22, feed_rate: 52.5000, blade_speed: 15.0000, time: 3, energy_Wh: 80),
  (cut_id: 70, mch_id: 3, mode_id: 22, feed_rate: 52.5000, blade_speed: 15.0000, time: 3, energy_Wh: 80),
  (cut_id: 70, mch_id: 1, mode_id: 23, feed_rate: 52.5000, blade_speed: 20.0000, time: 3, energy_Wh: 114),
  (cut_id: 70, mch_id: 2, mode_id: 23, feed_rate: 52.5000, blade_speed: 20.0000, time: 3, energy_Wh: 114),
  (cut_id: 70, mch_id: 3, mode_id: 23, feed_rate: 52.5000, blade_speed: 20.0000, time: 3, energy_Wh: 114),
  (cut_id: 70, mch_id: 1, mode_id: 24, feed_rate: 52.5000, blade_speed: 25.0000, time: 3, energy_Wh: 89),
  (cut_id: 70, mch_id: 2, mode_id: 24, feed_rate: 52.5000, blade_speed: 25.0000, time: 3, energy_Wh: 89),
  (cut_id: 70, mch_id: 3, mode_id: 24, feed_rate: 52.5000, blade_speed: 25.0000, time: 3, energy_Wh: 89),
  (cut_id: 70, mch_id: 1, mode_id: 25, feed_rate: 52.5000, blade_speed: 30.0000, time: 3, energy_Wh: 66),
  (cut_id: 70, mch_id: 2, mode_id: 25, feed_rate: 52.5000, blade_speed: 30.0000, time: 3, energy_Wh: 66),
  (cut_id: 70, mch_id: 3, mode_id: 25, feed_rate: 52.5000, blade_speed: 30.0000, time: 3, energy_Wh: 66),
  (cut_id: 71, mch_id: 2, mode_id: 1, feed_rate: 35.0000, blade_speed: 60.0000, time: 27, energy_Wh: 86),
  (cut_id: 71, mch_id: 1, mode_id: 1, feed_rate: 35.0000, blade_speed: 60.0000, time: 27, energy_Wh: 86),
  (cut_id: 71, mch_id: 3, mode_id: 1, feed_rate: 35.0000, blade_speed: 60.0000, time: 27, energy_Wh: 86),
  (cut_id: 71, mch_id: 2, mode_id: 2, feed_rate: 35.0000, blade_speed: 90.0000, time: 27, energy_Wh: 117),
  (cut_id: 71, mch_id: 1, mode_id: 2, feed_rate: 35.0000, blade_speed: 90.0000, time: 27, energy_Wh: 117),
  (cut_id: 71, mch_id: 3, mode_id: 2, feed_rate: 35.0000, blade_speed: 90.0000, time: 27, energy_Wh: 117),
  (cut_id: 71, mch_id: 2, mode_id: 3, feed_rate: 35.0000, blade_speed: 120.0000, time: 27, energy_Wh: 137),
  (cut_id: 71, mch_id: 1, mode_id: 3, feed_rate: 35.0000, blade_speed: 120.0000, time: 27, energy_Wh: 137),
  (cut_id: 71, mch_id: 3, mode_id: 3, feed_rate: 35.0000, blade_speed: 120.0000, time: 27, energy_Wh: 137),
  (cut_id: 71, mch_id: 2, mode_id: 4, feed_rate: 35.0000, blade_speed: 150.0000, time: 27, energy_Wh: 103),
  (cut_id: 71, mch_id: 1, mode_id: 4, feed_rate: 35.0000, blade_speed: 150.0000, time: 27, energy_Wh: 103),
  (cut_id: 71, mch_id: 3, mode_id: 4, feed_rate: 35.0000, blade_speed: 150.0000, time: 27, energy_Wh: 103),
  (cut_id: 71, mch_id: 2, mode_id: 5, feed_rate: 35.0000, blade_speed: 180.0000, time: 27, energy_Wh: 90),
  (cut_id: 71, mch_id: 1, mode_id: 5, feed_rate: 35.0000, blade_speed: 180.0000, time: 27, energy_Wh: 90),
  (cut_id: 71, mch_id: 3, mode_id: 5, feed_rate: 35.0000, blade_speed: 180.0000, time: 27, energy_Wh: 90),
  (cut_id: 71, mch_id: 2, mode_id: 6, feed_rate: 52.5000, blade_speed: 60.0000, time: 18, energy_Wh: 123),
  (cut_id: 71, mch_id: 1, mode_id: 6, feed_rate: 52.5000, blade_speed: 60.0000, time: 18, energy_Wh: 123),
  (cut_id: 71, mch_id: 3, mode_id: 6, feed_rate: 52.5000, blade_speed: 60.0000, time: 18, energy_Wh: 123),
  (cut_id: 71, mch_id: 2, mode_id: 7, feed_rate: 52.5000, blade_speed: 90.0000, time: 18, energy_Wh: 195),
  (cut_id: 71, mch_id: 1, mode_id: 7, feed_rate: 52.5000, blade_speed: 90.0000, time: 18, energy_Wh: 195),
  (cut_id: 71, mch_id: 3, mode_id: 7, feed_rate: 52.5000, blade_speed: 90.0000, time: 18, energy_Wh: 195),
  (cut_id: 71, mch_id: 2, mode_id: 8, feed_rate: 52.5000, blade_speed: 120.0000, time: 18, energy_Wh: 135),
  (cut_id: 71, mch_id: 1, mode_id: 8, feed_rate: 52.5000, blade_speed: 120.0000, time: 18, energy_Wh: 135),
  (cut_id: 71, mch_id: 3, mode_id: 8, feed_rate: 52.5000, blade_speed: 120.0000, time: 18, energy_Wh: 135),
  (cut_id: 71, mch_id: 2, mode_id: 9, feed_rate: 52.5000, blade_speed: 150.0000, time: 18, energy_Wh: 121),
  (cut_id: 71, mch_id: 1, mode_id: 9, feed_rate: 52.5000, blade_speed: 150.0000, time: 18, energy_Wh: 121),
  (cut_id: 71, mch_id: 3, mode_id: 9, feed_rate: 52.5000, blade_speed: 150.0000, time: 18, energy_Wh: 121),
  (cut_id: 71, mch_id: 2, mode_id: 10, feed_rate: 52.5000, blade_speed: 180.0000, time: 18, energy_Wh: 83),
  (cut_id: 71, mch_id: 1, mode_id: 10, feed_rate: 52.5000, blade_speed: 180.0000, time: 18, energy_Wh: 83),
  (cut_id: 71, mch_id: 3, mode_id: 10, feed_rate: 52.5000, blade_speed: 180.0000, time: 18, energy_Wh: 83),
  (cut_id: 71, mch_id: 2, mode_id: 11, feed_rate: 70.0000, blade_speed: 60.0000, time: 14, energy_Wh: 158),
  (cut_id: 71, mch_id: 1, mode_id: 11, feed_rate: 70.0000, blade_speed: 60.0000, time: 14, energy_Wh: 158),
  (cut_id: 71, mch_id: 3, mode_id: 11, feed_rate: 70.0000, blade_speed: 60.0000, time: 14, energy_Wh: 158),
  (cut_id: 71, mch_id: 2, mode_id: 12, feed_rate: 70.0000, blade_speed: 90.0000, time: 14, energy_Wh: 176),
  (cut_id: 71, mch_id: 1, mode_id: 12, feed_rate: 70.0000, blade_speed: 90.0000, time: 14, energy_Wh: 176),
  (cut_id: 71, mch_id: 3, mode_id: 12, feed_rate: 70.0000, blade_speed: 90.0000, time: 14, energy_Wh: 176),
  (cut_id: 71, mch_id: 2, mode_id: 13, feed_rate: 70.0000, blade_speed: 120.0000, time: 14, energy_Wh: 200),
  (cut_id: 71, mch_id: 1, mode_id: 13, feed_rate: 70.0000, blade_speed: 120.0000, time: 14, energy_Wh: 200),
  (cut_id: 71, mch_id: 3, mode_id: 13, feed_rate: 70.0000, blade_speed: 120.0000, time: 14, energy_Wh: 200),
  (cut_id: 71, mch_id: 2, mode_id: 14, feed_rate: 70.0000, blade_speed: 150.0000, time: 14, energy_Wh: 116),
  (cut_id: 71, mch_id: 1, mode_id: 14, feed_rate: 70.0000, blade_speed: 150.0000, time: 14, energy_Wh: 116),
  (cut_id: 71, mch_id: 3, mode_id: 14, feed_rate: 70.0000, blade_speed: 150.0000, time: 14, energy_Wh: 116),
  (cut_id: 71, mch_id: 2, mode_id: 15, feed_rate: 70.0000, blade_speed: 180.0000, time: 14, energy_Wh: 138),
  (cut_id: 71, mch_id: 1, mode_id: 15, feed_rate: 70.0000, blade_speed: 180.0000, time: 14, energy_Wh: 138),
  (cut_id: 71, mch_id: 3, mode_id: 15, feed_rate: 70.0000, blade_speed: 180.0000, time: 14, energy_Wh: 138),
  (cut_id: 71, mch_id: 2, mode_id: 16, feed_rate: 87.5000, blade_speed: 60.0000, time: 11, energy_Wh: 169),
  (cut_id: 71, mch_id: 1, mode_id: 16, feed_rate: 87.5000, blade_speed: 60.0000, time: 11, energy_Wh: 169),
  (cut_id: 71, mch_id: 3, mode_id: 16, feed_rate: 87.5000, blade_speed: 60.0000, time: 11, energy_Wh: 169),
  (cut_id: 71, mch_id: 2, mode_id: 17, feed_rate: 87.5000, blade_speed: 90.0000, time: 11, energy_Wh: 258),
  (cut_id: 71, mch_id: 1, mode_id: 17, feed_rate: 87.5000, blade_speed: 90.0000, time: 11, energy_Wh: 258),
  (cut_id: 71, mch_id: 3, mode_id: 17, feed_rate: 87.5000, blade_speed: 90.0000, time: 11, energy_Wh: 258),
  (cut_id: 71, mch_id: 2, mode_id: 18, feed_rate: 87.5000, blade_speed: 120.0000, time: 11, energy_Wh: 185),
  (cut_id: 71, mch_id: 1, mode_id: 18, feed_rate: 87.5000, blade_speed: 120.0000, time: 11, energy_Wh: 185),
  (cut_id: 71, mch_id: 3, mode_id: 18, feed_rate: 87.5000, blade_speed: 120.0000, time: 11, energy_Wh: 185),
  (cut_id: 71, mch_id: 2, mode_id: 19, feed_rate: 87.5000, blade_speed: 150.0000, time: 11, energy_Wh: 166),
  (cut_id: 71, mch_id: 1, mode_id: 19, feed_rate: 87.5000, blade_speed: 150.0000, time: 11, energy_Wh: 166),
  (cut_id: 71, mch_id: 3, mode_id: 19, feed_rate: 87.5000, blade_speed: 150.0000, time: 11, energy_Wh: 166),
  (cut_id: 71, mch_id: 2, mode_id: 20, feed_rate: 87.5000, blade_speed: 180.0000, time: 11, energy_Wh: 127),
  (cut_id: 71, mch_id: 1, mode_id: 20, feed_rate: 87.5000, blade_speed: 180.0000, time: 11, energy_Wh: 127),
  (cut_id: 71, mch_id: 3, mode_id: 20, feed_rate: 87.5000, blade_speed: 180.0000, time: 11, energy_Wh: 127),
  (cut_id: 71, mch_id: 2, mode_id: 21, feed_rate: 105.0000, blade_speed: 60.0000, time: 9, energy_Wh: 220),
  (cut_id: 71, mch_id: 1, mode_id: 21, feed_rate: 105.0000, blade_speed: 60.0000, time: 9, energy_Wh: 220),
  (cut_id: 71, mch_id: 3, mode_id: 21, feed_rate: 105.0000, blade_speed: 60.0000, time: 9, energy_Wh: 220),
  (cut_id: 71, mch_id: 2, mode_id: 22, feed_rate: 105.0000, blade_speed: 90.0000, time: 9, energy_Wh: 249),
  (cut_id: 71, mch_id: 1, mode_id: 22, feed_rate: 105.0000, blade_speed: 90.0000, time: 9, energy_Wh: 249),
  (cut_id: 71, mch_id: 3, mode_id: 22, feed_rate: 105.0000, blade_speed: 90.0000, time: 9, energy_Wh: 249),
  (cut_id: 71, mch_id: 2, mode_id: 23, feed_rate: 105.0000, blade_speed: 120.0000, time: 9, energy_Wh: 213),
  (cut_id: 71, mch_id: 1, mode_id: 23, feed_rate: 105.0000, blade_speed: 120.0000, time: 9, energy_Wh: 213),
  (cut_id: 71, mch_id: 3, mode_id: 23, feed_rate: 105.0000, blade_speed: 120.0000, time: 9, energy_Wh: 213),
  (cut_id: 71, mch_id: 2, mode_id: 24, feed_rate: 105.0000, blade_speed: 150.0000, time: 9, energy_Wh: 147),
  (cut_id: 71, mch_id: 1, mode_id: 24, feed_rate: 105.0000, blade_speed: 150.0000, time: 9, energy_Wh: 147),
  (cut_id: 71, mch_id: 3, mode_id: 24, feed_rate: 105.0000, blade_speed: 150.0000, time: 9, energy_Wh: 147),
  (cut_id: 71, mch_id: 2, mode_id: 25, feed_rate: 105.0000, blade_speed: 180.0000, time: 9, energy_Wh: 164),
  (cut_id: 71, mch_id: 1, mode_id: 25, feed_rate: 105.0000, blade_speed: 180.0000, time: 9, energy_Wh: 164),
  (cut_id: 71, mch_id: 3, mode_id: 25, feed_rate: 105.0000, blade_speed: 180.0000, time: 9, energy_Wh: 164),
  (cut_id: 72, mch_id: 1, mode_id: 1, feed_rate: 31.9200, blade_speed: 15.6600, time: 4, energy_Wh: 36),
  (cut_id: 72, mch_id: 2, mode_id: 1, feed_rate: 31.9200, blade_speed: 15.6600, time: 4, energy_Wh: 36),
  (cut_id: 72, mch_id: 3, mode_id: 1, feed_rate: 31.9200, blade_speed: 15.6600, time: 4, energy_Wh: 36),
  (cut_id: 72, mch_id: 1, mode_id: 2, feed_rate: 31.9200, blade_speed: 23.4900, time: 4, energy_Wh: 35),
  (cut_id: 72, mch_id: 2, mode_id: 2, feed_rate: 31.9200, blade_speed: 23.4900, time: 4, energy_Wh: 35),
  (cut_id: 72, mch_id: 3, mode_id: 2, feed_rate: 31.9200, blade_speed: 23.4900, time: 4, energy_Wh: 35),
  (cut_id: 72, mch_id: 1, mode_id: 3, feed_rate: 31.9200, blade_speed: 31.3200, time: 4, energy_Wh: 40),
  (cut_id: 72, mch_id: 2, mode_id: 3, feed_rate: 31.9200, blade_speed: 31.3200, time: 4, energy_Wh: 40),
  (cut_id: 72, mch_id: 3, mode_id: 3, feed_rate: 31.9200, blade_speed: 31.3200, time: 4, energy_Wh: 40),
  (cut_id: 72, mch_id: 1, mode_id: 4, feed_rate: 31.9200, blade_speed: 39.1500, time: 4, energy_Wh: 53),
  (cut_id: 72, mch_id: 2, mode_id: 4, feed_rate: 31.9200, blade_speed: 39.1500, time: 4, energy_Wh: 53),
  (cut_id: 72, mch_id: 3, mode_id: 4, feed_rate: 31.9200, blade_speed: 39.1500, time: 4, energy_Wh: 53),
  (cut_id: 72, mch_id: 1, mode_id: 5, feed_rate: 31.9200, blade_speed: 46.9800, time: 4, energy_Wh: 37),
  (cut_id: 72, mch_id: 2, mode_id: 5, feed_rate: 31.9200, blade_speed: 46.9800, time: 4, energy_Wh: 37),
  (cut_id: 72, mch_id: 3, mode_id: 5, feed_rate: 31.9200, blade_speed: 46.9800, time: 4, energy_Wh: 37),
  (cut_id: 72, mch_id: 1, mode_id: 6, feed_rate: 47.8700, blade_speed: 15.6600, time: 3, energy_Wh: 54),
  (cut_id: 72, mch_id: 2, mode_id: 6, feed_rate: 47.8700, blade_speed: 15.6600, time: 3, energy_Wh: 54),
  (cut_id: 72, mch_id: 3, mode_id: 6, feed_rate: 47.8700, blade_speed: 15.6600, time: 3, energy_Wh: 54),
  (cut_id: 72, mch_id: 1, mode_id: 7, feed_rate: 47.8700, blade_speed: 23.4900, time: 3, energy_Wh: 42),
  (cut_id: 72, mch_id: 2, mode_id: 7, feed_rate: 47.8700, blade_speed: 23.4900, time: 3, energy_Wh: 42),
  (cut_id: 72, mch_id: 3, mode_id: 7, feed_rate: 47.8700, blade_speed: 23.4900, time: 3, energy_Wh: 42),
  (cut_id: 72, mch_id: 1, mode_id: 8, feed_rate: 47.8700, blade_speed: 31.3200, time: 3, energy_Wh: 52),
  (cut_id: 72, mch_id: 2, mode_id: 8, feed_rate: 47.8700, blade_speed: 31.3200, time: 3, energy_Wh: 52),
  (cut_id: 72, mch_id: 3, mode_id: 8, feed_rate: 47.8700, blade_speed: 31.3200, time: 3, energy_Wh: 52),
  (cut_id: 72, mch_id: 1, mode_id: 9, feed_rate: 47.8700, blade_speed: 39.1500, time: 3, energy_Wh: 87),
  (cut_id: 72, mch_id: 2, mode_id: 9, feed_rate: 47.8700, blade_speed: 39.1500, time: 3, energy_Wh: 87),
  (cut_id: 72, mch_id: 3, mode_id: 9, feed_rate: 47.8700, blade_speed: 39.1500, time: 3, energy_Wh: 87),
  (cut_id: 72, mch_id: 1, mode_id: 10, feed_rate: 47.8700, blade_speed: 46.9800, time: 3, energy_Wh: 68),
  (cut_id: 72, mch_id: 2, mode_id: 10, feed_rate: 47.8700, blade_speed: 46.9800, time: 3, energy_Wh: 68),
  (cut_id: 72, mch_id: 3, mode_id: 10, feed_rate: 47.8700, blade_speed: 46.9800, time: 3, energy_Wh: 68),
  (cut_id: 72, mch_id: 1, mode_id: 11, feed_rate: 63.8300, blade_speed: 15.6600, time: 2, energy_Wh: 86),
  (cut_id: 72, mch_id: 2, mode_id: 11, feed_rate: 63.8300, blade_speed: 15.6600, time: 2, energy_Wh: 86),
  (cut_id: 72, mch_id: 3, mode_id: 11, feed_rate: 63.8300, blade_speed: 15.6600, time: 2, energy_Wh: 86),
  (cut_id: 72, mch_id: 1, mode_id: 12, feed_rate: 63.8300, blade_speed: 23.4900, time: 2, energy_Wh: 57),
  (cut_id: 72, mch_id: 2, mode_id: 12, feed_rate: 63.8300, blade_speed: 23.4900, time: 2, energy_Wh: 57),
  (cut_id: 72, mch_id: 3, mode_id: 12, feed_rate: 63.8300, blade_speed: 23.4900, time: 2, energy_Wh: 57),
  (cut_id: 72, mch_id: 1, mode_id: 13, feed_rate: 63.8300, blade_speed: 31.3200, time: 2, energy_Wh: 80),
  (cut_id: 72, mch_id: 2, mode_id: 13, feed_rate: 63.8300, blade_speed: 31.3200, time: 2, energy_Wh: 80),
  (cut_id: 72, mch_id: 3, mode_id: 13, feed_rate: 63.8300, blade_speed: 31.3200, time: 2, energy_Wh: 80),
  (cut_id: 72, mch_id: 1, mode_id: 14, feed_rate: 63.8300, blade_speed: 39.1500, time: 2, energy_Wh: 99),
  (cut_id: 72, mch_id: 2, mode_id: 14, feed_rate: 63.8300, blade_speed: 39.1500, time: 2, energy_Wh: 99),
  (cut_id: 72, mch_id: 3, mode_id: 14, feed_rate: 63.8300, blade_speed: 39.1500, time: 2, energy_Wh: 99),
  (cut_id: 72, mch_id: 1, mode_id: 15, feed_rate: 63.8300, blade_speed: 46.9800, time: 2, energy_Wh: 66),
  (cut_id: 72, mch_id: 2, mode_id: 15, feed_rate: 63.8300, blade_speed: 46.9800, time: 2, energy_Wh: 66),
  (cut_id: 72, mch_id: 3, mode_id: 15, feed_rate: 63.8300, blade_speed: 46.9800, time: 2, energy_Wh: 66),
  (cut_id: 72, mch_id: 1, mode_id: 16, feed_rate: 79.7900, blade_speed: 15.6600, time: 2, energy_Wh: 102),
  (cut_id: 72, mch_id: 2, mode_id: 16, feed_rate: 79.7900, blade_speed: 15.6600, time: 2, energy_Wh: 102),
  (cut_id: 72, mch_id: 3, mode_id: 16, feed_rate: 79.7900, blade_speed: 15.6600, time: 2, energy_Wh: 102),
  (cut_id: 72, mch_id: 1, mode_id: 17, feed_rate: 79.7900, blade_speed: 23.4900, time: 2, energy_Wh: 63),
  (cut_id: 72, mch_id: 2, mode_id: 17, feed_rate: 79.7900, blade_speed: 23.4900, time: 2, energy_Wh: 63),
  (cut_id: 72, mch_id: 3, mode_id: 17, feed_rate: 79.7900, blade_speed: 23.4900, time: 2, energy_Wh: 63),
  (cut_id: 72, mch_id: 1, mode_id: 18, feed_rate: 79.7900, blade_speed: 31.3200, time: 2, energy_Wh: 108),
  (cut_id: 72, mch_id: 2, mode_id: 18, feed_rate: 79.7900, blade_speed: 31.3200, time: 2, energy_Wh: 108),
  (cut_id: 72, mch_id: 3, mode_id: 18, feed_rate: 79.7900, blade_speed: 31.3200, time: 2, energy_Wh: 108),
  (cut_id: 72, mch_id: 1, mode_id: 19, feed_rate: 79.7900, blade_speed: 39.1500, time: 2, energy_Wh: 142),
  (cut_id: 72, mch_id: 2, mode_id: 19, feed_rate: 79.7900, blade_speed: 39.1500, time: 2, energy_Wh: 142),
  (cut_id: 72, mch_id: 3, mode_id: 19, feed_rate: 79.7900, blade_speed: 39.1500, time: 2, energy_Wh: 142),
  (cut_id: 72, mch_id: 1, mode_id: 20, feed_rate: 79.7900, blade_speed: 46.9800, time: 2, energy_Wh: 87),
  (cut_id: 72, mch_id: 2, mode_id: 20, feed_rate: 79.7900, blade_speed: 46.9800, time: 2, energy_Wh: 87),
  (cut_id: 72, mch_id: 3, mode_id: 20, feed_rate: 79.7900, blade_speed: 46.9800, time: 2, energy_Wh: 87),
  (cut_id: 72, mch_id: 1, mode_id: 21, feed_rate: 95.7500, blade_speed: 15.6600, time: 2, energy_Wh: 119),
  (cut_id: 72, mch_id: 2, mode_id: 21, feed_rate: 95.7500, blade_speed: 15.6600, time: 2, energy_Wh: 119),
  (cut_id: 72, mch_id: 3, mode_id: 21, feed_rate: 95.7500, blade_speed: 15.6600, time: 2, energy_Wh: 119),
  (cut_id: 72, mch_id: 1, mode_id: 22, feed_rate: 95.7500, blade_speed: 23.4900, time: 2, energy_Wh: 98),
  (cut_id: 72, mch_id: 2, mode_id: 22, feed_rate: 95.7500, blade_speed: 23.4900, time: 2, energy_Wh: 98),
  (cut_id: 72, mch_id: 3, mode_id: 22, feed_rate: 95.7500, blade_speed: 23.4900, time: 2, energy_Wh: 98),
  (cut_id: 72, mch_id: 1, mode_id: 23, feed_rate: 95.7500, blade_speed: 31.3200, time: 2, energy_Wh: 132),
  (cut_id: 72, mch_id: 2, mode_id: 23, feed_rate: 95.7500, blade_speed: 31.3200, time: 2, energy_Wh: 132),
  (cut_id: 72, mch_id: 3, mode_id: 23, feed_rate: 95.7500, blade_speed: 31.3200, time: 2, energy_Wh: 132),
  (cut_id: 72, mch_id: 1, mode_id: 24, feed_rate: 95.7500, blade_speed: 39.1500, time: 2, energy_Wh: 194),
  (cut_id: 72, mch_id: 2, mode_id: 24, feed_rate: 95.7500, blade_speed: 39.1500, time: 2, energy_Wh: 194),
  (cut_id: 72, mch_id: 3, mode_id: 24, feed_rate: 95.7500, blade_speed: 39.1500, time: 2, energy_Wh: 194),
  (cut_id: 72, mch_id: 1, mode_id: 25, feed_rate: 95.7500, blade_speed: 46.9800, time: 2, energy_Wh: 156),
  (cut_id: 72, mch_id: 2, mode_id: 25, feed_rate: 95.7500, blade_speed: 46.9800, time: 2, energy_Wh: 156),
  (cut_id: 72, mch_id: 3, mode_id: 25, feed_rate: 95.7500, blade_speed: 46.9800, time: 2, energy_Wh: 156),
  (cut_id: 73, mch_id: 2, mode_id: 1, feed_rate: 9.7400, blade_speed: 2.7500, time: 5, energy_Wh: 29),
  (cut_id: 73, mch_id: 1, mode_id: 1, feed_rate: 9.7400, blade_speed: 2.7500, time: 5, energy_Wh: 29),
  (cut_id: 73, mch_id: 3, mode_id: 1, feed_rate: 9.7400, blade_speed: 2.7500, time: 5, energy_Wh: 29),
  (cut_id: 73, mch_id: 2, mode_id: 2, feed_rate: 9.7400, blade_speed: 4.1200, time: 5, energy_Wh: 22),
  (cut_id: 73, mch_id: 1, mode_id: 2, feed_rate: 9.7400, blade_speed: 4.1200, time: 5, energy_Wh: 22),
  (cut_id: 73, mch_id: 3, mode_id: 2, feed_rate: 9.7400, blade_speed: 4.1200, time: 5, energy_Wh: 22),
  (cut_id: 73, mch_id: 2, mode_id: 3, feed_rate: 9.7400, blade_speed: 5.4900, time: 5, energy_Wh: 22),
  (cut_id: 73, mch_id: 1, mode_id: 3, feed_rate: 9.7400, blade_speed: 5.4900, time: 5, energy_Wh: 22),
  (cut_id: 73, mch_id: 3, mode_id: 3, feed_rate: 9.7400, blade_speed: 5.4900, time: 5, energy_Wh: 22),
  (cut_id: 73, mch_id: 2, mode_id: 4, feed_rate: 9.7400, blade_speed: 6.8700, time: 5, energy_Wh: 35),
  (cut_id: 73, mch_id: 1, mode_id: 4, feed_rate: 9.7400, blade_speed: 6.8700, time: 5, energy_Wh: 35),
  (cut_id: 73, mch_id: 3, mode_id: 4, feed_rate: 9.7400, blade_speed: 6.8700, time: 5, energy_Wh: 35),
  (cut_id: 73, mch_id: 2, mode_id: 5, feed_rate: 9.7400, blade_speed: 8.2400, time: 5, energy_Wh: 31),
  (cut_id: 73, mch_id: 1, mode_id: 5, feed_rate: 9.7400, blade_speed: 8.2400, time: 5, energy_Wh: 31),
  (cut_id: 73, mch_id: 3, mode_id: 5, feed_rate: 9.7400, blade_speed: 8.2400, time: 5, energy_Wh: 31),
  (cut_id: 73, mch_id: 2, mode_id: 6, feed_rate: 14.6100, blade_speed: 2.7500, time: 4, energy_Wh: 36),
  (cut_id: 73, mch_id: 1, mode_id: 6, feed_rate: 14.6100, blade_speed: 2.7500, time: 4, energy_Wh: 36),
  (cut_id: 73, mch_id: 3, mode_id: 6, feed_rate: 14.6100, blade_speed: 2.7500, time: 4, energy_Wh: 36),
  (cut_id: 73, mch_id: 2, mode_id: 7, feed_rate: 14.6100, blade_speed: 4.1200, time: 4, energy_Wh: 17),
  (cut_id: 73, mch_id: 1, mode_id: 7, feed_rate: 14.6100, blade_speed: 4.1200, time: 4, energy_Wh: 17),
  (cut_id: 73, mch_id: 3, mode_id: 7, feed_rate: 14.6100, blade_speed: 4.1200, time: 4, energy_Wh: 17),
  (cut_id: 73, mch_id: 2, mode_id: 8, feed_rate: 14.6100, blade_speed: 5.4900, time: 4, energy_Wh: 19),
  (cut_id: 73, mch_id: 1, mode_id: 8, feed_rate: 14.6100, blade_speed: 5.4900, time: 4, energy_Wh: 19),
  (cut_id: 73, mch_id: 3, mode_id: 8, feed_rate: 14.6100, blade_speed: 5.4900, time: 4, energy_Wh: 19),
  (cut_id: 73, mch_id: 2, mode_id: 9, feed_rate: 14.6100, blade_speed: 6.8700, time: 4, energy_Wh: 32),
  (cut_id: 73, mch_id: 1, mode_id: 9, feed_rate: 14.6100, blade_speed: 6.8700, time: 4, energy_Wh: 32),
  (cut_id: 73, mch_id: 3, mode_id: 9, feed_rate: 14.6100, blade_speed: 6.8700, time: 4, energy_Wh: 32),
  (cut_id: 73, mch_id: 2, mode_id: 10, feed_rate: 14.6100, blade_speed: 8.2400, time: 4, energy_Wh: 39),
  (cut_id: 73, mch_id: 1, mode_id: 10, feed_rate: 14.6100, blade_speed: 8.2400, time: 4, energy_Wh: 39),
  (cut_id: 73, mch_id: 3, mode_id: 10, feed_rate: 14.6100, blade_speed: 8.2400, time: 4, energy_Wh: 39),
  (cut_id: 73, mch_id: 2, mode_id: 11, feed_rate: 19.4800, blade_speed: 2.7500, time: 3, energy_Wh: 36),
  (cut_id: 73, mch_id: 1, mode_id: 11, feed_rate: 19.4800, blade_speed: 2.7500, time: 3, energy_Wh: 36),
  (cut_id: 73, mch_id: 3, mode_id: 11, feed_rate: 19.4800, blade_speed: 2.7500, time: 3, energy_Wh: 36),
  (cut_id: 73, mch_id: 2, mode_id: 12, feed_rate: 19.4800, blade_speed: 4.1200, time: 3, energy_Wh: 24),
  (cut_id: 73, mch_id: 1, mode_id: 12, feed_rate: 19.4800, blade_speed: 4.1200, time: 3, energy_Wh: 24),
  (cut_id: 73, mch_id: 3, mode_id: 12, feed_rate: 19.4800, blade_speed: 4.1200, time: 3, energy_Wh: 24),
  (cut_id: 73, mch_id: 2, mode_id: 13, feed_rate: 19.4800, blade_speed: 5.4900, time: 3, energy_Wh: 29),
  (cut_id: 73, mch_id: 1, mode_id: 13, feed_rate: 19.4800, blade_speed: 5.4900, time: 3, energy_Wh: 29),
  (cut_id: 73, mch_id: 3, mode_id: 13, feed_rate: 19.4800, blade_speed: 5.4900, time: 3, energy_Wh: 29),
  (cut_id: 73, mch_id: 2, mode_id: 14, feed_rate: 19.4800, blade_speed: 6.8700, time: 3, energy_Wh: 32),
  (cut_id: 73, mch_id: 1, mode_id: 14, feed_rate: 19.4800, blade_speed: 6.8700, time: 3, energy_Wh: 32),
  (cut_id: 73, mch_id: 3, mode_id: 14, feed_rate: 19.4800, blade_speed: 6.8700, time: 3, energy_Wh: 32),
  (cut_id: 73, mch_id: 2, mode_id: 15, feed_rate: 19.4800, blade_speed: 8.2400, time: 3, energy_Wh: 46),
  (cut_id: 73, mch_id: 1, mode_id: 15, feed_rate: 19.4800, blade_speed: 8.2400, time: 3, energy_Wh: 46),
  (cut_id: 73, mch_id: 3, mode_id: 15, feed_rate: 19.4800, blade_speed: 8.2400, time: 3, energy_Wh: 46),
  (cut_id: 73, mch_id: 2, mode_id: 16, feed_rate: 24.3500, blade_speed: 2.7500, time: 2, energy_Wh: 45),
  (cut_id: 73, mch_id: 1, mode_id: 16, feed_rate: 24.3500, blade_speed: 2.7500, time: 2, energy_Wh: 45),
  (cut_id: 73, mch_id: 3, mode_id: 16, feed_rate: 24.3500, blade_speed: 2.7500, time: 2, energy_Wh: 45),
  (cut_id: 73, mch_id: 2, mode_id: 17, feed_rate: 24.3500, blade_speed: 4.1200, time: 2, energy_Wh: 21),
  (cut_id: 73, mch_id: 1, mode_id: 17, feed_rate: 24.3500, blade_speed: 4.1200, time: 2, energy_Wh: 21),
  (cut_id: 73, mch_id: 3, mode_id: 17, feed_rate: 24.3500, blade_speed: 4.1200, time: 2, energy_Wh: 21),
  (cut_id: 73, mch_id: 2, mode_id: 18, feed_rate: 24.3500, blade_speed: 5.4900, time: 2, energy_Wh: 24),
  (cut_id: 73, mch_id: 1, mode_id: 18, feed_rate: 24.3500, blade_speed: 5.4900, time: 2, energy_Wh: 24),
  (cut_id: 73, mch_id: 3, mode_id: 18, feed_rate: 24.3500, blade_speed: 5.4900, time: 2, energy_Wh: 24),
  (cut_id: 73, mch_id: 2, mode_id: 19, feed_rate: 24.3500, blade_speed: 6.8700, time: 2, energy_Wh: 44),
  (cut_id: 73, mch_id: 1, mode_id: 19, feed_rate: 24.3500, blade_speed: 6.8700, time: 2, energy_Wh: 44),
  (cut_id: 73, mch_id: 3, mode_id: 19, feed_rate: 24.3500, blade_speed: 6.8700, time: 2, energy_Wh: 44),
  (cut_id: 73, mch_id: 2, mode_id: 20, feed_rate: 24.3500, blade_speed: 8.2400, time: 2, energy_Wh: 45),
  (cut_id: 73, mch_id: 1, mode_id: 20, feed_rate: 24.3500, blade_speed: 8.2400, time: 2, energy_Wh: 45),
  (cut_id: 73, mch_id: 3, mode_id: 20, feed_rate: 24.3500, blade_speed: 8.2400, time: 2, energy_Wh: 45),
  (cut_id: 73, mch_id: 2, mode_id: 21, feed_rate: 29.2200, blade_speed: 2.7500, time: 2, energy_Wh: 43),
  (cut_id: 73, mch_id: 1, mode_id: 21, feed_rate: 29.2200, blade_speed: 2.7500, time: 2, energy_Wh: 43),
  (cut_id: 73, mch_id: 3, mode_id: 21, feed_rate: 29.2200, blade_speed: 2.7500, time: 2, energy_Wh: 43),
  (cut_id: 73, mch_id: 2, mode_id: 22, feed_rate: 29.2200, blade_speed: 4.1200, time: 2, energy_Wh: 25),
  (cut_id: 73, mch_id: 1, mode_id: 22, feed_rate: 29.2200, blade_speed: 4.1200, time: 2, energy_Wh: 25),
  (cut_id: 73, mch_id: 3, mode_id: 22, feed_rate: 29.2200, blade_speed: 4.1200, time: 2, energy_Wh: 25),
  (cut_id: 73, mch_id: 2, mode_id: 23, feed_rate: 29.2200, blade_speed: 5.4900, time: 2, energy_Wh: 32),
  (cut_id: 73, mch_id: 1, mode_id: 23, feed_rate: 29.2200, blade_speed: 5.4900, time: 2, energy_Wh: 32),
  (cut_id: 73, mch_id: 3, mode_id: 23, feed_rate: 29.2200, blade_speed: 5.4900, time: 2, energy_Wh: 32),
  (cut_id: 73, mch_id: 2, mode_id: 24, feed_rate: 29.2200, blade_speed: 6.8700, time: 2, energy_Wh: 35),
  (cut_id: 73, mch_id: 1, mode_id: 24, feed_rate: 29.2200, blade_speed: 6.8700, time: 2, energy_Wh: 35),
  (cut_id: 73, mch_id: 3, mode_id: 24, feed_rate: 29.2200, blade_speed: 6.8700, time: 2, energy_Wh: 35),
  (cut_id: 73, mch_id: 2, mode_id: 25, feed_rate: 29.2200, blade_speed: 8.2400, time: 2, energy_Wh: 37),
  (cut_id: 73, mch_id: 1, mode_id: 25, feed_rate: 29.2200, blade_speed: 8.2400, time: 2, energy_Wh: 37),
  (cut_id: 73, mch_id: 3, mode_id: 25, feed_rate: 29.2200, blade_speed: 8.2400, time: 2, energy_Wh: 37),
  (cut_id: 74, mch_id: 2, mode_id: 1, feed_rate: 15.9100, blade_speed: 6.7300, time: 16, energy_Wh: 52),
  (cut_id: 74, mch_id: 3, mode_id: 1, feed_rate: 15.9100, blade_speed: 6.7300, time: 16, energy_Wh: 52),
  (cut_id: 74, mch_id: 1, mode_id: 1, feed_rate: 15.9100, blade_speed: 6.7300, time: 16, energy_Wh: 52),
  (cut_id: 74, mch_id: 2, mode_id: 2, feed_rate: 15.9100, blade_speed: 10.1000, time: 16, energy_Wh: 32),
  (cut_id: 74, mch_id: 3, mode_id: 2, feed_rate: 15.9100, blade_speed: 10.1000, time: 16, energy_Wh: 32),
  (cut_id: 74, mch_id: 1, mode_id: 2, feed_rate: 15.9100, blade_speed: 10.1000, time: 16, energy_Wh: 32),
  (cut_id: 74, mch_id: 2, mode_id: 3, feed_rate: 15.9100, blade_speed: 13.4600, time: 16, energy_Wh: 61),
  (cut_id: 74, mch_id: 3, mode_id: 3, feed_rate: 15.9100, blade_speed: 13.4600, time: 16, energy_Wh: 61),
  (cut_id: 74, mch_id: 1, mode_id: 3, feed_rate: 15.9100, blade_speed: 13.4600, time: 16, energy_Wh: 61),
  (cut_id: 74, mch_id: 2, mode_id: 4, feed_rate: 15.9100, blade_speed: 16.8300, time: 16, energy_Wh: 34),
  (cut_id: 74, mch_id: 3, mode_id: 4, feed_rate: 15.9100, blade_speed: 16.8300, time: 16, energy_Wh: 34),
  (cut_id: 74, mch_id: 1, mode_id: 4, feed_rate: 15.9100, blade_speed: 16.8300, time: 16, energy_Wh: 34),
  (cut_id: 74, mch_id: 2, mode_id: 5, feed_rate: 15.9100, blade_speed: 20.1900, time: 16, energy_Wh: 48),
  (cut_id: 74, mch_id: 3, mode_id: 5, feed_rate: 15.9100, blade_speed: 20.1900, time: 16, energy_Wh: 48),
  (cut_id: 74, mch_id: 1, mode_id: 5, feed_rate: 15.9100, blade_speed: 20.1900, time: 16, energy_Wh: 48),
  (cut_id: 74, mch_id: 2, mode_id: 6, feed_rate: 23.8700, blade_speed: 6.7300, time: 11, energy_Wh: 55),
  (cut_id: 74, mch_id: 3, mode_id: 6, feed_rate: 23.8700, blade_speed: 6.7300, time: 11, energy_Wh: 55),
  (cut_id: 74, mch_id: 1, mode_id: 6, feed_rate: 23.8700, blade_speed: 6.7300, time: 11, energy_Wh: 55),
  (cut_id: 74, mch_id: 2, mode_id: 7, feed_rate: 23.8700, blade_speed: 10.1000, time: 11, energy_Wh: 38),
  (cut_id: 74, mch_id: 3, mode_id: 7, feed_rate: 23.8700, blade_speed: 10.1000, time: 11, energy_Wh: 38),
  (cut_id: 74, mch_id: 1, mode_id: 7, feed_rate: 23.8700, blade_speed: 10.1000, time: 11, energy_Wh: 38),
  (cut_id: 74, mch_id: 2, mode_id: 8, feed_rate: 23.8700, blade_speed: 13.4600, time: 11, energy_Wh: 59),
  (cut_id: 74, mch_id: 3, mode_id: 8, feed_rate: 23.8700, blade_speed: 13.4600, time: 11, energy_Wh: 59),
  (cut_id: 74, mch_id: 1, mode_id: 8, feed_rate: 23.8700, blade_speed: 13.4600, time: 11, energy_Wh: 59),
  (cut_id: 74, mch_id: 2, mode_id: 9, feed_rate: 23.8700, blade_speed: 16.8300, time: 11, energy_Wh: 36),
  (cut_id: 74, mch_id: 3, mode_id: 9, feed_rate: 23.8700, blade_speed: 16.8300, time: 11, energy_Wh: 36),
  (cut_id: 74, mch_id: 1, mode_id: 9, feed_rate: 23.8700, blade_speed: 16.8300, time: 11, energy_Wh: 36),
  (cut_id: 74, mch_id: 2, mode_id: 10, feed_rate: 23.8700, blade_speed: 20.1900, time: 11, energy_Wh: 74),
  (cut_id: 74, mch_id: 3, mode_id: 10, feed_rate: 23.8700, blade_speed: 20.1900, time: 11, energy_Wh: 74),
  (cut_id: 74, mch_id: 1, mode_id: 10, feed_rate: 23.8700, blade_speed: 20.1900, time: 11, energy_Wh: 74),
  (cut_id: 74, mch_id: 2, mode_id: 11, feed_rate: 31.8200, blade_speed: 6.7300, time: 8, energy_Wh: 68),
  (cut_id: 74, mch_id: 3, mode_id: 11, feed_rate: 31.8200, blade_speed: 6.7300, time: 8, energy_Wh: 68),
  (cut_id: 74, mch_id: 1, mode_id: 11, feed_rate: 31.8200, blade_speed: 6.7300, time: 8, energy_Wh: 68),
  (cut_id: 74, mch_id: 2, mode_id: 12, feed_rate: 31.8200, blade_speed: 10.1000, time: 8, energy_Wh: 50),
  (cut_id: 74, mch_id: 3, mode_id: 12, feed_rate: 31.8200, blade_speed: 10.1000, time: 8, energy_Wh: 50),
  (cut_id: 74, mch_id: 1, mode_id: 12, feed_rate: 31.8200, blade_speed: 10.1000, time: 8, energy_Wh: 50),
  (cut_id: 74, mch_id: 2, mode_id: 13, feed_rate: 31.8200, blade_speed: 13.4600, time: 8, energy_Wh: 60),
  (cut_id: 74, mch_id: 3, mode_id: 13, feed_rate: 31.8200, blade_speed: 13.4600, time: 8, energy_Wh: 60),
  (cut_id: 74, mch_id: 1, mode_id: 13, feed_rate: 31.8200, blade_speed: 13.4600, time: 8, energy_Wh: 60),
  (cut_id: 74, mch_id: 2, mode_id: 14, feed_rate: 31.8200, blade_speed: 16.8300, time: 8, energy_Wh: 33),
  (cut_id: 74, mch_id: 3, mode_id: 14, feed_rate: 31.8200, blade_speed: 16.8300, time: 8, energy_Wh: 33),
  (cut_id: 74, mch_id: 1, mode_id: 14, feed_rate: 31.8200, blade_speed: 16.8300, time: 8, energy_Wh: 33),
  (cut_id: 74, mch_id: 2, mode_id: 15, feed_rate: 31.8200, blade_speed: 20.1900, time: 8, energy_Wh: 75),
  (cut_id: 74, mch_id: 3, mode_id: 15, feed_rate: 31.8200, blade_speed: 20.1900, time: 8, energy_Wh: 75),
  (cut_id: 74, mch_id: 1, mode_id: 15, feed_rate: 31.8200, blade_speed: 20.1900, time: 8, energy_Wh: 75),
  (cut_id: 74, mch_id: 2, mode_id: 16, feed_rate: 39.7800, blade_speed: 6.7300, time: 7, energy_Wh: 56),
  (cut_id: 74, mch_id: 3, mode_id: 16, feed_rate: 39.7800, blade_speed: 6.7300, time: 7, energy_Wh: 56),
  (cut_id: 74, mch_id: 1, mode_id: 16, feed_rate: 39.7800, blade_speed: 6.7300, time: 7, energy_Wh: 56),
  (cut_id: 74, mch_id: 2, mode_id: 17, feed_rate: 39.7800, blade_speed: 10.1000, time: 7, energy_Wh: 53),
  (cut_id: 74, mch_id: 3, mode_id: 17, feed_rate: 39.7800, blade_speed: 10.1000, time: 7, energy_Wh: 53),
  (cut_id: 74, mch_id: 1, mode_id: 17, feed_rate: 39.7800, blade_speed: 10.1000, time: 7, energy_Wh: 53),
  (cut_id: 74, mch_id: 2, mode_id: 18, feed_rate: 39.7800, blade_speed: 13.4600, time: 7, energy_Wh: 72),
  (cut_id: 74, mch_id: 3, mode_id: 18, feed_rate: 39.7800, blade_speed: 13.4600, time: 7, energy_Wh: 72),
  (cut_id: 74, mch_id: 1, mode_id: 18, feed_rate: 39.7800, blade_speed: 13.4600, time: 7, energy_Wh: 72),
  (cut_id: 74, mch_id: 2, mode_id: 19, feed_rate: 39.7800, blade_speed: 16.8300, time: 7, energy_Wh: 41),
  (cut_id: 74, mch_id: 3, mode_id: 19, feed_rate: 39.7800, blade_speed: 16.8300, time: 7, energy_Wh: 41),
  (cut_id: 74, mch_id: 1, mode_id: 19, feed_rate: 39.7800, blade_speed: 16.8300, time: 7, energy_Wh: 41),
  (cut_id: 74, mch_id: 2, mode_id: 20, feed_rate: 39.7800, blade_speed: 20.1900, time: 7, energy_Wh: 90),
  (cut_id: 74, mch_id: 3, mode_id: 20, feed_rate: 39.7800, blade_speed: 20.1900, time: 7, energy_Wh: 90),
  (cut_id: 74, mch_id: 1, mode_id: 20, feed_rate: 39.7800, blade_speed: 20.1900, time: 7, energy_Wh: 90),
  (cut_id: 74, mch_id: 2, mode_id: 21, feed_rate: 47.7300, blade_speed: 6.7300, time: 6, energy_Wh: 89),
  (cut_id: 74, mch_id: 3, mode_id: 21, feed_rate: 47.7300, blade_speed: 6.7300, time: 6, energy_Wh: 89),
  (cut_id: 74, mch_id: 1, mode_id: 21, feed_rate: 47.7300, blade_speed: 6.7300, time: 6, energy_Wh: 89),
  (cut_id: 74, mch_id: 2, mode_id: 22, feed_rate: 47.7300, blade_speed: 10.1000, time: 6, energy_Wh: 66),
  (cut_id: 74, mch_id: 3, mode_id: 22, feed_rate: 47.7300, blade_speed: 10.1000, time: 6, energy_Wh: 66),
  (cut_id: 74, mch_id: 1, mode_id: 22, feed_rate: 47.7300, blade_speed: 10.1000, time: 6, energy_Wh: 66),
  (cut_id: 74, mch_id: 2, mode_id: 23, feed_rate: 47.7300, blade_speed: 13.4600, time: 6, energy_Wh: 73),
  (cut_id: 74, mch_id: 3, mode_id: 23, feed_rate: 47.7300, blade_speed: 13.4600, time: 6, energy_Wh: 73),
  (cut_id: 74, mch_id: 1, mode_id: 23, feed_rate: 47.7300, blade_speed: 13.4600, time: 6, energy_Wh: 73),
  (cut_id: 74, mch_id: 2, mode_id: 24, feed_rate: 47.7300, blade_speed: 16.8300, time: 6, energy_Wh: 59),
  (cut_id: 74, mch_id: 3, mode_id: 24, feed_rate: 47.7300, blade_speed: 16.8300, time: 6, energy_Wh: 59),
  (cut_id: 74, mch_id: 1, mode_id: 24, feed_rate: 47.7300, blade_speed: 16.8300, time: 6, energy_Wh: 59),
  (cut_id: 74, mch_id: 2, mode_id: 25, feed_rate: 47.7300, blade_speed: 20.1900, time: 6, energy_Wh: 85),
  (cut_id: 74, mch_id: 3, mode_id: 25, feed_rate: 47.7300, blade_speed: 20.1900, time: 6, energy_Wh: 85),
  (cut_id: 74, mch_id: 1, mode_id: 25, feed_rate: 47.7300, blade_speed: 20.1900, time: 6, energy_Wh: 85),
  (cut_id: 75, mch_id: 1, mode_id: 1, feed_rate: 19.5000, blade_speed: 12.0000, time: 11, energy_Wh: 38),
  (cut_id: 75, mch_id: 3, mode_id: 1, feed_rate: 19.5000, blade_speed: 12.0000, time: 11, energy_Wh: 38),
  (cut_id: 75, mch_id: 2, mode_id: 1, feed_rate: 19.5000, blade_speed: 12.0000, time: 11, energy_Wh: 38),
  (cut_id: 75, mch_id: 1, mode_id: 2, feed_rate: 19.5000, blade_speed: 18.0000, time: 11, energy_Wh: 34),
  (cut_id: 75, mch_id: 3, mode_id: 2, feed_rate: 19.5000, blade_speed: 18.0000, time: 11, energy_Wh: 34),
  (cut_id: 75, mch_id: 2, mode_id: 2, feed_rate: 19.5000, blade_speed: 18.0000, time: 11, energy_Wh: 34),
  (cut_id: 75, mch_id: 1, mode_id: 3, feed_rate: 19.5000, blade_speed: 24.0000, time: 11, energy_Wh: 27),
  (cut_id: 75, mch_id: 3, mode_id: 3, feed_rate: 19.5000, blade_speed: 24.0000, time: 11, energy_Wh: 27),
  (cut_id: 75, mch_id: 2, mode_id: 3, feed_rate: 19.5000, blade_speed: 24.0000, time: 11, energy_Wh: 27),
  (cut_id: 75, mch_id: 1, mode_id: 4, feed_rate: 19.5000, blade_speed: 30.0000, time: 11, energy_Wh: 23),
  (cut_id: 75, mch_id: 3, mode_id: 4, feed_rate: 19.5000, blade_speed: 30.0000, time: 11, energy_Wh: 23),
  (cut_id: 75, mch_id: 2, mode_id: 4, feed_rate: 19.5000, blade_speed: 30.0000, time: 11, energy_Wh: 23),
  (cut_id: 75, mch_id: 1, mode_id: 5, feed_rate: 19.5000, blade_speed: 36.0000, time: 11, energy_Wh: 26),
  (cut_id: 75, mch_id: 3, mode_id: 5, feed_rate: 19.5000, blade_speed: 36.0000, time: 11, energy_Wh: 26),
  (cut_id: 75, mch_id: 2, mode_id: 5, feed_rate: 19.5000, blade_speed: 36.0000, time: 11, energy_Wh: 26),
  (cut_id: 75, mch_id: 1, mode_id: 6, feed_rate: 29.2500, blade_speed: 12.0000, time: 8, energy_Wh: 31),
  (cut_id: 75, mch_id: 3, mode_id: 6, feed_rate: 29.2500, blade_speed: 12.0000, time: 8, energy_Wh: 31),
  (cut_id: 75, mch_id: 2, mode_id: 6, feed_rate: 29.2500, blade_speed: 12.0000, time: 8, energy_Wh: 31),
  (cut_id: 75, mch_id: 1, mode_id: 7, feed_rate: 29.2500, blade_speed: 18.0000, time: 8, energy_Wh: 35),
  (cut_id: 75, mch_id: 3, mode_id: 7, feed_rate: 29.2500, blade_speed: 18.0000, time: 8, energy_Wh: 35),
  (cut_id: 75, mch_id: 2, mode_id: 7, feed_rate: 29.2500, blade_speed: 18.0000, time: 8, energy_Wh: 35),
  (cut_id: 75, mch_id: 1, mode_id: 8, feed_rate: 29.2500, blade_speed: 24.0000, time: 8, energy_Wh: 38),
  (cut_id: 75, mch_id: 3, mode_id: 8, feed_rate: 29.2500, blade_speed: 24.0000, time: 8, energy_Wh: 38),
  (cut_id: 75, mch_id: 2, mode_id: 8, feed_rate: 29.2500, blade_speed: 24.0000, time: 8, energy_Wh: 38),
  (cut_id: 75, mch_id: 1, mode_id: 9, feed_rate: 29.2500, blade_speed: 30.0000, time: 8, energy_Wh: 37),
  (cut_id: 75, mch_id: 3, mode_id: 9, feed_rate: 29.2500, blade_speed: 30.0000, time: 8, energy_Wh: 37),
  (cut_id: 75, mch_id: 2, mode_id: 9, feed_rate: 29.2500, blade_speed: 30.0000, time: 8, energy_Wh: 37),
  (cut_id: 75, mch_id: 1, mode_id: 10, feed_rate: 29.2500, blade_speed: 36.0000, time: 8, energy_Wh: 28),
  (cut_id: 75, mch_id: 3, mode_id: 10, feed_rate: 29.2500, blade_speed: 36.0000, time: 8, energy_Wh: 28),
  (cut_id: 75, mch_id: 2, mode_id: 10, feed_rate: 29.2500, blade_speed: 36.0000, time: 8, energy_Wh: 28),
  (cut_id: 75, mch_id: 1, mode_id: 11, feed_rate: 39.0000, blade_speed: 12.0000, time: 6, energy_Wh: 47),
  (cut_id: 75, mch_id: 3, mode_id: 11, feed_rate: 39.0000, blade_speed: 12.0000, time: 6, energy_Wh: 47),
  (cut_id: 75, mch_id: 2, mode_id: 11, feed_rate: 39.0000, blade_speed: 12.0000, time: 6, energy_Wh: 47),
  (cut_id: 75, mch_id: 1, mode_id: 12, feed_rate: 39.0000, blade_speed: 18.0000, time: 6, energy_Wh: 37),
  (cut_id: 75, mch_id: 3, mode_id: 12, feed_rate: 39.0000, blade_speed: 18.0000, time: 6, energy_Wh: 37),
  (cut_id: 75, mch_id: 2, mode_id: 12, feed_rate: 39.0000, blade_speed: 18.0000, time: 6, energy_Wh: 37),
  (cut_id: 75, mch_id: 1, mode_id: 13, feed_rate: 39.0000, blade_speed: 24.0000, time: 6, energy_Wh: 43),
  (cut_id: 75, mch_id: 3, mode_id: 13, feed_rate: 39.0000, blade_speed: 24.0000, time: 6, energy_Wh: 43),
  (cut_id: 75, mch_id: 2, mode_id: 13, feed_rate: 39.0000, blade_speed: 24.0000, time: 6, energy_Wh: 43),
  (cut_id: 75, mch_id: 1, mode_id: 14, feed_rate: 39.0000, blade_speed: 30.0000, time: 6, energy_Wh: 33),
  (cut_id: 75, mch_id: 3, mode_id: 14, feed_rate: 39.0000, blade_speed: 30.0000, time: 6, energy_Wh: 33),
  (cut_id: 75, mch_id: 2, mode_id: 14, feed_rate: 39.0000, blade_speed: 30.0000, time: 6, energy_Wh: 33),
  (cut_id: 75, mch_id: 1, mode_id: 15, feed_rate: 39.0000, blade_speed: 36.0000, time: 6, energy_Wh: 31),
  (cut_id: 75, mch_id: 3, mode_id: 15, feed_rate: 39.0000, blade_speed: 36.0000, time: 6, energy_Wh: 31),
  (cut_id: 75, mch_id: 2, mode_id: 15, feed_rate: 39.0000, blade_speed: 36.0000, time: 6, energy_Wh: 31),
  (cut_id: 75, mch_id: 1, mode_id: 16, feed_rate: 48.7500, blade_speed: 12.0000, time: 5, energy_Wh: 53),
  (cut_id: 75, mch_id: 3, mode_id: 16, feed_rate: 48.7500, blade_speed: 12.0000, time: 5, energy_Wh: 53),
  (cut_id: 75, mch_id: 2, mode_id: 16, feed_rate: 48.7500, blade_speed: 12.0000, time: 5, energy_Wh: 53),
  (cut_id: 75, mch_id: 1, mode_id: 17, feed_rate: 48.7500, blade_speed: 18.0000, time: 5, energy_Wh: 57),
  (cut_id: 75, mch_id: 3, mode_id: 17, feed_rate: 48.7500, blade_speed: 18.0000, time: 5, energy_Wh: 57),
  (cut_id: 75, mch_id: 2, mode_id: 17, feed_rate: 48.7500, blade_speed: 18.0000, time: 5, energy_Wh: 57),
  (cut_id: 75, mch_id: 1, mode_id: 18, feed_rate: 48.7500, blade_speed: 24.0000, time: 5, energy_Wh: 44),
  (cut_id: 75, mch_id: 3, mode_id: 18, feed_rate: 48.7500, blade_speed: 24.0000, time: 5, energy_Wh: 44),
  (cut_id: 75, mch_id: 2, mode_id: 18, feed_rate: 48.7500, blade_speed: 24.0000, time: 5, energy_Wh: 44),
  (cut_id: 75, mch_id: 1, mode_id: 19, feed_rate: 48.7500, blade_speed: 30.0000, time: 5, energy_Wh: 44),
  (cut_id: 75, mch_id: 3, mode_id: 19, feed_rate: 48.7500, blade_speed: 30.0000, time: 5, energy_Wh: 44),
  (cut_id: 75, mch_id: 2, mode_id: 19, feed_rate: 48.7500, blade_speed: 30.0000, time: 5, energy_Wh: 44),
  (cut_id: 75, mch_id: 1, mode_id: 20, feed_rate: 48.7500, blade_speed: 36.0000, time: 5, energy_Wh: 50),
  (cut_id: 75, mch_id: 3, mode_id: 20, feed_rate: 48.7500, blade_speed: 36.0000, time: 5, energy_Wh: 50),
  (cut_id: 75, mch_id: 2, mode_id: 20, feed_rate: 48.7500, blade_speed: 36.0000, time: 5, energy_Wh: 50),
  (cut_id: 75, mch_id: 1, mode_id: 21, feed_rate: 58.5000, blade_speed: 12.0000, time: 4, energy_Wh: 64),
  (cut_id: 75, mch_id: 3, mode_id: 21, feed_rate: 58.5000, blade_speed: 12.0000, time: 4, energy_Wh: 64),
  (cut_id: 75, mch_id: 2, mode_id: 21, feed_rate: 58.5000, blade_speed: 12.0000, time: 4, energy_Wh: 64),
  (cut_id: 75, mch_id: 1, mode_id: 22, feed_rate: 58.5000, blade_speed: 18.0000, time: 4, energy_Wh: 62),
  (cut_id: 75, mch_id: 3, mode_id: 22, feed_rate: 58.5000, blade_speed: 18.0000, time: 4, energy_Wh: 62),
  (cut_id: 75, mch_id: 2, mode_id: 22, feed_rate: 58.5000, blade_speed: 18.0000, time: 4, energy_Wh: 62),
  (cut_id: 75, mch_id: 1, mode_id: 23, feed_rate: 58.5000, blade_speed: 24.0000, time: 4, energy_Wh: 55),
  (cut_id: 75, mch_id: 3, mode_id: 23, feed_rate: 58.5000, blade_speed: 24.0000, time: 4, energy_Wh: 55),
  (cut_id: 75, mch_id: 2, mode_id: 23, feed_rate: 58.5000, blade_speed: 24.0000, time: 4, energy_Wh: 55),
  (cut_id: 75, mch_id: 1, mode_id: 24, feed_rate: 58.5000, blade_speed: 30.0000, time: 4, energy_Wh: 49),
  (cut_id: 75, mch_id: 3, mode_id: 24, feed_rate: 58.5000, blade_speed: 30.0000, time: 4, energy_Wh: 49),
  (cut_id: 75, mch_id: 2, mode_id: 24, feed_rate: 58.5000, blade_speed: 30.0000, time: 4, energy_Wh: 49),
  (cut_id: 75, mch_id: 1, mode_id: 25, feed_rate: 58.5000, blade_speed: 36.0000, time: 4, energy_Wh: 50),
  (cut_id: 75, mch_id: 3, mode_id: 25, feed_rate: 58.5000, blade_speed: 36.0000, time: 4, energy_Wh: 50),
  (cut_id: 75, mch_id: 2, mode_id: 25, feed_rate: 58.5000, blade_speed: 36.0000, time: 4, energy_Wh: 50),
  (cut_id: 76, mch_id: 3, mode_id: 1, feed_rate: 20.0000, blade_speed: 50.0000, time: 11, energy_Wh: 29),
  (cut_id: 76, mch_id: 1, mode_id: 1, feed_rate: 20.0000, blade_speed: 50.0000, time: 11, energy_Wh: 29),
  (cut_id: 76, mch_id: 2, mode_id: 1, feed_rate: 20.0000, blade_speed: 50.0000, time: 11, energy_Wh: 29),
  (cut_id: 76, mch_id: 3, mode_id: 2, feed_rate: 20.0000, blade_speed: 75.0000, time: 11, energy_Wh: 27),
  (cut_id: 76, mch_id: 1, mode_id: 2, feed_rate: 20.0000, blade_speed: 75.0000, time: 11, energy_Wh: 27),
  (cut_id: 76, mch_id: 2, mode_id: 2, feed_rate: 20.0000, blade_speed: 75.0000, time: 11, energy_Wh: 27),
  (cut_id: 76, mch_id: 3, mode_id: 3, feed_rate: 20.0000, blade_speed: 100.0000, time: 11, energy_Wh: 38),
  (cut_id: 76, mch_id: 1, mode_id: 3, feed_rate: 20.0000, blade_speed: 100.0000, time: 11, energy_Wh: 38),
  (cut_id: 76, mch_id: 2, mode_id: 3, feed_rate: 20.0000, blade_speed: 100.0000, time: 11, energy_Wh: 38),
  (cut_id: 76, mch_id: 3, mode_id: 4, feed_rate: 20.0000, blade_speed: 125.0000, time: 11, energy_Wh: 37),
  (cut_id: 76, mch_id: 1, mode_id: 4, feed_rate: 20.0000, blade_speed: 125.0000, time: 11, energy_Wh: 37),
  (cut_id: 76, mch_id: 2, mode_id: 4, feed_rate: 20.0000, blade_speed: 125.0000, time: 11, energy_Wh: 37),
  (cut_id: 76, mch_id: 3, mode_id: 5, feed_rate: 20.0000, blade_speed: 150.0000, time: 11, energy_Wh: 25),
  (cut_id: 76, mch_id: 1, mode_id: 5, feed_rate: 20.0000, blade_speed: 150.0000, time: 11, energy_Wh: 25),
  (cut_id: 76, mch_id: 2, mode_id: 5, feed_rate: 20.0000, blade_speed: 150.0000, time: 11, energy_Wh: 25),
  (cut_id: 76, mch_id: 3, mode_id: 6, feed_rate: 30.0000, blade_speed: 50.0000, time: 7, energy_Wh: 45),
  (cut_id: 76, mch_id: 1, mode_id: 6, feed_rate: 30.0000, blade_speed: 50.0000, time: 7, energy_Wh: 45),
  (cut_id: 76, mch_id: 2, mode_id: 6, feed_rate: 30.0000, blade_speed: 50.0000, time: 7, energy_Wh: 45),
  (cut_id: 76, mch_id: 3, mode_id: 7, feed_rate: 30.0000, blade_speed: 75.0000, time: 7, energy_Wh: 46),
  (cut_id: 76, mch_id: 1, mode_id: 7, feed_rate: 30.0000, blade_speed: 75.0000, time: 7, energy_Wh: 46),
  (cut_id: 76, mch_id: 2, mode_id: 7, feed_rate: 30.0000, blade_speed: 75.0000, time: 7, energy_Wh: 46),
  (cut_id: 76, mch_id: 3, mode_id: 8, feed_rate: 30.0000, blade_speed: 100.0000, time: 7, energy_Wh: 33),
  (cut_id: 76, mch_id: 1, mode_id: 8, feed_rate: 30.0000, blade_speed: 100.0000, time: 7, energy_Wh: 33),
  (cut_id: 76, mch_id: 2, mode_id: 8, feed_rate: 30.0000, blade_speed: 100.0000, time: 7, energy_Wh: 33),
  (cut_id: 76, mch_id: 3, mode_id: 9, feed_rate: 30.0000, blade_speed: 125.0000, time: 7, energy_Wh: 43),
  (cut_id: 76, mch_id: 1, mode_id: 9, feed_rate: 30.0000, blade_speed: 125.0000, time: 7, energy_Wh: 43),
  (cut_id: 76, mch_id: 2, mode_id: 9, feed_rate: 30.0000, blade_speed: 125.0000, time: 7, energy_Wh: 43),
  (cut_id: 76, mch_id: 3, mode_id: 10, feed_rate: 30.0000, blade_speed: 150.0000, time: 7, energy_Wh: 36),
  (cut_id: 76, mch_id: 1, mode_id: 10, feed_rate: 30.0000, blade_speed: 150.0000, time: 7, energy_Wh: 36),
  (cut_id: 76, mch_id: 2, mode_id: 10, feed_rate: 30.0000, blade_speed: 150.0000, time: 7, energy_Wh: 36),
  (cut_id: 76, mch_id: 3, mode_id: 11, feed_rate: 40.0000, blade_speed: 50.0000, time: 6, energy_Wh: 42),
  (cut_id: 76, mch_id: 1, mode_id: 11, feed_rate: 40.0000, blade_speed: 50.0000, time: 6, energy_Wh: 42),
  (cut_id: 76, mch_id: 2, mode_id: 11, feed_rate: 40.0000, blade_speed: 50.0000, time: 6, energy_Wh: 42),
  (cut_id: 76, mch_id: 3, mode_id: 12, feed_rate: 40.0000, blade_speed: 75.0000, time: 6, energy_Wh: 55),
  (cut_id: 76, mch_id: 1, mode_id: 12, feed_rate: 40.0000, blade_speed: 75.0000, time: 6, energy_Wh: 55),
  (cut_id: 76, mch_id: 2, mode_id: 12, feed_rate: 40.0000, blade_speed: 75.0000, time: 6, energy_Wh: 55),
  (cut_id: 76, mch_id: 3, mode_id: 13, feed_rate: 40.0000, blade_speed: 100.0000, time: 6, energy_Wh: 46),
  (cut_id: 76, mch_id: 1, mode_id: 13, feed_rate: 40.0000, blade_speed: 100.0000, time: 6, energy_Wh: 46),
  (cut_id: 76, mch_id: 2, mode_id: 13, feed_rate: 40.0000, blade_speed: 100.0000, time: 6, energy_Wh: 46),
  (cut_id: 76, mch_id: 3, mode_id: 14, feed_rate: 40.0000, blade_speed: 125.0000, time: 6, energy_Wh: 51),
  (cut_id: 76, mch_id: 1, mode_id: 14, feed_rate: 40.0000, blade_speed: 125.0000, time: 6, energy_Wh: 51),
  (cut_id: 76, mch_id: 2, mode_id: 14, feed_rate: 40.0000, blade_speed: 125.0000, time: 6, energy_Wh: 51),
  (cut_id: 76, mch_id: 3, mode_id: 15, feed_rate: 40.0000, blade_speed: 150.0000, time: 6, energy_Wh: 38),
  (cut_id: 76, mch_id: 1, mode_id: 15, feed_rate: 40.0000, blade_speed: 150.0000, time: 6, energy_Wh: 38),
  (cut_id: 76, mch_id: 2, mode_id: 15, feed_rate: 40.0000, blade_speed: 150.0000, time: 6, energy_Wh: 38),
  (cut_id: 76, mch_id: 3, mode_id: 16, feed_rate: 50.0000, blade_speed: 50.0000, time: 5, energy_Wh: 63),
  (cut_id: 76, mch_id: 1, mode_id: 16, feed_rate: 50.0000, blade_speed: 50.0000, time: 5, energy_Wh: 63),
  (cut_id: 76, mch_id: 2, mode_id: 16, feed_rate: 50.0000, blade_speed: 50.0000, time: 5, energy_Wh: 63),
  (cut_id: 76, mch_id: 3, mode_id: 17, feed_rate: 50.0000, blade_speed: 75.0000, time: 5, energy_Wh: 49),
  (cut_id: 76, mch_id: 1, mode_id: 17, feed_rate: 50.0000, blade_speed: 75.0000, time: 5, energy_Wh: 49),
  (cut_id: 76, mch_id: 2, mode_id: 17, feed_rate: 50.0000, blade_speed: 75.0000, time: 5, energy_Wh: 49),
  (cut_id: 76, mch_id: 3, mode_id: 18, feed_rate: 50.0000, blade_speed: 100.0000, time: 5, energy_Wh: 47),
  (cut_id: 76, mch_id: 1, mode_id: 18, feed_rate: 50.0000, blade_speed: 100.0000, time: 5, energy_Wh: 47),
  (cut_id: 76, mch_id: 2, mode_id: 18, feed_rate: 50.0000, blade_speed: 100.0000, time: 5, energy_Wh: 47),
  (cut_id: 76, mch_id: 3, mode_id: 19, feed_rate: 50.0000, blade_speed: 125.0000, time: 5, energy_Wh: 51),
  (cut_id: 76, mch_id: 1, mode_id: 19, feed_rate: 50.0000, blade_speed: 125.0000, time: 5, energy_Wh: 51),
  (cut_id: 76, mch_id: 2, mode_id: 19, feed_rate: 50.0000, blade_speed: 125.0000, time: 5, energy_Wh: 51),
  (cut_id: 76, mch_id: 3, mode_id: 20, feed_rate: 50.0000, blade_speed: 150.0000, time: 5, energy_Wh: 47),
  (cut_id: 76, mch_id: 1, mode_id: 20, feed_rate: 50.0000, blade_speed: 150.0000, time: 5, energy_Wh: 47),
  (cut_id: 76, mch_id: 2, mode_id: 20, feed_rate: 50.0000, blade_speed: 150.0000, time: 5, energy_Wh: 47),
  (cut_id: 76, mch_id: 3, mode_id: 21, feed_rate: 60.0000, blade_speed: 50.0000, time: 4, energy_Wh: 72),
  (cut_id: 76, mch_id: 1, mode_id: 21, feed_rate: 60.0000, blade_speed: 50.0000, time: 4, energy_Wh: 72),
  (cut_id: 76, mch_id: 2, mode_id: 21, feed_rate: 60.0000, blade_speed: 50.0000, time: 4, energy_Wh: 72),
  (cut_id: 76, mch_id: 3, mode_id: 22, feed_rate: 60.0000, blade_speed: 75.0000, time: 4, energy_Wh: 57),
  (cut_id: 76, mch_id: 1, mode_id: 22, feed_rate: 60.0000, blade_speed: 75.0000, time: 4, energy_Wh: 57),
  (cut_id: 76, mch_id: 2, mode_id: 22, feed_rate: 60.0000, blade_speed: 75.0000, time: 4, energy_Wh: 57),
  (cut_id: 76, mch_id: 3, mode_id: 23, feed_rate: 60.0000, blade_speed: 100.0000, time: 4, energy_Wh: 70),
  (cut_id: 76, mch_id: 1, mode_id: 23, feed_rate: 60.0000, blade_speed: 100.0000, time: 4, energy_Wh: 70),
  (cut_id: 76, mch_id: 2, mode_id: 23, feed_rate: 60.0000, blade_speed: 100.0000, time: 4, energy_Wh: 70),
  (cut_id: 76, mch_id: 3, mode_id: 24, feed_rate: 60.0000, blade_speed: 125.0000, time: 4, energy_Wh: 66),
  (cut_id: 76, mch_id: 1, mode_id: 24, feed_rate: 60.0000, blade_speed: 125.0000, time: 4, energy_Wh: 66),
  (cut_id: 76, mch_id: 2, mode_id: 24, feed_rate: 60.0000, blade_speed: 125.0000, time: 4, energy_Wh: 66),
  (cut_id: 76, mch_id: 3, mode_id: 25, feed_rate: 60.0000, blade_speed: 150.0000, time: 4, energy_Wh: 56),
  (cut_id: 76, mch_id: 1, mode_id: 25, feed_rate: 60.0000, blade_speed: 150.0000, time: 4, energy_Wh: 56),
  (cut_id: 76, mch_id: 2, mode_id: 25, feed_rate: 60.0000, blade_speed: 150.0000, time: 4, energy_Wh: 56),
  (cut_id: 77, mch_id: 2, mode_id: 1, feed_rate: 17.5000, blade_speed: 16.2100, time: 4, energy_Wh: 28),
  (cut_id: 77, mch_id: 3, mode_id: 1, feed_rate: 17.5000, blade_speed: 16.2100, time: 4, energy_Wh: 28),
  (cut_id: 77, mch_id: 1, mode_id: 1, feed_rate: 17.5000, blade_speed: 16.2100, time: 4, energy_Wh: 28),
  (cut_id: 77, mch_id: 2, mode_id: 2, feed_rate: 17.5000, blade_speed: 24.3100, time: 4, energy_Wh: 22),
  (cut_id: 77, mch_id: 3, mode_id: 2, feed_rate: 17.5000, blade_speed: 24.3100, time: 4, energy_Wh: 22),
  (cut_id: 77, mch_id: 1, mode_id: 2, feed_rate: 17.5000, blade_speed: 24.3100, time: 4, energy_Wh: 22),
  (cut_id: 77, mch_id: 2, mode_id: 3, feed_rate: 17.5000, blade_speed: 32.4200, time: 4, energy_Wh: 38),
  (cut_id: 77, mch_id: 3, mode_id: 3, feed_rate: 17.5000, blade_speed: 32.4200, time: 4, energy_Wh: 38),
  (cut_id: 77, mch_id: 1, mode_id: 3, feed_rate: 17.5000, blade_speed: 32.4200, time: 4, energy_Wh: 38),
  (cut_id: 77, mch_id: 2, mode_id: 4, feed_rate: 17.5000, blade_speed: 40.5200, time: 4, energy_Wh: 35),
  (cut_id: 77, mch_id: 3, mode_id: 4, feed_rate: 17.5000, blade_speed: 40.5200, time: 4, energy_Wh: 35),
  (cut_id: 77, mch_id: 1, mode_id: 4, feed_rate: 17.5000, blade_speed: 40.5200, time: 4, energy_Wh: 35),
  (cut_id: 77, mch_id: 2, mode_id: 5, feed_rate: 17.5000, blade_speed: 48.6300, time: 4, energy_Wh: 24),
  (cut_id: 77, mch_id: 3, mode_id: 5, feed_rate: 17.5000, blade_speed: 48.6300, time: 4, energy_Wh: 24),
  (cut_id: 77, mch_id: 1, mode_id: 5, feed_rate: 17.5000, blade_speed: 48.6300, time: 4, energy_Wh: 24),
  (cut_id: 77, mch_id: 2, mode_id: 6, feed_rate: 26.2500, blade_speed: 16.2100, time: 3, energy_Wh: 29),
  (cut_id: 77, mch_id: 3, mode_id: 6, feed_rate: 26.2500, blade_speed: 16.2100, time: 3, energy_Wh: 29),
  (cut_id: 77, mch_id: 1, mode_id: 6, feed_rate: 26.2500, blade_speed: 16.2100, time: 3, energy_Wh: 29),
  (cut_id: 77, mch_id: 2, mode_id: 7, feed_rate: 26.2500, blade_speed: 24.3100, time: 3, energy_Wh: 31),
  (cut_id: 77, mch_id: 3, mode_id: 7, feed_rate: 26.2500, blade_speed: 24.3100, time: 3, energy_Wh: 31),
  (cut_id: 77, mch_id: 1, mode_id: 7, feed_rate: 26.2500, blade_speed: 24.3100, time: 3, energy_Wh: 31),
  (cut_id: 77, mch_id: 2, mode_id: 8, feed_rate: 26.2500, blade_speed: 32.4200, time: 3, energy_Wh: 35),
  (cut_id: 77, mch_id: 3, mode_id: 8, feed_rate: 26.2500, blade_speed: 32.4200, time: 3, energy_Wh: 35),
  (cut_id: 77, mch_id: 1, mode_id: 8, feed_rate: 26.2500, blade_speed: 32.4200, time: 3, energy_Wh: 35),
  (cut_id: 77, mch_id: 2, mode_id: 9, feed_rate: 26.2500, blade_speed: 40.5200, time: 3, energy_Wh: 42),
  (cut_id: 77, mch_id: 3, mode_id: 9, feed_rate: 26.2500, blade_speed: 40.5200, time: 3, energy_Wh: 42),
  (cut_id: 77, mch_id: 1, mode_id: 9, feed_rate: 26.2500, blade_speed: 40.5200, time: 3, energy_Wh: 42),
  (cut_id: 77, mch_id: 2, mode_id: 10, feed_rate: 26.2500, blade_speed: 48.6300, time: 3, energy_Wh: 21),
  (cut_id: 77, mch_id: 3, mode_id: 10, feed_rate: 26.2500, blade_speed: 48.6300, time: 3, energy_Wh: 21),
  (cut_id: 77, mch_id: 1, mode_id: 10, feed_rate: 26.2500, blade_speed: 48.6300, time: 3, energy_Wh: 21),
  (cut_id: 77, mch_id: 2, mode_id: 11, feed_rate: 35.0000, blade_speed: 16.2100, time: 2, energy_Wh: 39),
  (cut_id: 77, mch_id: 3, mode_id: 11, feed_rate: 35.0000, blade_speed: 16.2100, time: 2, energy_Wh: 39),
  (cut_id: 77, mch_id: 1, mode_id: 11, feed_rate: 35.0000, blade_speed: 16.2100, time: 2, energy_Wh: 39),
  (cut_id: 77, mch_id: 2, mode_id: 12, feed_rate: 35.0000, blade_speed: 24.3100, time: 2, energy_Wh: 33),
  (cut_id: 77, mch_id: 3, mode_id: 12, feed_rate: 35.0000, blade_speed: 24.3100, time: 2, energy_Wh: 33),
  (cut_id: 77, mch_id: 1, mode_id: 12, feed_rate: 35.0000, blade_speed: 24.3100, time: 2, energy_Wh: 33),
  (cut_id: 77, mch_id: 2, mode_id: 13, feed_rate: 35.0000, blade_speed: 32.4200, time: 2, energy_Wh: 53),
  (cut_id: 77, mch_id: 3, mode_id: 13, feed_rate: 35.0000, blade_speed: 32.4200, time: 2, energy_Wh: 53),
  (cut_id: 77, mch_id: 1, mode_id: 13, feed_rate: 35.0000, blade_speed: 32.4200, time: 2, energy_Wh: 53),
  (cut_id: 77, mch_id: 2, mode_id: 14, feed_rate: 35.0000, blade_speed: 40.5200, time: 2, energy_Wh: 49),
  (cut_id: 77, mch_id: 3, mode_id: 14, feed_rate: 35.0000, blade_speed: 40.5200, time: 2, energy_Wh: 49),
  (cut_id: 77, mch_id: 1, mode_id: 14, feed_rate: 35.0000, blade_speed: 40.5200, time: 2, energy_Wh: 49),
  (cut_id: 77, mch_id: 2, mode_id: 15, feed_rate: 35.0000, blade_speed: 48.6300, time: 2, energy_Wh: 27),
  (cut_id: 77, mch_id: 3, mode_id: 15, feed_rate: 35.0000, blade_speed: 48.6300, time: 2, energy_Wh: 27),
  (cut_id: 77, mch_id: 1, mode_id: 15, feed_rate: 35.0000, blade_speed: 48.6300, time: 2, energy_Wh: 27),
  (cut_id: 77, mch_id: 2, mode_id: 16, feed_rate: 43.7500, blade_speed: 16.2100, time: 2, energy_Wh: 43),
  (cut_id: 77, mch_id: 3, mode_id: 16, feed_rate: 43.7500, blade_speed: 16.2100, time: 2, energy_Wh: 43),
  (cut_id: 77, mch_id: 1, mode_id: 16, feed_rate: 43.7500, blade_speed: 16.2100, time: 2, energy_Wh: 43),
  (cut_id: 77, mch_id: 2, mode_id: 17, feed_rate: 43.7500, blade_speed: 24.3100, time: 2, energy_Wh: 31),
  (cut_id: 77, mch_id: 3, mode_id: 17, feed_rate: 43.7500, blade_speed: 24.3100, time: 2, energy_Wh: 31),
  (cut_id: 77, mch_id: 1, mode_id: 17, feed_rate: 43.7500, blade_speed: 24.3100, time: 2, energy_Wh: 31),
  (cut_id: 77, mch_id: 2, mode_id: 18, feed_rate: 43.7500, blade_speed: 32.4200, time: 2, energy_Wh: 49),
  (cut_id: 77, mch_id: 3, mode_id: 18, feed_rate: 43.7500, blade_speed: 32.4200, time: 2, energy_Wh: 49),
  (cut_id: 77, mch_id: 1, mode_id: 18, feed_rate: 43.7500, blade_speed: 32.4200, time: 2, energy_Wh: 49),
  (cut_id: 77, mch_id: 2, mode_id: 19, feed_rate: 43.7500, blade_speed: 40.5200, time: 2, energy_Wh: 57),
  (cut_id: 77, mch_id: 3, mode_id: 19, feed_rate: 43.7500, blade_speed: 40.5200, time: 2, energy_Wh: 57),
  (cut_id: 77, mch_id: 1, mode_id: 19, feed_rate: 43.7500, blade_speed: 40.5200, time: 2, energy_Wh: 57),
  (cut_id: 77, mch_id: 2, mode_id: 20, feed_rate: 43.7500, blade_speed: 48.6300, time: 2, energy_Wh: 30),
  (cut_id: 77, mch_id: 3, mode_id: 20, feed_rate: 43.7500, blade_speed: 48.6300, time: 2, energy_Wh: 30),
  (cut_id: 77, mch_id: 1, mode_id: 20, feed_rate: 43.7500, blade_speed: 48.6300, time: 2, energy_Wh: 30),
  (cut_id: 77, mch_id: 2, mode_id: 21, feed_rate: 52.5000, blade_speed: 16.2100, time: 2, energy_Wh: 38),
  (cut_id: 77, mch_id: 3, mode_id: 21, feed_rate: 52.5000, blade_speed: 16.2100, time: 2, energy_Wh: 38),
  (cut_id: 77, mch_id: 1, mode_id: 21, feed_rate: 52.5000, blade_speed: 16.2100, time: 2, energy_Wh: 38),
  (cut_id: 77, mch_id: 2, mode_id: 22, feed_rate: 52.5000, blade_speed: 24.3100, time: 2, energy_Wh: 41),
  (cut_id: 77, mch_id: 3, mode_id: 22, feed_rate: 52.5000, blade_speed: 24.3100, time: 2, energy_Wh: 41),
  (cut_id: 77, mch_id: 1, mode_id: 22, feed_rate: 52.5000, blade_speed: 24.3100, time: 2, energy_Wh: 41),
  (cut_id: 77, mch_id: 2, mode_id: 23, feed_rate: 52.5000, blade_speed: 32.4200, time: 2, energy_Wh: 76),
  (cut_id: 77, mch_id: 3, mode_id: 23, feed_rate: 52.5000, blade_speed: 32.4200, time: 2, energy_Wh: 76),
  (cut_id: 77, mch_id: 1, mode_id: 23, feed_rate: 52.5000, blade_speed: 32.4200, time: 2, energy_Wh: 76),
  (cut_id: 77, mch_id: 2, mode_id: 24, feed_rate: 52.5000, blade_speed: 40.5200, time: 2, energy_Wh: 60),
  (cut_id: 77, mch_id: 3, mode_id: 24, feed_rate: 52.5000, blade_speed: 40.5200, time: 2, energy_Wh: 60),
  (cut_id: 77, mch_id: 1, mode_id: 24, feed_rate: 52.5000, blade_speed: 40.5200, time: 2, energy_Wh: 60),
  (cut_id: 77, mch_id: 2, mode_id: 25, feed_rate: 52.5000, blade_speed: 48.6300, time: 2, energy_Wh: 38),
  (cut_id: 77, mch_id: 3, mode_id: 25, feed_rate: 52.5000, blade_speed: 48.6300, time: 2, energy_Wh: 38),
  (cut_id: 77, mch_id: 1, mode_id: 25, feed_rate: 52.5000, blade_speed: 48.6300, time: 2, energy_Wh: 38),
  (cut_id: 78, mch_id: 1, mode_id: 1, feed_rate: 15.5000, blade_speed: 5.5000, time: 16, energy_Wh: 52),
  (cut_id: 78, mch_id: 2, mode_id: 1, feed_rate: 15.5000, blade_speed: 5.5000, time: 16, energy_Wh: 52),
  (cut_id: 78, mch_id: 3, mode_id: 1, feed_rate: 15.5000, blade_speed: 5.5000, time: 16, energy_Wh: 52),
  (cut_id: 78, mch_id: 1, mode_id: 2, feed_rate: 15.5000, blade_speed: 8.2500, time: 16, energy_Wh: 80),
  (cut_id: 78, mch_id: 2, mode_id: 2, feed_rate: 15.5000, blade_speed: 8.2500, time: 16, energy_Wh: 80),
  (cut_id: 78, mch_id: 3, mode_id: 2, feed_rate: 15.5000, blade_speed: 8.2500, time: 16, energy_Wh: 80),
  (cut_id: 78, mch_id: 1, mode_id: 3, feed_rate: 15.5000, blade_speed: 11.0000, time: 16, energy_Wh: 44),
  (cut_id: 78, mch_id: 2, mode_id: 3, feed_rate: 15.5000, blade_speed: 11.0000, time: 16, energy_Wh: 44),
  (cut_id: 78, mch_id: 3, mode_id: 3, feed_rate: 15.5000, blade_speed: 11.0000, time: 16, energy_Wh: 44),
  (cut_id: 78, mch_id: 1, mode_id: 4, feed_rate: 15.5000, blade_speed: 13.7500, time: 16, energy_Wh: 67),
  (cut_id: 78, mch_id: 2, mode_id: 4, feed_rate: 15.5000, blade_speed: 13.7500, time: 16, energy_Wh: 67),
  (cut_id: 78, mch_id: 3, mode_id: 4, feed_rate: 15.5000, blade_speed: 13.7500, time: 16, energy_Wh: 67),
  (cut_id: 78, mch_id: 1, mode_id: 5, feed_rate: 15.5000, blade_speed: 16.5000, time: 16, energy_Wh: 44),
  (cut_id: 78, mch_id: 2, mode_id: 5, feed_rate: 15.5000, blade_speed: 16.5000, time: 16, energy_Wh: 44),
  (cut_id: 78, mch_id: 3, mode_id: 5, feed_rate: 15.5000, blade_speed: 16.5000, time: 16, energy_Wh: 44),
  (cut_id: 78, mch_id: 1, mode_id: 6, feed_rate: 23.2500, blade_speed: 5.5000, time: 11, energy_Wh: 51),
  (cut_id: 78, mch_id: 2, mode_id: 6, feed_rate: 23.2500, blade_speed: 5.5000, time: 11, energy_Wh: 51),
  (cut_id: 78, mch_id: 3, mode_id: 6, feed_rate: 23.2500, blade_speed: 5.5000, time: 11, energy_Wh: 51),
  (cut_id: 78, mch_id: 1, mode_id: 7, feed_rate: 23.2500, blade_speed: 8.2500, time: 11, energy_Wh: 82),
  (cut_id: 78, mch_id: 2, mode_id: 7, feed_rate: 23.2500, blade_speed: 8.2500, time: 11, energy_Wh: 82),
  (cut_id: 78, mch_id: 3, mode_id: 7, feed_rate: 23.2500, blade_speed: 8.2500, time: 11, energy_Wh: 82),
  (cut_id: 78, mch_id: 1, mode_id: 8, feed_rate: 23.2500, blade_speed: 11.0000, time: 11, energy_Wh: 44),
  (cut_id: 78, mch_id: 2, mode_id: 8, feed_rate: 23.2500, blade_speed: 11.0000, time: 11, energy_Wh: 44),
  (cut_id: 78, mch_id: 3, mode_id: 8, feed_rate: 23.2500, blade_speed: 11.0000, time: 11, energy_Wh: 44),
  (cut_id: 78, mch_id: 1, mode_id: 9, feed_rate: 23.2500, blade_speed: 13.7500, time: 11, energy_Wh: 93),
  (cut_id: 78, mch_id: 2, mode_id: 9, feed_rate: 23.2500, blade_speed: 13.7500, time: 11, energy_Wh: 93),
  (cut_id: 78, mch_id: 3, mode_id: 9, feed_rate: 23.2500, blade_speed: 13.7500, time: 11, energy_Wh: 93),
  (cut_id: 78, mch_id: 1, mode_id: 10, feed_rate: 23.2500, blade_speed: 16.5000, time: 11, energy_Wh: 44),
  (cut_id: 78, mch_id: 2, mode_id: 10, feed_rate: 23.2500, blade_speed: 16.5000, time: 11, energy_Wh: 44),
  (cut_id: 78, mch_id: 3, mode_id: 10, feed_rate: 23.2500, blade_speed: 16.5000, time: 11, energy_Wh: 44),
  (cut_id: 78, mch_id: 1, mode_id: 11, feed_rate: 31.0000, blade_speed: 5.5000, time: 8, energy_Wh: 47),
  (cut_id: 78, mch_id: 2, mode_id: 11, feed_rate: 31.0000, blade_speed: 5.5000, time: 8, energy_Wh: 47),
  (cut_id: 78, mch_id: 3, mode_id: 11, feed_rate: 31.0000, blade_speed: 5.5000, time: 8, energy_Wh: 47),
  (cut_id: 78, mch_id: 1, mode_id: 12, feed_rate: 31.0000, blade_speed: 8.2500, time: 8, energy_Wh: 90),
  (cut_id: 78, mch_id: 2, mode_id: 12, feed_rate: 31.0000, blade_speed: 8.2500, time: 8, energy_Wh: 90),
  (cut_id: 78, mch_id: 3, mode_id: 12, feed_rate: 31.0000, blade_speed: 8.2500, time: 8, energy_Wh: 90),
  (cut_id: 78, mch_id: 1, mode_id: 13, feed_rate: 31.0000, blade_speed: 11.0000, time: 8, energy_Wh: 51),
  (cut_id: 78, mch_id: 2, mode_id: 13, feed_rate: 31.0000, blade_speed: 11.0000, time: 8, energy_Wh: 51),
  (cut_id: 78, mch_id: 3, mode_id: 13, feed_rate: 31.0000, blade_speed: 11.0000, time: 8, energy_Wh: 51),
  (cut_id: 78, mch_id: 1, mode_id: 14, feed_rate: 31.0000, blade_speed: 13.7500, time: 8, energy_Wh: 102),
  (cut_id: 78, mch_id: 2, mode_id: 14, feed_rate: 31.0000, blade_speed: 13.7500, time: 8, energy_Wh: 102),
  (cut_id: 78, mch_id: 3, mode_id: 14, feed_rate: 31.0000, blade_speed: 13.7500, time: 8, energy_Wh: 102),
  (cut_id: 78, mch_id: 1, mode_id: 15, feed_rate: 31.0000, blade_speed: 16.5000, time: 8, energy_Wh: 50),
  (cut_id: 78, mch_id: 2, mode_id: 15, feed_rate: 31.0000, blade_speed: 16.5000, time: 8, energy_Wh: 50),
  (cut_id: 78, mch_id: 3, mode_id: 15, feed_rate: 31.0000, blade_speed: 16.5000, time: 8, energy_Wh: 50),
  (cut_id: 78, mch_id: 1, mode_id: 16, feed_rate: 38.7500, blade_speed: 5.5000, time: 7, energy_Wh: 72),
  (cut_id: 78, mch_id: 2, mode_id: 16, feed_rate: 38.7500, blade_speed: 5.5000, time: 7, energy_Wh: 72),
  (cut_id: 78, mch_id: 3, mode_id: 16, feed_rate: 38.7500, blade_speed: 5.5000, time: 7, energy_Wh: 72),
  (cut_id: 78, mch_id: 1, mode_id: 17, feed_rate: 38.7500, blade_speed: 8.2500, time: 7, energy_Wh: 85),
  (cut_id: 78, mch_id: 2, mode_id: 17, feed_rate: 38.7500, blade_speed: 8.2500, time: 7, energy_Wh: 85),
  (cut_id: 78, mch_id: 3, mode_id: 17, feed_rate: 38.7500, blade_speed: 8.2500, time: 7, energy_Wh: 85),
  (cut_id: 78, mch_id: 1, mode_id: 18, feed_rate: 38.7500, blade_speed: 11.0000, time: 7, energy_Wh: 52),
  (cut_id: 78, mch_id: 2, mode_id: 18, feed_rate: 38.7500, blade_speed: 11.0000, time: 7, energy_Wh: 52),
  (cut_id: 78, mch_id: 3, mode_id: 18, feed_rate: 38.7500, blade_speed: 11.0000, time: 7, energy_Wh: 52),
  (cut_id: 78, mch_id: 1, mode_id: 19, feed_rate: 38.7500, blade_speed: 13.7500, time: 7, energy_Wh: 90),
  (cut_id: 78, mch_id: 2, mode_id: 19, feed_rate: 38.7500, blade_speed: 13.7500, time: 7, energy_Wh: 90),
  (cut_id: 78, mch_id: 3, mode_id: 19, feed_rate: 38.7500, blade_speed: 13.7500, time: 7, energy_Wh: 90),
  (cut_id: 78, mch_id: 1, mode_id: 20, feed_rate: 38.7500, blade_speed: 16.5000, time: 7, energy_Wh: 52),
  (cut_id: 78, mch_id: 2, mode_id: 20, feed_rate: 38.7500, blade_speed: 16.5000, time: 7, energy_Wh: 52),
  (cut_id: 78, mch_id: 3, mode_id: 20, feed_rate: 38.7500, blade_speed: 16.5000, time: 7, energy_Wh: 52),
  (cut_id: 78, mch_id: 1, mode_id: 21, feed_rate: 46.5000, blade_speed: 5.5000, time: 6, energy_Wh: 59),
  (cut_id: 78, mch_id: 2, mode_id: 21, feed_rate: 46.5000, blade_speed: 5.5000, time: 6, energy_Wh: 59),
  (cut_id: 78, mch_id: 3, mode_id: 21, feed_rate: 46.5000, blade_speed: 5.5000, time: 6, energy_Wh: 59),
  (cut_id: 78, mch_id: 1, mode_id: 22, feed_rate: 46.5000, blade_speed: 8.2500, time: 6, energy_Wh: 101),
  (cut_id: 78, mch_id: 2, mode_id: 22, feed_rate: 46.5000, blade_speed: 8.2500, time: 6, energy_Wh: 101),
  (cut_id: 78, mch_id: 3, mode_id: 22, feed_rate: 46.5000, blade_speed: 8.2500, time: 6, energy_Wh: 101),
  (cut_id: 78, mch_id: 1, mode_id: 23, feed_rate: 46.5000, blade_speed: 11.0000, time: 6, energy_Wh: 52),
  (cut_id: 78, mch_id: 2, mode_id: 23, feed_rate: 46.5000, blade_speed: 11.0000, time: 6, energy_Wh: 52),
  (cut_id: 78, mch_id: 3, mode_id: 23, feed_rate: 46.5000, blade_speed: 11.0000, time: 6, energy_Wh: 52),
  (cut_id: 78, mch_id: 1, mode_id: 24, feed_rate: 46.5000, blade_speed: 13.7500, time: 6, energy_Wh: 94),
  (cut_id: 78, mch_id: 2, mode_id: 24, feed_rate: 46.5000, blade_speed: 13.7500, time: 6, energy_Wh: 94),
  (cut_id: 78, mch_id: 3, mode_id: 24, feed_rate: 46.5000, blade_speed: 13.7500, time: 6, energy_Wh: 94),
  (cut_id: 78, mch_id: 1, mode_id: 25, feed_rate: 46.5000, blade_speed: 16.5000, time: 6, energy_Wh: 72),
  (cut_id: 78, mch_id: 2, mode_id: 25, feed_rate: 46.5000, blade_speed: 16.5000, time: 6, energy_Wh: 72),
  (cut_id: 78, mch_id: 3, mode_id: 25, feed_rate: 46.5000, blade_speed: 16.5000, time: 6, energy_Wh: 72),
  (cut_id: 79, mch_id: 2, mode_id: 1, feed_rate: 9.0000, blade_speed: 2.2500, time: 116, energy_Wh: 60),
  (cut_id: 79, mch_id: 1, mode_id: 1, feed_rate: 9.0000, blade_speed: 2.2500, time: 116, energy_Wh: 60),
  (cut_id: 79, mch_id: 3, mode_id: 1, feed_rate: 9.0000, blade_speed: 2.2500, time: 116, energy_Wh: 60),
  (cut_id: 79, mch_id: 2, mode_id: 2, feed_rate: 9.0000, blade_speed: 3.3800, time: 116, energy_Wh: 59),
  (cut_id: 79, mch_id: 1, mode_id: 2, feed_rate: 9.0000, blade_speed: 3.3800, time: 116, energy_Wh: 59),
  (cut_id: 79, mch_id: 3, mode_id: 2, feed_rate: 9.0000, blade_speed: 3.3800, time: 116, energy_Wh: 59),
  (cut_id: 79, mch_id: 2, mode_id: 3, feed_rate: 9.0000, blade_speed: 4.5000, time: 116, energy_Wh: 40),
  (cut_id: 79, mch_id: 1, mode_id: 3, feed_rate: 9.0000, blade_speed: 4.5000, time: 116, energy_Wh: 40),
  (cut_id: 79, mch_id: 3, mode_id: 3, feed_rate: 9.0000, blade_speed: 4.5000, time: 116, energy_Wh: 40),
  (cut_id: 79, mch_id: 2, mode_id: 4, feed_rate: 9.0000, blade_speed: 5.6200, time: 116, energy_Wh: 53),
  (cut_id: 79, mch_id: 1, mode_id: 4, feed_rate: 9.0000, blade_speed: 5.6200, time: 116, energy_Wh: 53),
  (cut_id: 79, mch_id: 3, mode_id: 4, feed_rate: 9.0000, blade_speed: 5.6200, time: 116, energy_Wh: 53),
  (cut_id: 79, mch_id: 2, mode_id: 5, feed_rate: 9.0000, blade_speed: 6.7500, time: 116, energy_Wh: 61),
  (cut_id: 79, mch_id: 1, mode_id: 5, feed_rate: 9.0000, blade_speed: 6.7500, time: 116, energy_Wh: 61),
  (cut_id: 79, mch_id: 3, mode_id: 5, feed_rate: 9.0000, blade_speed: 6.7500, time: 116, energy_Wh: 61),
  (cut_id: 79, mch_id: 2, mode_id: 6, feed_rate: 13.5000, blade_speed: 2.2500, time: 78, energy_Wh: 92),
  (cut_id: 79, mch_id: 1, mode_id: 6, feed_rate: 13.5000, blade_speed: 2.2500, time: 78, energy_Wh: 92),
  (cut_id: 79, mch_id: 3, mode_id: 6, feed_rate: 13.5000, blade_speed: 2.2500, time: 78, energy_Wh: 92),
  (cut_id: 79, mch_id: 2, mode_id: 7, feed_rate: 13.5000, blade_speed: 3.3800, time: 78, energy_Wh: 71),
  (cut_id: 79, mch_id: 1, mode_id: 7, feed_rate: 13.5000, blade_speed: 3.3800, time: 78, energy_Wh: 71),
  (cut_id: 79, mch_id: 3, mode_id: 7, feed_rate: 13.5000, blade_speed: 3.3800, time: 78, energy_Wh: 71),
  (cut_id: 79, mch_id: 2, mode_id: 8, feed_rate: 13.5000, blade_speed: 4.5000, time: 78, energy_Wh: 55),
  (cut_id: 79, mch_id: 1, mode_id: 8, feed_rate: 13.5000, blade_speed: 4.5000, time: 78, energy_Wh: 55),
  (cut_id: 79, mch_id: 3, mode_id: 8, feed_rate: 13.5000, blade_speed: 4.5000, time: 78, energy_Wh: 55),
  (cut_id: 79, mch_id: 2, mode_id: 9, feed_rate: 13.5000, blade_speed: 5.6200, time: 78, energy_Wh: 71),
  (cut_id: 79, mch_id: 1, mode_id: 9, feed_rate: 13.5000, blade_speed: 5.6200, time: 78, energy_Wh: 71),
  (cut_id: 79, mch_id: 3, mode_id: 9, feed_rate: 13.5000, blade_speed: 5.6200, time: 78, energy_Wh: 71),
  (cut_id: 79, mch_id: 2, mode_id: 10, feed_rate: 13.5000, blade_speed: 6.7500, time: 78, energy_Wh: 107),
  (cut_id: 79, mch_id: 1, mode_id: 10, feed_rate: 13.5000, blade_speed: 6.7500, time: 78, energy_Wh: 107),
  (cut_id: 79, mch_id: 3, mode_id: 10, feed_rate: 13.5000, blade_speed: 6.7500, time: 78, energy_Wh: 107),
  (cut_id: 79, mch_id: 2, mode_id: 11, feed_rate: 18.0000, blade_speed: 2.2500, time: 58, energy_Wh: 124),
  (cut_id: 79, mch_id: 1, mode_id: 11, feed_rate: 18.0000, blade_speed: 2.2500, time: 58, energy_Wh: 124),
  (cut_id: 79, mch_id: 3, mode_id: 11, feed_rate: 18.0000, blade_speed: 2.2500, time: 58, energy_Wh: 124),
  (cut_id: 79, mch_id: 2, mode_id: 12, feed_rate: 18.0000, blade_speed: 3.3800, time: 58, energy_Wh: 97),
  (cut_id: 79, mch_id: 1, mode_id: 12, feed_rate: 18.0000, blade_speed: 3.3800, time: 58, energy_Wh: 97),
  (cut_id: 79, mch_id: 3, mode_id: 12, feed_rate: 18.0000, blade_speed: 3.3800, time: 58, energy_Wh: 97),
  (cut_id: 79, mch_id: 2, mode_id: 13, feed_rate: 18.0000, blade_speed: 4.5000, time: 58, energy_Wh: 61),
  (cut_id: 79, mch_id: 1, mode_id: 13, feed_rate: 18.0000, blade_speed: 4.5000, time: 58, energy_Wh: 61),
  (cut_id: 79, mch_id: 3, mode_id: 13, feed_rate: 18.0000, blade_speed: 4.5000, time: 58, energy_Wh: 61),
  (cut_id: 79, mch_id: 2, mode_id: 14, feed_rate: 18.0000, blade_speed: 5.6200, time: 58, energy_Wh: 75),
  (cut_id: 79, mch_id: 1, mode_id: 14, feed_rate: 18.0000, blade_speed: 5.6200, time: 58, energy_Wh: 75),
  (cut_id: 79, mch_id: 3, mode_id: 14, feed_rate: 18.0000, blade_speed: 5.6200, time: 58, energy_Wh: 75),
  (cut_id: 79, mch_id: 2, mode_id: 15, feed_rate: 18.0000, blade_speed: 6.7500, time: 58, energy_Wh: 85),
  (cut_id: 79, mch_id: 1, mode_id: 15, feed_rate: 18.0000, blade_speed: 6.7500, time: 58, energy_Wh: 85),
  (cut_id: 79, mch_id: 3, mode_id: 15, feed_rate: 18.0000, blade_speed: 6.7500, time: 58, energy_Wh: 85),
  (cut_id: 79, mch_id: 2, mode_id: 16, feed_rate: 22.5000, blade_speed: 2.2500, time: 47, energy_Wh: 145),
  (cut_id: 79, mch_id: 1, mode_id: 16, feed_rate: 22.5000, blade_speed: 2.2500, time: 47, energy_Wh: 145),
  (cut_id: 79, mch_id: 3, mode_id: 16, feed_rate: 22.5000, blade_speed: 2.2500, time: 47, energy_Wh: 145),
  (cut_id: 79, mch_id: 2, mode_id: 17, feed_rate: 22.5000, blade_speed: 3.3800, time: 47, energy_Wh: 110),
  (cut_id: 79, mch_id: 1, mode_id: 17, feed_rate: 22.5000, blade_speed: 3.3800, time: 47, energy_Wh: 110),
  (cut_id: 79, mch_id: 3, mode_id: 17, feed_rate: 22.5000, blade_speed: 3.3800, time: 47, energy_Wh: 110),
  (cut_id: 79, mch_id: 2, mode_id: 18, feed_rate: 22.5000, blade_speed: 4.5000, time: 47, energy_Wh: 78),
  (cut_id: 79, mch_id: 1, mode_id: 18, feed_rate: 22.5000, blade_speed: 4.5000, time: 47, energy_Wh: 78),
  (cut_id: 79, mch_id: 3, mode_id: 18, feed_rate: 22.5000, blade_speed: 4.5000, time: 47, energy_Wh: 78),
  (cut_id: 79, mch_id: 2, mode_id: 19, feed_rate: 22.5000, blade_speed: 5.6200, time: 47, energy_Wh: 77),
  (cut_id: 79, mch_id: 1, mode_id: 19, feed_rate: 22.5000, blade_speed: 5.6200, time: 47, energy_Wh: 77),
  (cut_id: 79, mch_id: 3, mode_id: 19, feed_rate: 22.5000, blade_speed: 5.6200, time: 47, energy_Wh: 77),
  (cut_id: 79, mch_id: 2, mode_id: 20, feed_rate: 22.5000, blade_speed: 6.7500, time: 47, energy_Wh: 108),
  (cut_id: 79, mch_id: 1, mode_id: 20, feed_rate: 22.5000, blade_speed: 6.7500, time: 47, energy_Wh: 108),
  (cut_id: 79, mch_id: 3, mode_id: 20, feed_rate: 22.5000, blade_speed: 6.7500, time: 47, energy_Wh: 108),
  (cut_id: 79, mch_id: 2, mode_id: 21, feed_rate: 27.0000, blade_speed: 2.2500, time: 39, energy_Wh: 138),
  (cut_id: 79, mch_id: 1, mode_id: 21, feed_rate: 27.0000, blade_speed: 2.2500, time: 39, energy_Wh: 138),
  (cut_id: 79, mch_id: 3, mode_id: 21, feed_rate: 27.0000, blade_speed: 2.2500, time: 39, energy_Wh: 138),
  (cut_id: 79, mch_id: 2, mode_id: 22, feed_rate: 27.0000, blade_speed: 3.3800, time: 39, energy_Wh: 95),
  (cut_id: 79, mch_id: 1, mode_id: 22, feed_rate: 27.0000, blade_speed: 3.3800, time: 39, energy_Wh: 95),
  (cut_id: 79, mch_id: 3, mode_id: 22, feed_rate: 27.0000, blade_speed: 3.3800, time: 39, energy_Wh: 95),
  (cut_id: 79, mch_id: 2, mode_id: 23, feed_rate: 27.0000, blade_speed: 4.5000, time: 39, energy_Wh: 76),
  (cut_id: 79, mch_id: 1, mode_id: 23, feed_rate: 27.0000, blade_speed: 4.5000, time: 39, energy_Wh: 76),
  (cut_id: 79, mch_id: 3, mode_id: 23, feed_rate: 27.0000, blade_speed: 4.5000, time: 39, energy_Wh: 76),
  (cut_id: 79, mch_id: 2, mode_id: 24, feed_rate: 27.0000, blade_speed: 5.6200, time: 39, energy_Wh: 78),
  (cut_id: 79, mch_id: 1, mode_id: 24, feed_rate: 27.0000, blade_speed: 5.6200, time: 39, energy_Wh: 78),
  (cut_id: 79, mch_id: 3, mode_id: 24, feed_rate: 27.0000, blade_speed: 5.6200, time: 39, energy_Wh: 78),
  (cut_id: 79, mch_id: 2, mode_id: 25, feed_rate: 27.0000, blade_speed: 6.7500, time: 39, energy_Wh: 138),
  (cut_id: 79, mch_id: 1, mode_id: 25, feed_rate: 27.0000, blade_speed: 6.7500, time: 39, energy_Wh: 138),
  (cut_id: 79, mch_id: 3, mode_id: 25, feed_rate: 27.0000, blade_speed: 6.7500, time: 39, energy_Wh: 138),
  (cut_id: 80, mch_id: 3, mode_id: 1, feed_rate: 35.0000, blade_speed: 12.0000, time: 5, energy_Wh: 48),
  (cut_id: 80, mch_id: 1, mode_id: 1, feed_rate: 35.0000, blade_speed: 12.0000, time: 5, energy_Wh: 48),
  (cut_id: 80, mch_id: 2, mode_id: 1, feed_rate: 35.0000, blade_speed: 12.0000, time: 5, energy_Wh: 48),
  (cut_id: 80, mch_id: 3, mode_id: 2, feed_rate: 35.0000, blade_speed: 18.0000, time: 5, energy_Wh: 55),
  (cut_id: 80, mch_id: 1, mode_id: 2, feed_rate: 35.0000, blade_speed: 18.0000, time: 5, energy_Wh: 55),
  (cut_id: 80, mch_id: 2, mode_id: 2, feed_rate: 35.0000, blade_speed: 18.0000, time: 5, energy_Wh: 55),
  (cut_id: 80, mch_id: 3, mode_id: 3, feed_rate: 35.0000, blade_speed: 24.0000, time: 5, energy_Wh: 55),
  (cut_id: 80, mch_id: 1, mode_id: 3, feed_rate: 35.0000, blade_speed: 24.0000, time: 5, energy_Wh: 55),
  (cut_id: 80, mch_id: 2, mode_id: 3, feed_rate: 35.0000, blade_speed: 24.0000, time: 5, energy_Wh: 55),
  (cut_id: 80, mch_id: 3, mode_id: 4, feed_rate: 35.0000, blade_speed: 30.0000, time: 5, energy_Wh: 38),
  (cut_id: 80, mch_id: 1, mode_id: 4, feed_rate: 35.0000, blade_speed: 30.0000, time: 5, energy_Wh: 38),
  (cut_id: 80, mch_id: 2, mode_id: 4, feed_rate: 35.0000, blade_speed: 30.0000, time: 5, energy_Wh: 38),
  (cut_id: 80, mch_id: 3, mode_id: 5, feed_rate: 35.0000, blade_speed: 36.0000, time: 5, energy_Wh: 53),
  (cut_id: 80, mch_id: 1, mode_id: 5, feed_rate: 35.0000, blade_speed: 36.0000, time: 5, energy_Wh: 53),
  (cut_id: 80, mch_id: 2, mode_id: 5, feed_rate: 35.0000, blade_speed: 36.0000, time: 5, energy_Wh: 53),
  (cut_id: 80, mch_id: 3, mode_id: 6, feed_rate: 52.5000, blade_speed: 12.0000, time: 3, energy_Wh: 80),
  (cut_id: 80, mch_id: 1, mode_id: 6, feed_rate: 52.5000, blade_speed: 12.0000, time: 3, energy_Wh: 80),
  (cut_id: 80, mch_id: 2, mode_id: 6, feed_rate: 52.5000, blade_speed: 12.0000, time: 3, energy_Wh: 80),
  (cut_id: 80, mch_id: 3, mode_id: 7, feed_rate: 52.5000, blade_speed: 18.0000, time: 3, energy_Wh: 57),
  (cut_id: 80, mch_id: 1, mode_id: 7, feed_rate: 52.5000, blade_speed: 18.0000, time: 3, energy_Wh: 57),
  (cut_id: 80, mch_id: 2, mode_id: 7, feed_rate: 52.5000, blade_speed: 18.0000, time: 3, energy_Wh: 57),
  (cut_id: 80, mch_id: 3, mode_id: 8, feed_rate: 52.5000, blade_speed: 24.0000, time: 3, energy_Wh: 47),
  (cut_id: 80, mch_id: 1, mode_id: 8, feed_rate: 52.5000, blade_speed: 24.0000, time: 3, energy_Wh: 47),
  (cut_id: 80, mch_id: 2, mode_id: 8, feed_rate: 52.5000, blade_speed: 24.0000, time: 3, energy_Wh: 47),
  (cut_id: 80, mch_id: 3, mode_id: 9, feed_rate: 52.5000, blade_speed: 30.0000, time: 3, energy_Wh: 49),
  (cut_id: 80, mch_id: 1, mode_id: 9, feed_rate: 52.5000, blade_speed: 30.0000, time: 3, energy_Wh: 49),
  (cut_id: 80, mch_id: 2, mode_id: 9, feed_rate: 52.5000, blade_speed: 30.0000, time: 3, energy_Wh: 49),
  (cut_id: 80, mch_id: 3, mode_id: 10, feed_rate: 52.5000, blade_speed: 36.0000, time: 3, energy_Wh: 65),
  (cut_id: 80, mch_id: 1, mode_id: 10, feed_rate: 52.5000, blade_speed: 36.0000, time: 3, energy_Wh: 65),
  (cut_id: 80, mch_id: 2, mode_id: 10, feed_rate: 52.5000, blade_speed: 36.0000, time: 3, energy_Wh: 65),
  (cut_id: 80, mch_id: 3, mode_id: 11, feed_rate: 70.0000, blade_speed: 12.0000, time: 3, energy_Wh: 95),
  (cut_id: 80, mch_id: 1, mode_id: 11, feed_rate: 70.0000, blade_speed: 12.0000, time: 3, energy_Wh: 95),
  (cut_id: 80, mch_id: 2, mode_id: 11, feed_rate: 70.0000, blade_speed: 12.0000, time: 3, energy_Wh: 95),
  (cut_id: 80, mch_id: 3, mode_id: 12, feed_rate: 70.0000, blade_speed: 18.0000, time: 3, energy_Wh: 72),
  (cut_id: 80, mch_id: 1, mode_id: 12, feed_rate: 70.0000, blade_speed: 18.0000, time: 3, energy_Wh: 72),
  (cut_id: 80, mch_id: 2, mode_id: 12, feed_rate: 70.0000, blade_speed: 18.0000, time: 3, energy_Wh: 72),
  (cut_id: 80, mch_id: 3, mode_id: 13, feed_rate: 70.0000, blade_speed: 24.0000, time: 3, energy_Wh: 73),
  (cut_id: 80, mch_id: 1, mode_id: 13, feed_rate: 70.0000, blade_speed: 24.0000, time: 3, energy_Wh: 73),
  (cut_id: 80, mch_id: 2, mode_id: 13, feed_rate: 70.0000, blade_speed: 24.0000, time: 3, energy_Wh: 73),
  (cut_id: 80, mch_id: 3, mode_id: 14, feed_rate: 70.0000, blade_speed: 30.0000, time: 3, energy_Wh: 78),
  (cut_id: 80, mch_id: 1, mode_id: 14, feed_rate: 70.0000, blade_speed: 30.0000, time: 3, energy_Wh: 78),
  (cut_id: 80, mch_id: 2, mode_id: 14, feed_rate: 70.0000, blade_speed: 30.0000, time: 3, energy_Wh: 78),
  (cut_id: 80, mch_id: 3, mode_id: 15, feed_rate: 70.0000, blade_speed: 36.0000, time: 3, energy_Wh: 72),
  (cut_id: 80, mch_id: 1, mode_id: 15, feed_rate: 70.0000, blade_speed: 36.0000, time: 3, energy_Wh: 72),
  (cut_id: 80, mch_id: 2, mode_id: 15, feed_rate: 70.0000, blade_speed: 36.0000, time: 3, energy_Wh: 72),
  (cut_id: 80, mch_id: 3, mode_id: 16, feed_rate: 87.5000, blade_speed: 12.0000, time: 2, energy_Wh: 121),
  (cut_id: 80, mch_id: 1, mode_id: 16, feed_rate: 87.5000, blade_speed: 12.0000, time: 2, energy_Wh: 121),
  (cut_id: 80, mch_id: 2, mode_id: 16, feed_rate: 87.5000, blade_speed: 12.0000, time: 2, energy_Wh: 121),
  (cut_id: 80, mch_id: 3, mode_id: 17, feed_rate: 87.5000, blade_speed: 18.0000, time: 2, energy_Wh: 86),
  (cut_id: 80, mch_id: 1, mode_id: 17, feed_rate: 87.5000, blade_speed: 18.0000, time: 2, energy_Wh: 86),
  (cut_id: 80, mch_id: 2, mode_id: 17, feed_rate: 87.5000, blade_speed: 18.0000, time: 2, energy_Wh: 86),
  (cut_id: 80, mch_id: 3, mode_id: 18, feed_rate: 87.5000, blade_speed: 24.0000, time: 2, energy_Wh: 84),
  (cut_id: 80, mch_id: 1, mode_id: 18, feed_rate: 87.5000, blade_speed: 24.0000, time: 2, energy_Wh: 84),
  (cut_id: 80, mch_id: 2, mode_id: 18, feed_rate: 87.5000, blade_speed: 24.0000, time: 2, energy_Wh: 84),
  (cut_id: 80, mch_id: 3, mode_id: 19, feed_rate: 87.5000, blade_speed: 30.0000, time: 2, energy_Wh: 85),
  (cut_id: 80, mch_id: 1, mode_id: 19, feed_rate: 87.5000, blade_speed: 30.0000, time: 2, energy_Wh: 85),
  (cut_id: 80, mch_id: 2, mode_id: 19, feed_rate: 87.5000, blade_speed: 30.0000, time: 2, energy_Wh: 85),
  (cut_id: 80, mch_id: 3, mode_id: 20, feed_rate: 87.5000, blade_speed: 36.0000, time: 2, energy_Wh: 107),
  (cut_id: 80, mch_id: 1, mode_id: 20, feed_rate: 87.5000, blade_speed: 36.0000, time: 2, energy_Wh: 107),
  (cut_id: 80, mch_id: 2, mode_id: 20, feed_rate: 87.5000, blade_speed: 36.0000, time: 2, energy_Wh: 107),
  (cut_id: 80, mch_id: 3, mode_id: 21, feed_rate: 105.0000, blade_speed: 12.0000, time: 2, energy_Wh: 132),
  (cut_id: 80, mch_id: 1, mode_id: 21, feed_rate: 105.0000, blade_speed: 12.0000, time: 2, energy_Wh: 132),
  (cut_id: 80, mch_id: 2, mode_id: 21, feed_rate: 105.0000, blade_speed: 12.0000, time: 2, energy_Wh: 132),
  (cut_id: 80, mch_id: 3, mode_id: 22, feed_rate: 105.0000, blade_speed: 18.0000, time: 2, energy_Wh: 108),
  (cut_id: 80, mch_id: 1, mode_id: 22, feed_rate: 105.0000, blade_speed: 18.0000, time: 2, energy_Wh: 108),
  (cut_id: 80, mch_id: 2, mode_id: 22, feed_rate: 105.0000, blade_speed: 18.0000, time: 2, energy_Wh: 108),
  (cut_id: 80, mch_id: 3, mode_id: 23, feed_rate: 105.0000, blade_speed: 24.0000, time: 2, energy_Wh: 141),
  (cut_id: 80, mch_id: 1, mode_id: 23, feed_rate: 105.0000, blade_speed: 24.0000, time: 2, energy_Wh: 141),
  (cut_id: 80, mch_id: 2, mode_id: 23, feed_rate: 105.0000, blade_speed: 24.0000, time: 2, energy_Wh: 141),
  (cut_id: 80, mch_id: 3, mode_id: 24, feed_rate: 105.0000, blade_speed: 30.0000, time: 2, energy_Wh: 105),
  (cut_id: 80, mch_id: 1, mode_id: 24, feed_rate: 105.0000, blade_speed: 30.0000, time: 2, energy_Wh: 105),
  (cut_id: 80, mch_id: 2, mode_id: 24, feed_rate: 105.0000, blade_speed: 30.0000, time: 2, energy_Wh: 105),
  (cut_id: 80, mch_id: 3, mode_id: 25, feed_rate: 105.0000, blade_speed: 36.0000, time: 2, energy_Wh: 137),
  (cut_id: 80, mch_id: 1, mode_id: 25, feed_rate: 105.0000, blade_speed: 36.0000, time: 2, energy_Wh: 137),
  (cut_id: 80, mch_id: 2, mode_id: 25, feed_rate: 105.0000, blade_speed: 36.0000, time: 2, energy_Wh: 137),
  (cut_id: 81, mch_id: 3, mode_id: 1, feed_rate: 18.5000, blade_speed: 11.0000, time: 2, energy_Wh: 20),
  (cut_id: 81, mch_id: 2, mode_id: 1, feed_rate: 18.5000, blade_speed: 11.0000, time: 2, energy_Wh: 20),
  (cut_id: 81, mch_id: 1, mode_id: 1, feed_rate: 18.5000, blade_speed: 11.0000, time: 2, energy_Wh: 20),
  (cut_id: 81, mch_id: 3, mode_id: 2, feed_rate: 18.5000, blade_speed: 16.5000, time: 2, energy_Wh: 20),
  (cut_id: 81, mch_id: 2, mode_id: 2, feed_rate: 18.5000, blade_speed: 16.5000, time: 2, energy_Wh: 20),
  (cut_id: 81, mch_id: 1, mode_id: 2, feed_rate: 18.5000, blade_speed: 16.5000, time: 2, energy_Wh: 20),
  (cut_id: 81, mch_id: 3, mode_id: 3, feed_rate: 18.5000, blade_speed: 22.0000, time: 2, energy_Wh: 22),
  (cut_id: 81, mch_id: 2, mode_id: 3, feed_rate: 18.5000, blade_speed: 22.0000, time: 2, energy_Wh: 22),
  (cut_id: 81, mch_id: 1, mode_id: 3, feed_rate: 18.5000, blade_speed: 22.0000, time: 2, energy_Wh: 22),
  (cut_id: 81, mch_id: 3, mode_id: 4, feed_rate: 18.5000, blade_speed: 27.5000, time: 2, energy_Wh: 27),
  (cut_id: 81, mch_id: 2, mode_id: 4, feed_rate: 18.5000, blade_speed: 27.5000, time: 2, energy_Wh: 27),
  (cut_id: 81, mch_id: 1, mode_id: 4, feed_rate: 18.5000, blade_speed: 27.5000, time: 2, energy_Wh: 27),
  (cut_id: 81, mch_id: 3, mode_id: 5, feed_rate: 18.5000, blade_speed: 33.0000, time: 2, energy_Wh: 30),
  (cut_id: 81, mch_id: 2, mode_id: 5, feed_rate: 18.5000, blade_speed: 33.0000, time: 2, energy_Wh: 30),
  (cut_id: 81, mch_id: 1, mode_id: 5, feed_rate: 18.5000, blade_speed: 33.0000, time: 2, energy_Wh: 30),
  (cut_id: 81, mch_id: 3, mode_id: 6, feed_rate: 27.7500, blade_speed: 11.0000, time: 1, energy_Wh: 20),
  (cut_id: 81, mch_id: 2, mode_id: 6, feed_rate: 27.7500, blade_speed: 11.0000, time: 1, energy_Wh: 20),
  (cut_id: 81, mch_id: 1, mode_id: 6, feed_rate: 27.7500, blade_speed: 11.0000, time: 1, energy_Wh: 20),
  (cut_id: 81, mch_id: 3, mode_id: 7, feed_rate: 27.7500, blade_speed: 16.5000, time: 1, energy_Wh: 21),
  (cut_id: 81, mch_id: 2, mode_id: 7, feed_rate: 27.7500, blade_speed: 16.5000, time: 1, energy_Wh: 21),
  (cut_id: 81, mch_id: 1, mode_id: 7, feed_rate: 27.7500, blade_speed: 16.5000, time: 1, energy_Wh: 21),
  (cut_id: 81, mch_id: 3, mode_id: 8, feed_rate: 27.7500, blade_speed: 22.0000, time: 1, energy_Wh: 30),
  (cut_id: 81, mch_id: 2, mode_id: 8, feed_rate: 27.7500, blade_speed: 22.0000, time: 1, energy_Wh: 30),
  (cut_id: 81, mch_id: 1, mode_id: 8, feed_rate: 27.7500, blade_speed: 22.0000, time: 1, energy_Wh: 30),
  (cut_id: 81, mch_id: 3, mode_id: 9, feed_rate: 27.7500, blade_speed: 27.5000, time: 1, energy_Wh: 31),
  (cut_id: 81, mch_id: 2, mode_id: 9, feed_rate: 27.7500, blade_speed: 27.5000, time: 1, energy_Wh: 31),
  (cut_id: 81, mch_id: 1, mode_id: 9, feed_rate: 27.7500, blade_speed: 27.5000, time: 1, energy_Wh: 31),
  (cut_id: 81, mch_id: 3, mode_id: 10, feed_rate: 27.7500, blade_speed: 33.0000, time: 1, energy_Wh: 32),
  (cut_id: 81, mch_id: 2, mode_id: 10, feed_rate: 27.7500, blade_speed: 33.0000, time: 1, energy_Wh: 32),
  (cut_id: 81, mch_id: 1, mode_id: 10, feed_rate: 27.7500, blade_speed: 33.0000, time: 1, energy_Wh: 32),
  (cut_id: 81, mch_id: 3, mode_id: 11, feed_rate: 37.0000, blade_speed: 11.0000, time: 1, energy_Wh: 21),
  (cut_id: 81, mch_id: 2, mode_id: 11, feed_rate: 37.0000, blade_speed: 11.0000, time: 1, energy_Wh: 21),
  (cut_id: 81, mch_id: 1, mode_id: 11, feed_rate: 37.0000, blade_speed: 11.0000, time: 1, energy_Wh: 21),
  (cut_id: 81, mch_id: 3, mode_id: 12, feed_rate: 37.0000, blade_speed: 16.5000, time: 1, energy_Wh: 27),
  (cut_id: 81, mch_id: 2, mode_id: 12, feed_rate: 37.0000, blade_speed: 16.5000, time: 1, energy_Wh: 27),
  (cut_id: 81, mch_id: 1, mode_id: 12, feed_rate: 37.0000, blade_speed: 16.5000, time: 1, energy_Wh: 27),
  (cut_id: 81, mch_id: 3, mode_id: 13, feed_rate: 37.0000, blade_speed: 22.0000, time: 1, energy_Wh: 31),
  (cut_id: 81, mch_id: 2, mode_id: 13, feed_rate: 37.0000, blade_speed: 22.0000, time: 1, energy_Wh: 31),
  (cut_id: 81, mch_id: 1, mode_id: 13, feed_rate: 37.0000, blade_speed: 22.0000, time: 1, energy_Wh: 31),
  (cut_id: 81, mch_id: 3, mode_id: 14, feed_rate: 37.0000, blade_speed: 27.5000, time: 1, energy_Wh: 39),
  (cut_id: 81, mch_id: 2, mode_id: 14, feed_rate: 37.0000, blade_speed: 27.5000, time: 1, energy_Wh: 39),
  (cut_id: 81, mch_id: 1, mode_id: 14, feed_rate: 37.0000, blade_speed: 27.5000, time: 1, energy_Wh: 39),
  (cut_id: 81, mch_id: 3, mode_id: 15, feed_rate: 37.0000, blade_speed: 33.0000, time: 1, energy_Wh: 41),
  (cut_id: 81, mch_id: 2, mode_id: 15, feed_rate: 37.0000, blade_speed: 33.0000, time: 1, energy_Wh: 41),
  (cut_id: 81, mch_id: 1, mode_id: 15, feed_rate: 37.0000, blade_speed: 33.0000, time: 1, energy_Wh: 41),
  (cut_id: 81, mch_id: 3, mode_id: 16, feed_rate: 46.2500, blade_speed: 11.0000, time: 1, energy_Wh: 29),
  (cut_id: 81, mch_id: 2, mode_id: 16, feed_rate: 46.2500, blade_speed: 11.0000, time: 1, energy_Wh: 29),
  (cut_id: 81, mch_id: 1, mode_id: 16, feed_rate: 46.2500, blade_speed: 11.0000, time: 1, energy_Wh: 29),
  (cut_id: 81, mch_id: 3, mode_id: 17, feed_rate: 46.2500, blade_speed: 16.5000, time: 1, energy_Wh: 36),
  (cut_id: 81, mch_id: 2, mode_id: 17, feed_rate: 46.2500, blade_speed: 16.5000, time: 1, energy_Wh: 36),
  (cut_id: 81, mch_id: 1, mode_id: 17, feed_rate: 46.2500, blade_speed: 16.5000, time: 1, energy_Wh: 36),
  (cut_id: 81, mch_id: 3, mode_id: 18, feed_rate: 46.2500, blade_speed: 22.0000, time: 1, energy_Wh: 35),
  (cut_id: 81, mch_id: 2, mode_id: 18, feed_rate: 46.2500, blade_speed: 22.0000, time: 1, energy_Wh: 35),
  (cut_id: 81, mch_id: 1, mode_id: 18, feed_rate: 46.2500, blade_speed: 22.0000, time: 1, energy_Wh: 35),
  (cut_id: 81, mch_id: 3, mode_id: 19, feed_rate: 46.2500, blade_speed: 27.5000, time: 1, energy_Wh: 48),
  (cut_id: 81, mch_id: 2, mode_id: 19, feed_rate: 46.2500, blade_speed: 27.5000, time: 1, energy_Wh: 48),
  (cut_id: 81, mch_id: 1, mode_id: 19, feed_rate: 46.2500, blade_speed: 27.5000, time: 1, energy_Wh: 48),
  (cut_id: 81, mch_id: 3, mode_id: 20, feed_rate: 46.2500, blade_speed: 33.0000, time: 1, energy_Wh: 64),
  (cut_id: 81, mch_id: 2, mode_id: 20, feed_rate: 46.2500, blade_speed: 33.0000, time: 1, energy_Wh: 64),
  (cut_id: 81, mch_id: 1, mode_id: 20, feed_rate: 46.2500, blade_speed: 33.0000, time: 1, energy_Wh: 64),
  (cut_id: 81, mch_id: 3, mode_id: 21, feed_rate: 55.5000, blade_speed: 11.0000, time: 1, energy_Wh: 30),
  (cut_id: 81, mch_id: 2, mode_id: 21, feed_rate: 55.5000, blade_speed: 11.0000, time: 1, energy_Wh: 30),
  (cut_id: 81, mch_id: 1, mode_id: 21, feed_rate: 55.5000, blade_speed: 11.0000, time: 1, energy_Wh: 30),
  (cut_id: 81, mch_id: 3, mode_id: 22, feed_rate: 55.5000, blade_speed: 16.5000, time: 1, energy_Wh: 49),
  (cut_id: 81, mch_id: 2, mode_id: 22, feed_rate: 55.5000, blade_speed: 16.5000, time: 1, energy_Wh: 49),
  (cut_id: 81, mch_id: 1, mode_id: 22, feed_rate: 55.5000, blade_speed: 16.5000, time: 1, energy_Wh: 49),
  (cut_id: 81, mch_id: 3, mode_id: 23, feed_rate: 55.5000, blade_speed: 22.0000, time: 1, energy_Wh: 44),
  (cut_id: 81, mch_id: 2, mode_id: 23, feed_rate: 55.5000, blade_speed: 22.0000, time: 1, energy_Wh: 44),
  (cut_id: 81, mch_id: 1, mode_id: 23, feed_rate: 55.5000, blade_speed: 22.0000, time: 1, energy_Wh: 44),
  (cut_id: 81, mch_id: 3, mode_id: 24, feed_rate: 55.5000, blade_speed: 27.5000, time: 1, energy_Wh: 59),
  (cut_id: 81, mch_id: 2, mode_id: 24, feed_rate: 55.5000, blade_speed: 27.5000, time: 1, energy_Wh: 59),
  (cut_id: 81, mch_id: 1, mode_id: 24, feed_rate: 55.5000, blade_speed: 27.5000, time: 1, energy_Wh: 59),
  (cut_id: 81, mch_id: 3, mode_id: 25, feed_rate: 55.5000, blade_speed: 33.0000, time: 1, energy_Wh: 80),
  (cut_id: 81, mch_id: 2, mode_id: 25, feed_rate: 55.5000, blade_speed: 33.0000, time: 1, energy_Wh: 80),
  (cut_id: 81, mch_id: 1, mode_id: 25, feed_rate: 55.5000, blade_speed: 33.0000, time: 1, energy_Wh: 80),
  (cut_id: 82, mch_id: 3, mode_id: 1, feed_rate: 17.5000, blade_speed: 50.0000, time: 2, energy_Wh: 23),
  (cut_id: 82, mch_id: 2, mode_id: 1, feed_rate: 17.5000, blade_speed: 50.0000, time: 2, energy_Wh: 23),
  (cut_id: 82, mch_id: 1, mode_id: 1, feed_rate: 17.5000, blade_speed: 50.0000, time: 2, energy_Wh: 23),
  (cut_id: 82, mch_id: 3, mode_id: 2, feed_rate: 17.5000, blade_speed: 75.0000, time: 2, energy_Wh: 24),
  (cut_id: 82, mch_id: 2, mode_id: 2, feed_rate: 17.5000, blade_speed: 75.0000, time: 2, energy_Wh: 24),
  (cut_id: 82, mch_id: 1, mode_id: 2, feed_rate: 17.5000, blade_speed: 75.0000, time: 2, energy_Wh: 24),
  (cut_id: 82, mch_id: 3, mode_id: 3, feed_rate: 17.5000, blade_speed: 100.0000, time: 2, energy_Wh: 19),
  (cut_id: 82, mch_id: 2, mode_id: 3, feed_rate: 17.5000, blade_speed: 100.0000, time: 2, energy_Wh: 19),
  (cut_id: 82, mch_id: 1, mode_id: 3, feed_rate: 17.5000, blade_speed: 100.0000, time: 2, energy_Wh: 19),
  (cut_id: 82, mch_id: 3, mode_id: 4, feed_rate: 17.5000, blade_speed: 125.0000, time: 2, energy_Wh: 17),
  (cut_id: 82, mch_id: 2, mode_id: 4, feed_rate: 17.5000, blade_speed: 125.0000, time: 2, energy_Wh: 17),
  (cut_id: 82, mch_id: 1, mode_id: 4, feed_rate: 17.5000, blade_speed: 125.0000, time: 2, energy_Wh: 17),
  (cut_id: 82, mch_id: 3, mode_id: 5, feed_rate: 17.5000, blade_speed: 150.0000, time: 2, energy_Wh: 23),
  (cut_id: 82, mch_id: 2, mode_id: 5, feed_rate: 17.5000, blade_speed: 150.0000, time: 2, energy_Wh: 23),
  (cut_id: 82, mch_id: 1, mode_id: 5, feed_rate: 17.5000, blade_speed: 150.0000, time: 2, energy_Wh: 23),
  (cut_id: 82, mch_id: 3, mode_id: 6, feed_rate: 26.2500, blade_speed: 50.0000, time: 1, energy_Wh: 21),
  (cut_id: 82, mch_id: 2, mode_id: 6, feed_rate: 26.2500, blade_speed: 50.0000, time: 1, energy_Wh: 21),
  (cut_id: 82, mch_id: 1, mode_id: 6, feed_rate: 26.2500, blade_speed: 50.0000, time: 1, energy_Wh: 21),
  (cut_id: 82, mch_id: 3, mode_id: 7, feed_rate: 26.2500, blade_speed: 75.0000, time: 1, energy_Wh: 27),
  (cut_id: 82, mch_id: 2, mode_id: 7, feed_rate: 26.2500, blade_speed: 75.0000, time: 1, energy_Wh: 27),
  (cut_id: 82, mch_id: 1, mode_id: 7, feed_rate: 26.2500, blade_speed: 75.0000, time: 1, energy_Wh: 27),
  (cut_id: 82, mch_id: 3, mode_id: 8, feed_rate: 26.2500, blade_speed: 100.0000, time: 1, energy_Wh: 20),
  (cut_id: 82, mch_id: 2, mode_id: 8, feed_rate: 26.2500, blade_speed: 100.0000, time: 1, energy_Wh: 20),
  (cut_id: 82, mch_id: 1, mode_id: 8, feed_rate: 26.2500, blade_speed: 100.0000, time: 1, energy_Wh: 20),
  (cut_id: 82, mch_id: 3, mode_id: 9, feed_rate: 26.2500, blade_speed: 125.0000, time: 1, energy_Wh: 22),
  (cut_id: 82, mch_id: 2, mode_id: 9, feed_rate: 26.2500, blade_speed: 125.0000, time: 1, energy_Wh: 22),
  (cut_id: 82, mch_id: 1, mode_id: 9, feed_rate: 26.2500, blade_speed: 125.0000, time: 1, energy_Wh: 22),
  (cut_id: 82, mch_id: 3, mode_id: 10, feed_rate: 26.2500, blade_speed: 150.0000, time: 1, energy_Wh: 19),
  (cut_id: 82, mch_id: 2, mode_id: 10, feed_rate: 26.2500, blade_speed: 150.0000, time: 1, energy_Wh: 19),
  (cut_id: 82, mch_id: 1, mode_id: 10, feed_rate: 26.2500, blade_speed: 150.0000, time: 1, energy_Wh: 19),
  (cut_id: 82, mch_id: 3, mode_id: 11, feed_rate: 35.0000, blade_speed: 50.0000, time: 1, energy_Wh: 37),
  (cut_id: 82, mch_id: 2, mode_id: 11, feed_rate: 35.0000, blade_speed: 50.0000, time: 1, energy_Wh: 37),
  (cut_id: 82, mch_id: 1, mode_id: 11, feed_rate: 35.0000, blade_speed: 50.0000, time: 1, energy_Wh: 37),
  (cut_id: 82, mch_id: 3, mode_id: 12, feed_rate: 35.0000, blade_speed: 75.0000, time: 1, energy_Wh: 30),
  (cut_id: 82, mch_id: 2, mode_id: 12, feed_rate: 35.0000, blade_speed: 75.0000, time: 1, energy_Wh: 30),
  (cut_id: 82, mch_id: 1, mode_id: 12, feed_rate: 35.0000, blade_speed: 75.0000, time: 1, energy_Wh: 30),
  (cut_id: 82, mch_id: 3, mode_id: 13, feed_rate: 35.0000, blade_speed: 100.0000, time: 1, energy_Wh: 31),
  (cut_id: 82, mch_id: 2, mode_id: 13, feed_rate: 35.0000, blade_speed: 100.0000, time: 1, energy_Wh: 31),
  (cut_id: 82, mch_id: 1, mode_id: 13, feed_rate: 35.0000, blade_speed: 100.0000, time: 1, energy_Wh: 31),
  (cut_id: 82, mch_id: 3, mode_id: 14, feed_rate: 35.0000, blade_speed: 125.0000, time: 1, energy_Wh: 33),
  (cut_id: 82, mch_id: 2, mode_id: 14, feed_rate: 35.0000, blade_speed: 125.0000, time: 1, energy_Wh: 33),
  (cut_id: 82, mch_id: 1, mode_id: 14, feed_rate: 35.0000, blade_speed: 125.0000, time: 1, energy_Wh: 33),
  (cut_id: 82, mch_id: 3, mode_id: 15, feed_rate: 35.0000, blade_speed: 150.0000, time: 1, energy_Wh: 30),
  (cut_id: 82, mch_id: 2, mode_id: 15, feed_rate: 35.0000, blade_speed: 150.0000, time: 1, energy_Wh: 30),
  (cut_id: 82, mch_id: 1, mode_id: 15, feed_rate: 35.0000, blade_speed: 150.0000, time: 1, energy_Wh: 30),
  (cut_id: 82, mch_id: 3, mode_id: 16, feed_rate: 43.7500, blade_speed: 50.0000, time: 1, energy_Wh: 40),
  (cut_id: 82, mch_id: 2, mode_id: 16, feed_rate: 43.7500, blade_speed: 50.0000, time: 1, energy_Wh: 40),
  (cut_id: 82, mch_id: 1, mode_id: 16, feed_rate: 43.7500, blade_speed: 50.0000, time: 1, energy_Wh: 40),
  (cut_id: 82, mch_id: 3, mode_id: 17, feed_rate: 43.7500, blade_speed: 75.0000, time: 1, energy_Wh: 35),
  (cut_id: 82, mch_id: 2, mode_id: 17, feed_rate: 43.7500, blade_speed: 75.0000, time: 1, energy_Wh: 35),
  (cut_id: 82, mch_id: 1, mode_id: 17, feed_rate: 43.7500, blade_speed: 75.0000, time: 1, energy_Wh: 35),
  (cut_id: 82, mch_id: 3, mode_id: 18, feed_rate: 43.7500, blade_speed: 100.0000, time: 1, energy_Wh: 40),
  (cut_id: 82, mch_id: 2, mode_id: 18, feed_rate: 43.7500, blade_speed: 100.0000, time: 1, energy_Wh: 40),
  (cut_id: 82, mch_id: 1, mode_id: 18, feed_rate: 43.7500, blade_speed: 100.0000, time: 1, energy_Wh: 40),
  (cut_id: 82, mch_id: 3, mode_id: 19, feed_rate: 43.7500, blade_speed: 125.0000, time: 1, energy_Wh: 28),
  (cut_id: 82, mch_id: 2, mode_id: 19, feed_rate: 43.7500, blade_speed: 125.0000, time: 1, energy_Wh: 28),
  (cut_id: 82, mch_id: 1, mode_id: 19, feed_rate: 43.7500, blade_speed: 125.0000, time: 1, energy_Wh: 28),
  (cut_id: 82, mch_id: 3, mode_id: 20, feed_rate: 43.7500, blade_speed: 150.0000, time: 1, energy_Wh: 27),
  (cut_id: 82, mch_id: 2, mode_id: 20, feed_rate: 43.7500, blade_speed: 150.0000, time: 1, energy_Wh: 27),
  (cut_id: 82, mch_id: 1, mode_id: 20, feed_rate: 43.7500, blade_speed: 150.0000, time: 1, energy_Wh: 27),
  (cut_id: 82, mch_id: 3, mode_id: 21, feed_rate: 52.5000, blade_speed: 50.0000, time: 1, energy_Wh: 51),
  (cut_id: 82, mch_id: 2, mode_id: 21, feed_rate: 52.5000, blade_speed: 50.0000, time: 1, energy_Wh: 51),
  (cut_id: 82, mch_id: 1, mode_id: 21, feed_rate: 52.5000, blade_speed: 50.0000, time: 1, energy_Wh: 51),
  (cut_id: 82, mch_id: 3, mode_id: 22, feed_rate: 52.5000, blade_speed: 75.0000, time: 1, energy_Wh: 48),
  (cut_id: 82, mch_id: 2, mode_id: 22, feed_rate: 52.5000, blade_speed: 75.0000, time: 1, energy_Wh: 48),
  (cut_id: 82, mch_id: 1, mode_id: 22, feed_rate: 52.5000, blade_speed: 75.0000, time: 1, energy_Wh: 48),
  (cut_id: 82, mch_id: 3, mode_id: 23, feed_rate: 52.5000, blade_speed: 100.0000, time: 1, energy_Wh: 36),
  (cut_id: 82, mch_id: 2, mode_id: 23, feed_rate: 52.5000, blade_speed: 100.0000, time: 1, energy_Wh: 36),
  (cut_id: 82, mch_id: 1, mode_id: 23, feed_rate: 52.5000, blade_speed: 100.0000, time: 1, energy_Wh: 36),
  (cut_id: 82, mch_id: 3, mode_id: 24, feed_rate: 52.5000, blade_speed: 125.0000, time: 1, energy_Wh: 33),
  (cut_id: 82, mch_id: 2, mode_id: 24, feed_rate: 52.5000, blade_speed: 125.0000, time: 1, energy_Wh: 33),
  (cut_id: 82, mch_id: 1, mode_id: 24, feed_rate: 52.5000, blade_speed: 125.0000, time: 1, energy_Wh: 33),
  (cut_id: 82, mch_id: 3, mode_id: 25, feed_rate: 52.5000, blade_speed: 150.0000, time: 1, energy_Wh: 32),
  (cut_id: 82, mch_id: 2, mode_id: 25, feed_rate: 52.5000, blade_speed: 150.0000, time: 1, energy_Wh: 32),
  (cut_id: 82, mch_id: 1, mode_id: 25, feed_rate: 52.5000, blade_speed: 150.0000, time: 1, energy_Wh: 32),
  (cut_id: 83, mch_id: 3, mode_id: 1, feed_rate: 17.3000, blade_speed: 9.8000, time: 7, energy_Wh: 33),
  (cut_id: 83, mch_id: 1, mode_id: 1, feed_rate: 17.3000, blade_speed: 9.8000, time: 7, energy_Wh: 33),
  (cut_id: 83, mch_id: 2, mode_id: 1, feed_rate: 17.3000, blade_speed: 9.8000, time: 7, energy_Wh: 33),
  (cut_id: 83, mch_id: 3, mode_id: 2, feed_rate: 17.3000, blade_speed: 14.7000, time: 7, energy_Wh: 38),
  (cut_id: 83, mch_id: 1, mode_id: 2, feed_rate: 17.3000, blade_speed: 14.7000, time: 7, energy_Wh: 38),
  (cut_id: 83, mch_id: 2, mode_id: 2, feed_rate: 17.3000, blade_speed: 14.7000, time: 7, energy_Wh: 38),
  (cut_id: 83, mch_id: 3, mode_id: 3, feed_rate: 17.3000, blade_speed: 19.6100, time: 7, energy_Wh: 42),
  (cut_id: 83, mch_id: 1, mode_id: 3, feed_rate: 17.3000, blade_speed: 19.6100, time: 7, energy_Wh: 42),
  (cut_id: 83, mch_id: 2, mode_id: 3, feed_rate: 17.3000, blade_speed: 19.6100, time: 7, energy_Wh: 42),
  (cut_id: 83, mch_id: 3, mode_id: 4, feed_rate: 17.3000, blade_speed: 24.5100, time: 7, energy_Wh: 29),
  (cut_id: 83, mch_id: 1, mode_id: 4, feed_rate: 17.3000, blade_speed: 24.5100, time: 7, energy_Wh: 29),
  (cut_id: 83, mch_id: 2, mode_id: 4, feed_rate: 17.3000, blade_speed: 24.5100, time: 7, energy_Wh: 29),
  (cut_id: 83, mch_id: 3, mode_id: 5, feed_rate: 17.3000, blade_speed: 29.4100, time: 7, energy_Wh: 23),
  (cut_id: 83, mch_id: 1, mode_id: 5, feed_rate: 17.3000, blade_speed: 29.4100, time: 7, energy_Wh: 23),
  (cut_id: 83, mch_id: 2, mode_id: 5, feed_rate: 17.3000, blade_speed: 29.4100, time: 7, energy_Wh: 23),
  (cut_id: 83, mch_id: 3, mode_id: 6, feed_rate: 25.9500, blade_speed: 9.8000, time: 5, energy_Wh: 32),
  (cut_id: 83, mch_id: 1, mode_id: 6, feed_rate: 25.9500, blade_speed: 9.8000, time: 5, energy_Wh: 32),
  (cut_id: 83, mch_id: 2, mode_id: 6, feed_rate: 25.9500, blade_speed: 9.8000, time: 5, energy_Wh: 32),
  (cut_id: 83, mch_id: 3, mode_id: 7, feed_rate: 25.9500, blade_speed: 14.7000, time: 5, energy_Wh: 44),
  (cut_id: 83, mch_id: 1, mode_id: 7, feed_rate: 25.9500, blade_speed: 14.7000, time: 5, energy_Wh: 44),
  (cut_id: 83, mch_id: 2, mode_id: 7, feed_rate: 25.9500, blade_speed: 14.7000, time: 5, energy_Wh: 44),
  (cut_id: 83, mch_id: 3, mode_id: 8, feed_rate: 25.9500, blade_speed: 19.6100, time: 5, energy_Wh: 44),
  (cut_id: 83, mch_id: 1, mode_id: 8, feed_rate: 25.9500, blade_speed: 19.6100, time: 5, energy_Wh: 44),
  (cut_id: 83, mch_id: 2, mode_id: 8, feed_rate: 25.9500, blade_speed: 19.6100, time: 5, energy_Wh: 44),
  (cut_id: 83, mch_id: 3, mode_id: 9, feed_rate: 25.9500, blade_speed: 24.5100, time: 5, energy_Wh: 31),
  (cut_id: 83, mch_id: 1, mode_id: 9, feed_rate: 25.9500, blade_speed: 24.5100, time: 5, energy_Wh: 31),
  (cut_id: 83, mch_id: 2, mode_id: 9, feed_rate: 25.9500, blade_speed: 24.5100, time: 5, energy_Wh: 31),
  (cut_id: 83, mch_id: 3, mode_id: 10, feed_rate: 25.9500, blade_speed: 29.4100, time: 5, energy_Wh: 24),
  (cut_id: 83, mch_id: 1, mode_id: 10, feed_rate: 25.9500, blade_speed: 29.4100, time: 5, energy_Wh: 24),
  (cut_id: 83, mch_id: 2, mode_id: 10, feed_rate: 25.9500, blade_speed: 29.4100, time: 5, energy_Wh: 24),
  (cut_id: 83, mch_id: 3, mode_id: 11, feed_rate: 34.6100, blade_speed: 9.8000, time: 4, energy_Wh: 44),
  (cut_id: 83, mch_id: 1, mode_id: 11, feed_rate: 34.6100, blade_speed: 9.8000, time: 4, energy_Wh: 44),
  (cut_id: 83, mch_id: 2, mode_id: 11, feed_rate: 34.6100, blade_speed: 9.8000, time: 4, energy_Wh: 44),
  (cut_id: 83, mch_id: 3, mode_id: 12, feed_rate: 34.6100, blade_speed: 14.7000, time: 4, energy_Wh: 49),
  (cut_id: 83, mch_id: 1, mode_id: 12, feed_rate: 34.6100, blade_speed: 14.7000, time: 4, energy_Wh: 49),
  (cut_id: 83, mch_id: 2, mode_id: 12, feed_rate: 34.6100, blade_speed: 14.7000, time: 4, energy_Wh: 49),
  (cut_id: 83, mch_id: 3, mode_id: 13, feed_rate: 34.6100, blade_speed: 19.6100, time: 4, energy_Wh: 51),
  (cut_id: 83, mch_id: 1, mode_id: 13, feed_rate: 34.6100, blade_speed: 19.6100, time: 4, energy_Wh: 51),
  (cut_id: 83, mch_id: 2, mode_id: 13, feed_rate: 34.6100, blade_speed: 19.6100, time: 4, energy_Wh: 51),
  (cut_id: 83, mch_id: 3, mode_id: 14, feed_rate: 34.6100, blade_speed: 24.5100, time: 4, energy_Wh: 29),
  (cut_id: 83, mch_id: 1, mode_id: 14, feed_rate: 34.6100, blade_speed: 24.5100, time: 4, energy_Wh: 29),
  (cut_id: 83, mch_id: 2, mode_id: 14, feed_rate: 34.6100, blade_speed: 24.5100, time: 4, energy_Wh: 29),
  (cut_id: 83, mch_id: 3, mode_id: 15, feed_rate: 34.6100, blade_speed: 29.4100, time: 4, energy_Wh: 29),
  (cut_id: 83, mch_id: 1, mode_id: 15, feed_rate: 34.6100, blade_speed: 29.4100, time: 4, energy_Wh: 29),
  (cut_id: 83, mch_id: 2, mode_id: 15, feed_rate: 34.6100, blade_speed: 29.4100, time: 4, energy_Wh: 29),
  (cut_id: 83, mch_id: 3, mode_id: 16, feed_rate: 43.2600, blade_speed: 9.8000, time: 3, energy_Wh: 48),
  (cut_id: 83, mch_id: 1, mode_id: 16, feed_rate: 43.2600, blade_speed: 9.8000, time: 3, energy_Wh: 48),
  (cut_id: 83, mch_id: 2, mode_id: 16, feed_rate: 43.2600, blade_speed: 9.8000, time: 3, energy_Wh: 48),
  (cut_id: 83, mch_id: 3, mode_id: 17, feed_rate: 43.2600, blade_speed: 14.7000, time: 3, energy_Wh: 66),
  (cut_id: 83, mch_id: 1, mode_id: 17, feed_rate: 43.2600, blade_speed: 14.7000, time: 3, energy_Wh: 66),
  (cut_id: 83, mch_id: 2, mode_id: 17, feed_rate: 43.2600, blade_speed: 14.7000, time: 3, energy_Wh: 66),
  (cut_id: 83, mch_id: 3, mode_id: 18, feed_rate: 43.2600, blade_speed: 19.6100, time: 3, energy_Wh: 70),
  (cut_id: 83, mch_id: 1, mode_id: 18, feed_rate: 43.2600, blade_speed: 19.6100, time: 3, energy_Wh: 70),
  (cut_id: 83, mch_id: 2, mode_id: 18, feed_rate: 43.2600, blade_speed: 19.6100, time: 3, energy_Wh: 70),
  (cut_id: 83, mch_id: 3, mode_id: 19, feed_rate: 43.2600, blade_speed: 24.5100, time: 3, energy_Wh: 45),
  (cut_id: 83, mch_id: 1, mode_id: 19, feed_rate: 43.2600, blade_speed: 24.5100, time: 3, energy_Wh: 45),
  (cut_id: 83, mch_id: 2, mode_id: 19, feed_rate: 43.2600, blade_speed: 24.5100, time: 3, energy_Wh: 45),
  (cut_id: 83, mch_id: 3, mode_id: 20, feed_rate: 43.2600, blade_speed: 29.4100, time: 3, energy_Wh: 35),
  (cut_id: 83, mch_id: 1, mode_id: 20, feed_rate: 43.2600, blade_speed: 29.4100, time: 3, energy_Wh: 35),
  (cut_id: 83, mch_id: 2, mode_id: 20, feed_rate: 43.2600, blade_speed: 29.4100, time: 3, energy_Wh: 35),
  (cut_id: 83, mch_id: 3, mode_id: 21, feed_rate: 51.9100, blade_speed: 9.8000, time: 3, energy_Wh: 63),
  (cut_id: 83, mch_id: 1, mode_id: 21, feed_rate: 51.9100, blade_speed: 9.8000, time: 3, energy_Wh: 63),
  (cut_id: 83, mch_id: 2, mode_id: 21, feed_rate: 51.9100, blade_speed: 9.8000, time: 3, energy_Wh: 63),
  (cut_id: 83, mch_id: 3, mode_id: 22, feed_rate: 51.9100, blade_speed: 14.7000, time: 3, energy_Wh: 83),
  (cut_id: 83, mch_id: 1, mode_id: 22, feed_rate: 51.9100, blade_speed: 14.7000, time: 3, energy_Wh: 83),
  (cut_id: 83, mch_id: 2, mode_id: 22, feed_rate: 51.9100, blade_speed: 14.7000, time: 3, energy_Wh: 83),
  (cut_id: 83, mch_id: 3, mode_id: 23, feed_rate: 51.9100, blade_speed: 19.6100, time: 3, energy_Wh: 78),
  (cut_id: 83, mch_id: 1, mode_id: 23, feed_rate: 51.9100, blade_speed: 19.6100, time: 3, energy_Wh: 78),
  (cut_id: 83, mch_id: 2, mode_id: 23, feed_rate: 51.9100, blade_speed: 19.6100, time: 3, energy_Wh: 78),
  (cut_id: 83, mch_id: 3, mode_id: 24, feed_rate: 51.9100, blade_speed: 24.5100, time: 3, energy_Wh: 57),
  (cut_id: 83, mch_id: 1, mode_id: 24, feed_rate: 51.9100, blade_speed: 24.5100, time: 3, energy_Wh: 57),
  (cut_id: 83, mch_id: 2, mode_id: 24, feed_rate: 51.9100, blade_speed: 24.5100, time: 3, energy_Wh: 57),
  (cut_id: 83, mch_id: 3, mode_id: 25, feed_rate: 51.9100, blade_speed: 29.4100, time: 3, energy_Wh: 48),
  (cut_id: 83, mch_id: 1, mode_id: 25, feed_rate: 51.9100, blade_speed: 29.4100, time: 3, energy_Wh: 48),
  (cut_id: 83, mch_id: 2, mode_id: 25, feed_rate: 51.9100, blade_speed: 29.4100, time: 3, energy_Wh: 48),
  (cut_id: 84, mch_id: 2, mode_id: 1, feed_rate: 13.4500, blade_speed: 4.9000, time: 9, energy_Wh: 22),
  (cut_id: 84, mch_id: 3, mode_id: 1, feed_rate: 13.4500, blade_speed: 4.9000, time: 9, energy_Wh: 22),
  (cut_id: 84, mch_id: 1, mode_id: 1, feed_rate: 13.4500, blade_speed: 4.9000, time: 9, energy_Wh: 22),
  (cut_id: 84, mch_id: 2, mode_id: 2, feed_rate: 13.4500, blade_speed: 7.3600, time: 9, energy_Wh: 35),
  (cut_id: 84, mch_id: 3, mode_id: 2, feed_rate: 13.4500, blade_speed: 7.3600, time: 9, energy_Wh: 35),
  (cut_id: 84, mch_id: 1, mode_id: 2, feed_rate: 13.4500, blade_speed: 7.3600, time: 9, energy_Wh: 35),
  (cut_id: 84, mch_id: 2, mode_id: 3, feed_rate: 13.4500, blade_speed: 9.8100, time: 9, energy_Wh: 25),
  (cut_id: 84, mch_id: 3, mode_id: 3, feed_rate: 13.4500, blade_speed: 9.8100, time: 9, energy_Wh: 25),
  (cut_id: 84, mch_id: 1, mode_id: 3, feed_rate: 13.4500, blade_speed: 9.8100, time: 9, energy_Wh: 25),
  (cut_id: 84, mch_id: 2, mode_id: 4, feed_rate: 13.4500, blade_speed: 12.2600, time: 9, energy_Wh: 29),
  (cut_id: 84, mch_id: 3, mode_id: 4, feed_rate: 13.4500, blade_speed: 12.2600, time: 9, energy_Wh: 29),
  (cut_id: 84, mch_id: 1, mode_id: 4, feed_rate: 13.4500, blade_speed: 12.2600, time: 9, energy_Wh: 29),
  (cut_id: 84, mch_id: 2, mode_id: 5, feed_rate: 13.4500, blade_speed: 14.7100, time: 9, energy_Wh: 44),
  (cut_id: 84, mch_id: 3, mode_id: 5, feed_rate: 13.4500, blade_speed: 14.7100, time: 9, energy_Wh: 44),
  (cut_id: 84, mch_id: 1, mode_id: 5, feed_rate: 13.4500, blade_speed: 14.7100, time: 9, energy_Wh: 44),
  (cut_id: 84, mch_id: 2, mode_id: 6, feed_rate: 20.1800, blade_speed: 4.9000, time: 6, energy_Wh: 24),
  (cut_id: 84, mch_id: 3, mode_id: 6, feed_rate: 20.1800, blade_speed: 4.9000, time: 6, energy_Wh: 24),
  (cut_id: 84, mch_id: 1, mode_id: 6, feed_rate: 20.1800, blade_speed: 4.9000, time: 6, energy_Wh: 24),
  (cut_id: 84, mch_id: 2, mode_id: 7, feed_rate: 20.1800, blade_speed: 7.3600, time: 6, energy_Wh: 50),
  (cut_id: 84, mch_id: 3, mode_id: 7, feed_rate: 20.1800, blade_speed: 7.3600, time: 6, energy_Wh: 50),
  (cut_id: 84, mch_id: 1, mode_id: 7, feed_rate: 20.1800, blade_speed: 7.3600, time: 6, energy_Wh: 50),
  (cut_id: 84, mch_id: 2, mode_id: 8, feed_rate: 20.1800, blade_speed: 9.8100, time: 6, energy_Wh: 29),
  (cut_id: 84, mch_id: 3, mode_id: 8, feed_rate: 20.1800, blade_speed: 9.8100, time: 6, energy_Wh: 29),
  (cut_id: 84, mch_id: 1, mode_id: 8, feed_rate: 20.1800, blade_speed: 9.8100, time: 6, energy_Wh: 29),
  (cut_id: 84, mch_id: 2, mode_id: 9, feed_rate: 20.1800, blade_speed: 12.2600, time: 6, energy_Wh: 26),
  (cut_id: 84, mch_id: 3, mode_id: 9, feed_rate: 20.1800, blade_speed: 12.2600, time: 6, energy_Wh: 26),
  (cut_id: 84, mch_id: 1, mode_id: 9, feed_rate: 20.1800, blade_speed: 12.2600, time: 6, energy_Wh: 26),
  (cut_id: 84, mch_id: 2, mode_id: 10, feed_rate: 20.1800, blade_speed: 14.7100, time: 6, energy_Wh: 54),
  (cut_id: 84, mch_id: 3, mode_id: 10, feed_rate: 20.1800, blade_speed: 14.7100, time: 6, energy_Wh: 54),
  (cut_id: 84, mch_id: 1, mode_id: 10, feed_rate: 20.1800, blade_speed: 14.7100, time: 6, energy_Wh: 54),
  (cut_id: 84, mch_id: 2, mode_id: 11, feed_rate: 26.9000, blade_speed: 4.9000, time: 5, energy_Wh: 25),
  (cut_id: 84, mch_id: 3, mode_id: 11, feed_rate: 26.9000, blade_speed: 4.9000, time: 5, energy_Wh: 25),
  (cut_id: 84, mch_id: 1, mode_id: 11, feed_rate: 26.9000, blade_speed: 4.9000, time: 5, energy_Wh: 25),
  (cut_id: 84, mch_id: 2, mode_id: 12, feed_rate: 26.9000, blade_speed: 7.3600, time: 5, energy_Wh: 52),
  (cut_id: 84, mch_id: 3, mode_id: 12, feed_rate: 26.9000, blade_speed: 7.3600, time: 5, energy_Wh: 52),
  (cut_id: 84, mch_id: 1, mode_id: 12, feed_rate: 26.9000, blade_speed: 7.3600, time: 5, energy_Wh: 52),
  (cut_id: 84, mch_id: 2, mode_id: 13, feed_rate: 26.9000, blade_speed: 9.8100, time: 5, energy_Wh: 34),
  (cut_id: 84, mch_id: 3, mode_id: 13, feed_rate: 26.9000, blade_speed: 9.8100, time: 5, energy_Wh: 34),
  (cut_id: 84, mch_id: 1, mode_id: 13, feed_rate: 26.9000, blade_speed: 9.8100, time: 5, energy_Wh: 34),
  (cut_id: 84, mch_id: 2, mode_id: 14, feed_rate: 26.9000, blade_speed: 12.2600, time: 5, energy_Wh: 33),
  (cut_id: 84, mch_id: 3, mode_id: 14, feed_rate: 26.9000, blade_speed: 12.2600, time: 5, energy_Wh: 33),
  (cut_id: 84, mch_id: 1, mode_id: 14, feed_rate: 26.9000, blade_speed: 12.2600, time: 5, energy_Wh: 33),
  (cut_id: 84, mch_id: 2, mode_id: 15, feed_rate: 26.9000, blade_speed: 14.7100, time: 5, energy_Wh: 42),
  (cut_id: 84, mch_id: 3, mode_id: 15, feed_rate: 26.9000, blade_speed: 14.7100, time: 5, energy_Wh: 42),
  (cut_id: 84, mch_id: 1, mode_id: 15, feed_rate: 26.9000, blade_speed: 14.7100, time: 5, energy_Wh: 42),
  (cut_id: 84, mch_id: 2, mode_id: 16, feed_rate: 33.6300, blade_speed: 4.9000, time: 4, energy_Wh: 33),
  (cut_id: 84, mch_id: 3, mode_id: 16, feed_rate: 33.6300, blade_speed: 4.9000, time: 4, energy_Wh: 33),
  (cut_id: 84, mch_id: 1, mode_id: 16, feed_rate: 33.6300, blade_speed: 4.9000, time: 4, energy_Wh: 33),
  (cut_id: 84, mch_id: 2, mode_id: 17, feed_rate: 33.6300, blade_speed: 7.3600, time: 4, energy_Wh: 57),
  (cut_id: 84, mch_id: 3, mode_id: 17, feed_rate: 33.6300, blade_speed: 7.3600, time: 4, energy_Wh: 57),
  (cut_id: 84, mch_id: 1, mode_id: 17, feed_rate: 33.6300, blade_speed: 7.3600, time: 4, energy_Wh: 57),
  (cut_id: 84, mch_id: 2, mode_id: 18, feed_rate: 33.6300, blade_speed: 9.8100, time: 4, energy_Wh: 37),
  (cut_id: 84, mch_id: 3, mode_id: 18, feed_rate: 33.6300, blade_speed: 9.8100, time: 4, energy_Wh: 37),
  (cut_id: 84, mch_id: 1, mode_id: 18, feed_rate: 33.6300, blade_speed: 9.8100, time: 4, energy_Wh: 37),
  (cut_id: 84, mch_id: 2, mode_id: 19, feed_rate: 33.6300, blade_speed: 12.2600, time: 4, energy_Wh: 43),
  (cut_id: 84, mch_id: 3, mode_id: 19, feed_rate: 33.6300, blade_speed: 12.2600, time: 4, energy_Wh: 43),
  (cut_id: 84, mch_id: 1, mode_id: 19, feed_rate: 33.6300, blade_speed: 12.2600, time: 4, energy_Wh: 43),
  (cut_id: 84, mch_id: 2, mode_id: 20, feed_rate: 33.6300, blade_speed: 14.7100, time: 4, energy_Wh: 65),
  (cut_id: 84, mch_id: 3, mode_id: 20, feed_rate: 33.6300, blade_speed: 14.7100, time: 4, energy_Wh: 65),
  (cut_id: 84, mch_id: 1, mode_id: 20, feed_rate: 33.6300, blade_speed: 14.7100, time: 4, energy_Wh: 65),
  (cut_id: 84, mch_id: 2, mode_id: 21, feed_rate: 40.3600, blade_speed: 4.9000, time: 3, energy_Wh: 33),
  (cut_id: 84, mch_id: 3, mode_id: 21, feed_rate: 40.3600, blade_speed: 4.9000, time: 3, energy_Wh: 33),
  (cut_id: 84, mch_id: 1, mode_id: 21, feed_rate: 40.3600, blade_speed: 4.9000, time: 3, energy_Wh: 33),
  (cut_id: 84, mch_id: 2, mode_id: 22, feed_rate: 40.3600, blade_speed: 7.3600, time: 3, energy_Wh: 67),
  (cut_id: 84, mch_id: 3, mode_id: 22, feed_rate: 40.3600, blade_speed: 7.3600, time: 3, energy_Wh: 67),
  (cut_id: 84, mch_id: 1, mode_id: 22, feed_rate: 40.3600, blade_speed: 7.3600, time: 3, energy_Wh: 67),
  (cut_id: 84, mch_id: 2, mode_id: 23, feed_rate: 40.3600, blade_speed: 9.8100, time: 3, energy_Wh: 49),
  (cut_id: 84, mch_id: 3, mode_id: 23, feed_rate: 40.3600, blade_speed: 9.8100, time: 3, energy_Wh: 49),
  (cut_id: 84, mch_id: 1, mode_id: 23, feed_rate: 40.3600, blade_speed: 9.8100, time: 3, energy_Wh: 49),
  (cut_id: 84, mch_id: 2, mode_id: 24, feed_rate: 40.3600, blade_speed: 12.2600, time: 3, energy_Wh: 38),
  (cut_id: 84, mch_id: 3, mode_id: 24, feed_rate: 40.3600, blade_speed: 12.2600, time: 3, energy_Wh: 38),
  (cut_id: 84, mch_id: 1, mode_id: 24, feed_rate: 40.3600, blade_speed: 12.2600, time: 3, energy_Wh: 38),
  (cut_id: 84, mch_id: 2, mode_id: 25, feed_rate: 40.3600, blade_speed: 14.7100, time: 3, energy_Wh: 69),
  (cut_id: 84, mch_id: 3, mode_id: 25, feed_rate: 40.3600, blade_speed: 14.7100, time: 3, energy_Wh: 69),
  (cut_id: 84, mch_id: 1, mode_id: 25, feed_rate: 40.3600, blade_speed: 14.7100, time: 3, energy_Wh: 69),
  (cut_id: 85, mch_id: 3, mode_id: 1, feed_rate: 28.8800, blade_speed: 15.9500, time: 3, energy_Wh: 42),
  (cut_id: 85, mch_id: 1, mode_id: 1, feed_rate: 28.8800, blade_speed: 15.9500, time: 3, energy_Wh: 42),
  (cut_id: 85, mch_id: 2, mode_id: 1, feed_rate: 28.8800, blade_speed: 15.9500, time: 3, energy_Wh: 42),
  (cut_id: 85, mch_id: 3, mode_id: 2, feed_rate: 28.8800, blade_speed: 23.9300, time: 3, energy_Wh: 28),
  (cut_id: 85, mch_id: 1, mode_id: 2, feed_rate: 28.8800, blade_speed: 23.9300, time: 3, energy_Wh: 28),
  (cut_id: 85, mch_id: 2, mode_id: 2, feed_rate: 28.8800, blade_speed: 23.9300, time: 3, energy_Wh: 28),
  (cut_id: 85, mch_id: 3, mode_id: 3, feed_rate: 28.8800, blade_speed: 31.9100, time: 3, energy_Wh: 43),
  (cut_id: 85, mch_id: 1, mode_id: 3, feed_rate: 28.8800, blade_speed: 31.9100, time: 3, energy_Wh: 43),
  (cut_id: 85, mch_id: 2, mode_id: 3, feed_rate: 28.8800, blade_speed: 31.9100, time: 3, energy_Wh: 43),
  (cut_id: 85, mch_id: 3, mode_id: 4, feed_rate: 28.8800, blade_speed: 39.8900, time: 3, energy_Wh: 48),
  (cut_id: 85, mch_id: 1, mode_id: 4, feed_rate: 28.8800, blade_speed: 39.8900, time: 3, energy_Wh: 48),
  (cut_id: 85, mch_id: 2, mode_id: 4, feed_rate: 28.8800, blade_speed: 39.8900, time: 3, energy_Wh: 48),
  (cut_id: 85, mch_id: 3, mode_id: 5, feed_rate: 28.8800, blade_speed: 47.8600, time: 3, energy_Wh: 34),
  (cut_id: 85, mch_id: 1, mode_id: 5, feed_rate: 28.8800, blade_speed: 47.8600, time: 3, energy_Wh: 34),
  (cut_id: 85, mch_id: 2, mode_id: 5, feed_rate: 28.8800, blade_speed: 47.8600, time: 3, energy_Wh: 34),
  (cut_id: 85, mch_id: 3, mode_id: 6, feed_rate: 43.3200, blade_speed: 15.9500, time: 2, energy_Wh: 40),
  (cut_id: 85, mch_id: 1, mode_id: 6, feed_rate: 43.3200, blade_speed: 15.9500, time: 2, energy_Wh: 40),
  (cut_id: 85, mch_id: 2, mode_id: 6, feed_rate: 43.3200, blade_speed: 15.9500, time: 2, energy_Wh: 40),
  (cut_id: 85, mch_id: 3, mode_id: 7, feed_rate: 43.3200, blade_speed: 23.9300, time: 2, energy_Wh: 30),
  (cut_id: 85, mch_id: 1, mode_id: 7, feed_rate: 43.3200, blade_speed: 23.9300, time: 2, energy_Wh: 30),
  (cut_id: 85, mch_id: 2, mode_id: 7, feed_rate: 43.3200, blade_speed: 23.9300, time: 2, energy_Wh: 30),
  (cut_id: 85, mch_id: 3, mode_id: 8, feed_rate: 43.3200, blade_speed: 31.9100, time: 2, energy_Wh: 46),
  (cut_id: 85, mch_id: 1, mode_id: 8, feed_rate: 43.3200, blade_speed: 31.9100, time: 2, energy_Wh: 46),
  (cut_id: 85, mch_id: 2, mode_id: 8, feed_rate: 43.3200, blade_speed: 31.9100, time: 2, energy_Wh: 46),
  (cut_id: 85, mch_id: 3, mode_id: 9, feed_rate: 43.3200, blade_speed: 39.8900, time: 2, energy_Wh: 58),
  (cut_id: 85, mch_id: 1, mode_id: 9, feed_rate: 43.3200, blade_speed: 39.8900, time: 2, energy_Wh: 58),
  (cut_id: 85, mch_id: 2, mode_id: 9, feed_rate: 43.3200, blade_speed: 39.8900, time: 2, energy_Wh: 58),
  (cut_id: 85, mch_id: 3, mode_id: 10, feed_rate: 43.3200, blade_speed: 47.8600, time: 2, energy_Wh: 31),
  (cut_id: 85, mch_id: 1, mode_id: 10, feed_rate: 43.3200, blade_speed: 47.8600, time: 2, energy_Wh: 31),
  (cut_id: 85, mch_id: 2, mode_id: 10, feed_rate: 43.3200, blade_speed: 47.8600, time: 2, energy_Wh: 31),
  (cut_id: 85, mch_id: 3, mode_id: 11, feed_rate: 57.7600, blade_speed: 15.9500, time: 2, energy_Wh: 62),
  (cut_id: 85, mch_id: 1, mode_id: 11, feed_rate: 57.7600, blade_speed: 15.9500, time: 2, energy_Wh: 62),
  (cut_id: 85, mch_id: 2, mode_id: 11, feed_rate: 57.7600, blade_speed: 15.9500, time: 2, energy_Wh: 62),
  (cut_id: 85, mch_id: 3, mode_id: 12, feed_rate: 57.7600, blade_speed: 23.9300, time: 2, energy_Wh: 41),
  (cut_id: 85, mch_id: 1, mode_id: 12, feed_rate: 57.7600, blade_speed: 23.9300, time: 2, energy_Wh: 41),
  (cut_id: 85, mch_id: 2, mode_id: 12, feed_rate: 57.7600, blade_speed: 23.9300, time: 2, energy_Wh: 41),
  (cut_id: 85, mch_id: 3, mode_id: 13, feed_rate: 57.7600, blade_speed: 31.9100, time: 2, energy_Wh: 77),
  (cut_id: 85, mch_id: 1, mode_id: 13, feed_rate: 57.7600, blade_speed: 31.9100, time: 2, energy_Wh: 77),
  (cut_id: 85, mch_id: 2, mode_id: 13, feed_rate: 57.7600, blade_speed: 31.9100, time: 2, energy_Wh: 77),
  (cut_id: 85, mch_id: 3, mode_id: 14, feed_rate: 57.7600, blade_speed: 39.8900, time: 2, energy_Wh: 72),
  (cut_id: 85, mch_id: 1, mode_id: 14, feed_rate: 57.7600, blade_speed: 39.8900, time: 2, energy_Wh: 72),
  (cut_id: 85, mch_id: 2, mode_id: 14, feed_rate: 57.7600, blade_speed: 39.8900, time: 2, energy_Wh: 72),
  (cut_id: 85, mch_id: 3, mode_id: 15, feed_rate: 57.7600, blade_speed: 47.8600, time: 2, energy_Wh: 45),
  (cut_id: 85, mch_id: 1, mode_id: 15, feed_rate: 57.7600, blade_speed: 47.8600, time: 2, energy_Wh: 45),
  (cut_id: 85, mch_id: 2, mode_id: 15, feed_rate: 57.7600, blade_speed: 47.8600, time: 2, energy_Wh: 45),
  (cut_id: 85, mch_id: 3, mode_id: 16, feed_rate: 72.2000, blade_speed: 15.9500, time: 1, energy_Wh: 72),
  (cut_id: 85, mch_id: 1, mode_id: 16, feed_rate: 72.2000, blade_speed: 15.9500, time: 1, energy_Wh: 72),
  (cut_id: 85, mch_id: 2, mode_id: 16, feed_rate: 72.2000, blade_speed: 15.9500, time: 1, energy_Wh: 72),
  (cut_id: 85, mch_id: 3, mode_id: 17, feed_rate: 72.2000, blade_speed: 23.9300, time: 1, energy_Wh: 50),
  (cut_id: 85, mch_id: 1, mode_id: 17, feed_rate: 72.2000, blade_speed: 23.9300, time: 1, energy_Wh: 50),
  (cut_id: 85, mch_id: 2, mode_id: 17, feed_rate: 72.2000, blade_speed: 23.9300, time: 1, energy_Wh: 50),
  (cut_id: 85, mch_id: 3, mode_id: 18, feed_rate: 72.2000, blade_speed: 31.9100, time: 1, energy_Wh: 94),
  (cut_id: 85, mch_id: 1, mode_id: 18, feed_rate: 72.2000, blade_speed: 31.9100, time: 1, energy_Wh: 94),
  (cut_id: 85, mch_id: 2, mode_id: 18, feed_rate: 72.2000, blade_speed: 31.9100, time: 1, energy_Wh: 94),
  (cut_id: 85, mch_id: 3, mode_id: 19, feed_rate: 72.2000, blade_speed: 39.8900, time: 1, energy_Wh: 90),
  (cut_id: 85, mch_id: 1, mode_id: 19, feed_rate: 72.2000, blade_speed: 39.8900, time: 1, energy_Wh: 90),
  (cut_id: 85, mch_id: 2, mode_id: 19, feed_rate: 72.2000, blade_speed: 39.8900, time: 1, energy_Wh: 90),
  (cut_id: 85, mch_id: 3, mode_id: 20, feed_rate: 72.2000, blade_speed: 47.8600, time: 1, energy_Wh: 66),
  (cut_id: 85, mch_id: 1, mode_id: 20, feed_rate: 72.2000, blade_speed: 47.8600, time: 1, energy_Wh: 66),
  (cut_id: 85, mch_id: 2, mode_id: 20, feed_rate: 72.2000, blade_speed: 47.8600, time: 1, energy_Wh: 66),
  (cut_id: 85, mch_id: 3, mode_id: 21, feed_rate: 86.6500, blade_speed: 15.9500, time: 1, energy_Wh: 85),
  (cut_id: 85, mch_id: 1, mode_id: 21, feed_rate: 86.6500, blade_speed: 15.9500, time: 1, energy_Wh: 85),
  (cut_id: 85, mch_id: 2, mode_id: 21, feed_rate: 86.6500, blade_speed: 15.9500, time: 1, energy_Wh: 85),
  (cut_id: 85, mch_id: 3, mode_id: 22, feed_rate: 86.6500, blade_speed: 23.9300, time: 1, energy_Wh: 67),
  (cut_id: 85, mch_id: 1, mode_id: 22, feed_rate: 86.6500, blade_speed: 23.9300, time: 1, energy_Wh: 67),
  (cut_id: 85, mch_id: 2, mode_id: 22, feed_rate: 86.6500, blade_speed: 23.9300, time: 1, energy_Wh: 67),
  (cut_id: 85, mch_id: 3, mode_id: 23, feed_rate: 86.6500, blade_speed: 31.9100, time: 1, energy_Wh: 125),
  (cut_id: 85, mch_id: 1, mode_id: 23, feed_rate: 86.6500, blade_speed: 31.9100, time: 1, energy_Wh: 125),
  (cut_id: 85, mch_id: 2, mode_id: 23, feed_rate: 86.6500, blade_speed: 31.9100, time: 1, energy_Wh: 125),
  (cut_id: 85, mch_id: 3, mode_id: 24, feed_rate: 86.6500, blade_speed: 39.8900, time: 1, energy_Wh: 147),
  (cut_id: 85, mch_id: 1, mode_id: 24, feed_rate: 86.6500, blade_speed: 39.8900, time: 1, energy_Wh: 147),
  (cut_id: 85, mch_id: 2, mode_id: 24, feed_rate: 86.6500, blade_speed: 39.8900, time: 1, energy_Wh: 147),
  (cut_id: 85, mch_id: 3, mode_id: 25, feed_rate: 86.6500, blade_speed: 47.8600, time: 1, energy_Wh: 88),
  (cut_id: 85, mch_id: 1, mode_id: 25, feed_rate: 86.6500, blade_speed: 47.8600, time: 1, energy_Wh: 88),
  (cut_id: 85, mch_id: 2, mode_id: 25, feed_rate: 86.6500, blade_speed: 47.8600, time: 1, energy_Wh: 88),
  (cut_id: 86, mch_id: 1, mode_id: 1, feed_rate: 8.7500, blade_speed: 2.1200, time: 13, energy_Wh: 36),
  (cut_id: 86, mch_id: 3, mode_id: 1, feed_rate: 8.7500, blade_speed: 2.1200, time: 13, energy_Wh: 36),
  (cut_id: 86, mch_id: 2, mode_id: 1, feed_rate: 8.7500, blade_speed: 2.1200, time: 13, energy_Wh: 36),
  (cut_id: 86, mch_id: 1, mode_id: 2, feed_rate: 8.7500, blade_speed: 3.1900, time: 13, energy_Wh: 30),
  (cut_id: 86, mch_id: 3, mode_id: 2, feed_rate: 8.7500, blade_speed: 3.1900, time: 13, energy_Wh: 30),
  (cut_id: 86, mch_id: 2, mode_id: 2, feed_rate: 8.7500, blade_speed: 3.1900, time: 13, energy_Wh: 30),
  (cut_id: 86, mch_id: 1, mode_id: 3, feed_rate: 8.7500, blade_speed: 4.2500, time: 13, energy_Wh: 22),
  (cut_id: 86, mch_id: 3, mode_id: 3, feed_rate: 8.7500, blade_speed: 4.2500, time: 13, energy_Wh: 22),
  (cut_id: 86, mch_id: 2, mode_id: 3, feed_rate: 8.7500, blade_speed: 4.2500, time: 13, energy_Wh: 22),
  (cut_id: 86, mch_id: 1, mode_id: 4, feed_rate: 8.7500, blade_speed: 5.3100, time: 13, energy_Wh: 24),
  (cut_id: 86, mch_id: 3, mode_id: 4, feed_rate: 8.7500, blade_speed: 5.3100, time: 13, energy_Wh: 24),
  (cut_id: 86, mch_id: 2, mode_id: 4, feed_rate: 8.7500, blade_speed: 5.3100, time: 13, energy_Wh: 24),
  (cut_id: 86, mch_id: 1, mode_id: 5, feed_rate: 8.7500, blade_speed: 6.3700, time: 13, energy_Wh: 25),
  (cut_id: 86, mch_id: 3, mode_id: 5, feed_rate: 8.7500, blade_speed: 6.3700, time: 13, energy_Wh: 25),
  (cut_id: 86, mch_id: 2, mode_id: 5, feed_rate: 8.7500, blade_speed: 6.3700, time: 13, energy_Wh: 25),
  (cut_id: 86, mch_id: 1, mode_id: 6, feed_rate: 13.1200, blade_speed: 2.1200, time: 9, energy_Wh: 37),
  (cut_id: 86, mch_id: 3, mode_id: 6, feed_rate: 13.1200, blade_speed: 2.1200, time: 9, energy_Wh: 37),
  (cut_id: 86, mch_id: 2, mode_id: 6, feed_rate: 13.1200, blade_speed: 2.1200, time: 9, energy_Wh: 37),
  (cut_id: 86, mch_id: 1, mode_id: 7, feed_rate: 13.1200, blade_speed: 3.1900, time: 9, energy_Wh: 30),
  (cut_id: 86, mch_id: 3, mode_id: 7, feed_rate: 13.1200, blade_speed: 3.1900, time: 9, energy_Wh: 30),
  (cut_id: 86, mch_id: 2, mode_id: 7, feed_rate: 13.1200, blade_speed: 3.1900, time: 9, energy_Wh: 30),
  (cut_id: 86, mch_id: 1, mode_id: 8, feed_rate: 13.1200, blade_speed: 4.2500, time: 9, energy_Wh: 18),
  (cut_id: 86, mch_id: 3, mode_id: 8, feed_rate: 13.1200, blade_speed: 4.2500, time: 9, energy_Wh: 18),
  (cut_id: 86, mch_id: 2, mode_id: 8, feed_rate: 13.1200, blade_speed: 4.2500, time: 9, energy_Wh: 18),
  (cut_id: 86, mch_id: 1, mode_id: 9, feed_rate: 13.1200, blade_speed: 5.3100, time: 9, energy_Wh: 19),
  (cut_id: 86, mch_id: 3, mode_id: 9, feed_rate: 13.1200, blade_speed: 5.3100, time: 9, energy_Wh: 19),
  (cut_id: 86, mch_id: 2, mode_id: 9, feed_rate: 13.1200, blade_speed: 5.3100, time: 9, energy_Wh: 19),
  (cut_id: 86, mch_id: 1, mode_id: 10, feed_rate: 13.1200, blade_speed: 6.3700, time: 9, energy_Wh: 27),
  (cut_id: 86, mch_id: 3, mode_id: 10, feed_rate: 13.1200, blade_speed: 6.3700, time: 9, energy_Wh: 27),
  (cut_id: 86, mch_id: 2, mode_id: 10, feed_rate: 13.1200, blade_speed: 6.3700, time: 9, energy_Wh: 27),
  (cut_id: 86, mch_id: 1, mode_id: 11, feed_rate: 17.5000, blade_speed: 2.1200, time: 7, energy_Wh: 38),
  (cut_id: 86, mch_id: 3, mode_id: 11, feed_rate: 17.5000, blade_speed: 2.1200, time: 7, energy_Wh: 38),
  (cut_id: 86, mch_id: 2, mode_id: 11, feed_rate: 17.5000, blade_speed: 2.1200, time: 7, energy_Wh: 38),
  (cut_id: 86, mch_id: 1, mode_id: 12, feed_rate: 17.5000, blade_speed: 3.1900, time: 7, energy_Wh: 36),
  (cut_id: 86, mch_id: 3, mode_id: 12, feed_rate: 17.5000, blade_speed: 3.1900, time: 7, energy_Wh: 36),
  (cut_id: 86, mch_id: 2, mode_id: 12, feed_rate: 17.5000, blade_speed: 3.1900, time: 7, energy_Wh: 36),
  (cut_id: 86, mch_id: 1, mode_id: 13, feed_rate: 17.5000, blade_speed: 4.2500, time: 7, energy_Wh: 21),
  (cut_id: 86, mch_id: 3, mode_id: 13, feed_rate: 17.5000, blade_speed: 4.2500, time: 7, energy_Wh: 21),
  (cut_id: 86, mch_id: 2, mode_id: 13, feed_rate: 17.5000, blade_speed: 4.2500, time: 7, energy_Wh: 21),
  (cut_id: 86, mch_id: 1, mode_id: 14, feed_rate: 17.5000, blade_speed: 5.3100, time: 7, energy_Wh: 26),
  (cut_id: 86, mch_id: 3, mode_id: 14, feed_rate: 17.5000, blade_speed: 5.3100, time: 7, energy_Wh: 26),
  (cut_id: 86, mch_id: 2, mode_id: 14, feed_rate: 17.5000, blade_speed: 5.3100, time: 7, energy_Wh: 26),
  (cut_id: 86, mch_id: 1, mode_id: 15, feed_rate: 17.5000, blade_speed: 6.3700, time: 7, energy_Wh: 34),
  (cut_id: 86, mch_id: 3, mode_id: 15, feed_rate: 17.5000, blade_speed: 6.3700, time: 7, energy_Wh: 34),
  (cut_id: 86, mch_id: 2, mode_id: 15, feed_rate: 17.5000, blade_speed: 6.3700, time: 7, energy_Wh: 34),
  (cut_id: 86, mch_id: 1, mode_id: 16, feed_rate: 21.8700, blade_speed: 2.1200, time: 6, energy_Wh: 50),
  (cut_id: 86, mch_id: 3, mode_id: 16, feed_rate: 21.8700, blade_speed: 2.1200, time: 6, energy_Wh: 50),
  (cut_id: 86, mch_id: 2, mode_id: 16, feed_rate: 21.8700, blade_speed: 2.1200, time: 6, energy_Wh: 50),
  (cut_id: 86, mch_id: 1, mode_id: 17, feed_rate: 21.8700, blade_speed: 3.1900, time: 6, energy_Wh: 29),
  (cut_id: 86, mch_id: 3, mode_id: 17, feed_rate: 21.8700, blade_speed: 3.1900, time: 6, energy_Wh: 29),
  (cut_id: 86, mch_id: 2, mode_id: 17, feed_rate: 21.8700, blade_speed: 3.1900, time: 6, energy_Wh: 29),
  (cut_id: 86, mch_id: 1, mode_id: 18, feed_rate: 21.8700, blade_speed: 4.2500, time: 6, energy_Wh: 22),
  (cut_id: 86, mch_id: 3, mode_id: 18, feed_rate: 21.8700, blade_speed: 4.2500, time: 6, energy_Wh: 22),
  (cut_id: 86, mch_id: 2, mode_id: 18, feed_rate: 21.8700, blade_speed: 4.2500, time: 6, energy_Wh: 22),
  (cut_id: 86, mch_id: 1, mode_id: 19, feed_rate: 21.8700, blade_speed: 5.3100, time: 6, energy_Wh: 23),
  (cut_id: 86, mch_id: 3, mode_id: 19, feed_rate: 21.8700, blade_speed: 5.3100, time: 6, energy_Wh: 23),
  (cut_id: 86, mch_id: 2, mode_id: 19, feed_rate: 21.8700, blade_speed: 5.3100, time: 6, energy_Wh: 23),
  (cut_id: 86, mch_id: 1, mode_id: 20, feed_rate: 21.8700, blade_speed: 6.3700, time: 6, energy_Wh: 33),
  (cut_id: 86, mch_id: 3, mode_id: 20, feed_rate: 21.8700, blade_speed: 6.3700, time: 6, energy_Wh: 33),
  (cut_id: 86, mch_id: 2, mode_id: 20, feed_rate: 21.8700, blade_speed: 6.3700, time: 6, energy_Wh: 33),
  (cut_id: 86, mch_id: 1, mode_id: 21, feed_rate: 26.2500, blade_speed: 2.1200, time: 5, energy_Wh: 44),
  (cut_id: 86, mch_id: 3, mode_id: 21, feed_rate: 26.2500, blade_speed: 2.1200, time: 5, energy_Wh: 44),
  (cut_id: 86, mch_id: 2, mode_id: 21, feed_rate: 26.2500, blade_speed: 2.1200, time: 5, energy_Wh: 44),
  (cut_id: 86, mch_id: 1, mode_id: 22, feed_rate: 26.2500, blade_speed: 3.1900, time: 5, energy_Wh: 34),
  (cut_id: 86, mch_id: 3, mode_id: 22, feed_rate: 26.2500, blade_speed: 3.1900, time: 5, energy_Wh: 34),
  (cut_id: 86, mch_id: 2, mode_id: 22, feed_rate: 26.2500, blade_speed: 3.1900, time: 5, energy_Wh: 34),
  (cut_id: 86, mch_id: 1, mode_id: 23, feed_rate: 26.2500, blade_speed: 4.2500, time: 5, energy_Wh: 26),
  (cut_id: 86, mch_id: 3, mode_id: 23, feed_rate: 26.2500, blade_speed: 4.2500, time: 5, energy_Wh: 26),
  (cut_id: 86, mch_id: 2, mode_id: 23, feed_rate: 26.2500, blade_speed: 4.2500, time: 5, energy_Wh: 26),
  (cut_id: 86, mch_id: 1, mode_id: 24, feed_rate: 26.2500, blade_speed: 5.3100, time: 5, energy_Wh: 24),
  (cut_id: 86, mch_id: 3, mode_id: 24, feed_rate: 26.2500, blade_speed: 5.3100, time: 5, energy_Wh: 24),
  (cut_id: 86, mch_id: 2, mode_id: 24, feed_rate: 26.2500, blade_speed: 5.3100, time: 5, energy_Wh: 24),
  (cut_id: 86, mch_id: 1, mode_id: 25, feed_rate: 26.2500, blade_speed: 6.3700, time: 5, energy_Wh: 32),
  (cut_id: 86, mch_id: 3, mode_id: 25, feed_rate: 26.2500, blade_speed: 6.3700, time: 5, energy_Wh: 32),
  (cut_id: 86, mch_id: 2, mode_id: 25, feed_rate: 26.2500, blade_speed: 6.3700, time: 5, energy_Wh: 32),
  (cut_id: 87, mch_id: 1, mode_id: 1, feed_rate: 16.8300, blade_speed: 9.3300, time: 7, energy_Wh: 27),
  (cut_id: 87, mch_id: 2, mode_id: 1, feed_rate: 16.8300, blade_speed: 9.3300, time: 7, energy_Wh: 27),
  (cut_id: 87, mch_id: 3, mode_id: 1, feed_rate: 16.8300, blade_speed: 9.3300, time: 7, energy_Wh: 27),
  (cut_id: 87, mch_id: 1, mode_id: 2, feed_rate: 16.8300, blade_speed: 14.0000, time: 7, energy_Wh: 35),
  (cut_id: 87, mch_id: 2, mode_id: 2, feed_rate: 16.8300, blade_speed: 14.0000, time: 7, energy_Wh: 35),
  (cut_id: 87, mch_id: 3, mode_id: 2, feed_rate: 16.8300, blade_speed: 14.0000, time: 7, energy_Wh: 35),
  (cut_id: 87, mch_id: 1, mode_id: 3, feed_rate: 16.8300, blade_speed: 18.6600, time: 7, energy_Wh: 33),
  (cut_id: 87, mch_id: 2, mode_id: 3, feed_rate: 16.8300, blade_speed: 18.6600, time: 7, energy_Wh: 33),
  (cut_id: 87, mch_id: 3, mode_id: 3, feed_rate: 16.8300, blade_speed: 18.6600, time: 7, energy_Wh: 33),
  (cut_id: 87, mch_id: 1, mode_id: 4, feed_rate: 16.8300, blade_speed: 23.3300, time: 7, energy_Wh: 22),
  (cut_id: 87, mch_id: 2, mode_id: 4, feed_rate: 16.8300, blade_speed: 23.3300, time: 7, energy_Wh: 22),
  (cut_id: 87, mch_id: 3, mode_id: 4, feed_rate: 16.8300, blade_speed: 23.3300, time: 7, energy_Wh: 22),
  (cut_id: 87, mch_id: 1, mode_id: 5, feed_rate: 16.8300, blade_speed: 28.0000, time: 7, energy_Wh: 42),
  (cut_id: 87, mch_id: 2, mode_id: 5, feed_rate: 16.8300, blade_speed: 28.0000, time: 7, energy_Wh: 42),
  (cut_id: 87, mch_id: 3, mode_id: 5, feed_rate: 16.8300, blade_speed: 28.0000, time: 7, energy_Wh: 42),
  (cut_id: 87, mch_id: 1, mode_id: 6, feed_rate: 25.2500, blade_speed: 9.3300, time: 5, energy_Wh: 39),
  (cut_id: 87, mch_id: 2, mode_id: 6, feed_rate: 25.2500, blade_speed: 9.3300, time: 5, energy_Wh: 39),
  (cut_id: 87, mch_id: 3, mode_id: 6, feed_rate: 25.2500, blade_speed: 9.3300, time: 5, energy_Wh: 39),
  (cut_id: 87, mch_id: 1, mode_id: 7, feed_rate: 25.2500, blade_speed: 14.0000, time: 5, energy_Wh: 52),
  (cut_id: 87, mch_id: 2, mode_id: 7, feed_rate: 25.2500, blade_speed: 14.0000, time: 5, energy_Wh: 52),
  (cut_id: 87, mch_id: 3, mode_id: 7, feed_rate: 25.2500, blade_speed: 14.0000, time: 5, energy_Wh: 52),
  (cut_id: 87, mch_id: 1, mode_id: 8, feed_rate: 25.2500, blade_speed: 18.6600, time: 5, energy_Wh: 34),
  (cut_id: 87, mch_id: 2, mode_id: 8, feed_rate: 25.2500, blade_speed: 18.6600, time: 5, energy_Wh: 34),
  (cut_id: 87, mch_id: 3, mode_id: 8, feed_rate: 25.2500, blade_speed: 18.6600, time: 5, energy_Wh: 34),
  (cut_id: 87, mch_id: 1, mode_id: 9, feed_rate: 25.2500, blade_speed: 23.3300, time: 5, energy_Wh: 27),
  (cut_id: 87, mch_id: 2, mode_id: 9, feed_rate: 25.2500, blade_speed: 23.3300, time: 5, energy_Wh: 27),
  (cut_id: 87, mch_id: 3, mode_id: 9, feed_rate: 25.2500, blade_speed: 23.3300, time: 5, energy_Wh: 27),
  (cut_id: 87, mch_id: 1, mode_id: 10, feed_rate: 25.2500, blade_speed: 28.0000, time: 5, energy_Wh: 46),
  (cut_id: 87, mch_id: 2, mode_id: 10, feed_rate: 25.2500, blade_speed: 28.0000, time: 5, energy_Wh: 46),
  (cut_id: 87, mch_id: 3, mode_id: 10, feed_rate: 25.2500, blade_speed: 28.0000, time: 5, energy_Wh: 46),
  (cut_id: 87, mch_id: 1, mode_id: 11, feed_rate: 33.6600, blade_speed: 9.3300, time: 4, energy_Wh: 46),
  (cut_id: 87, mch_id: 2, mode_id: 11, feed_rate: 33.6600, blade_speed: 9.3300, time: 4, energy_Wh: 46),
  (cut_id: 87, mch_id: 3, mode_id: 11, feed_rate: 33.6600, blade_speed: 9.3300, time: 4, energy_Wh: 46),
  (cut_id: 87, mch_id: 1, mode_id: 12, feed_rate: 33.6600, blade_speed: 14.0000, time: 4, energy_Wh: 66),
  (cut_id: 87, mch_id: 2, mode_id: 12, feed_rate: 33.6600, blade_speed: 14.0000, time: 4, energy_Wh: 66),
  (cut_id: 87, mch_id: 3, mode_id: 12, feed_rate: 33.6600, blade_speed: 14.0000, time: 4, energy_Wh: 66),
  (cut_id: 87, mch_id: 1, mode_id: 13, feed_rate: 33.6600, blade_speed: 18.6600, time: 4, energy_Wh: 42),
  (cut_id: 87, mch_id: 2, mode_id: 13, feed_rate: 33.6600, blade_speed: 18.6600, time: 4, energy_Wh: 42),
  (cut_id: 87, mch_id: 3, mode_id: 13, feed_rate: 33.6600, blade_speed: 18.6600, time: 4, energy_Wh: 42),
  (cut_id: 87, mch_id: 1, mode_id: 14, feed_rate: 33.6600, blade_speed: 23.3300, time: 4, energy_Wh: 28),
  (cut_id: 87, mch_id: 2, mode_id: 14, feed_rate: 33.6600, blade_speed: 23.3300, time: 4, energy_Wh: 28),
  (cut_id: 87, mch_id: 3, mode_id: 14, feed_rate: 33.6600, blade_speed: 23.3300, time: 4, energy_Wh: 28),
  (cut_id: 87, mch_id: 1, mode_id: 15, feed_rate: 33.6600, blade_speed: 28.0000, time: 4, energy_Wh: 54),
  (cut_id: 87, mch_id: 2, mode_id: 15, feed_rate: 33.6600, blade_speed: 28.0000, time: 4, energy_Wh: 54),
  (cut_id: 87, mch_id: 3, mode_id: 15, feed_rate: 33.6600, blade_speed: 28.0000, time: 4, energy_Wh: 54),
  (cut_id: 87, mch_id: 1, mode_id: 16, feed_rate: 42.0800, blade_speed: 9.3300, time: 3, energy_Wh: 42),
  (cut_id: 87, mch_id: 2, mode_id: 16, feed_rate: 42.0800, blade_speed: 9.3300, time: 3, energy_Wh: 42),
  (cut_id: 87, mch_id: 3, mode_id: 16, feed_rate: 42.0800, blade_speed: 9.3300, time: 3, energy_Wh: 42),
  (cut_id: 87, mch_id: 1, mode_id: 17, feed_rate: 42.0800, blade_speed: 14.0000, time: 3, energy_Wh: 63),
  (cut_id: 87, mch_id: 2, mode_id: 17, feed_rate: 42.0800, blade_speed: 14.0000, time: 3, energy_Wh: 63),
  (cut_id: 87, mch_id: 3, mode_id: 17, feed_rate: 42.0800, blade_speed: 14.0000, time: 3, energy_Wh: 63),
  (cut_id: 87, mch_id: 1, mode_id: 18, feed_rate: 42.0800, blade_speed: 18.6600, time: 3, energy_Wh: 52),
  (cut_id: 87, mch_id: 2, mode_id: 18, feed_rate: 42.0800, blade_speed: 18.6600, time: 3, energy_Wh: 52),
  (cut_id: 87, mch_id: 3, mode_id: 18, feed_rate: 42.0800, blade_speed: 18.6600, time: 3, energy_Wh: 52),
  (cut_id: 87, mch_id: 1, mode_id: 19, feed_rate: 42.0800, blade_speed: 23.3300, time: 3, energy_Wh: 35),
  (cut_id: 87, mch_id: 2, mode_id: 19, feed_rate: 42.0800, blade_speed: 23.3300, time: 3, energy_Wh: 35),
  (cut_id: 87, mch_id: 3, mode_id: 19, feed_rate: 42.0800, blade_speed: 23.3300, time: 3, energy_Wh: 35),
  (cut_id: 87, mch_id: 1, mode_id: 20, feed_rate: 42.0800, blade_speed: 28.0000, time: 3, energy_Wh: 63),
  (cut_id: 87, mch_id: 2, mode_id: 20, feed_rate: 42.0800, blade_speed: 28.0000, time: 3, energy_Wh: 63),
  (cut_id: 87, mch_id: 3, mode_id: 20, feed_rate: 42.0800, blade_speed: 28.0000, time: 3, energy_Wh: 63),
  (cut_id: 87, mch_id: 1, mode_id: 21, feed_rate: 50.5000, blade_speed: 9.3300, time: 3, energy_Wh: 70),
  (cut_id: 87, mch_id: 2, mode_id: 21, feed_rate: 50.5000, blade_speed: 9.3300, time: 3, energy_Wh: 70),
  (cut_id: 87, mch_id: 3, mode_id: 21, feed_rate: 50.5000, blade_speed: 9.3300, time: 3, energy_Wh: 70),
  (cut_id: 87, mch_id: 1, mode_id: 22, feed_rate: 50.5000, blade_speed: 14.0000, time: 3, energy_Wh: 83),
  (cut_id: 87, mch_id: 2, mode_id: 22, feed_rate: 50.5000, blade_speed: 14.0000, time: 3, energy_Wh: 83),
  (cut_id: 87, mch_id: 3, mode_id: 22, feed_rate: 50.5000, blade_speed: 14.0000, time: 3, energy_Wh: 83),
  (cut_id: 87, mch_id: 1, mode_id: 23, feed_rate: 50.5000, blade_speed: 18.6600, time: 3, energy_Wh: 63),
  (cut_id: 87, mch_id: 2, mode_id: 23, feed_rate: 50.5000, blade_speed: 18.6600, time: 3, energy_Wh: 63),
  (cut_id: 87, mch_id: 3, mode_id: 23, feed_rate: 50.5000, blade_speed: 18.6600, time: 3, energy_Wh: 63),
  (cut_id: 87, mch_id: 1, mode_id: 24, feed_rate: 50.5000, blade_speed: 23.3300, time: 3, energy_Wh: 47),
  (cut_id: 87, mch_id: 2, mode_id: 24, feed_rate: 50.5000, blade_speed: 23.3300, time: 3, energy_Wh: 47),
  (cut_id: 87, mch_id: 3, mode_id: 24, feed_rate: 50.5000, blade_speed: 23.3300, time: 3, energy_Wh: 47),
  (cut_id: 87, mch_id: 1, mode_id: 25, feed_rate: 50.5000, blade_speed: 28.0000, time: 3, energy_Wh: 54),
  (cut_id: 87, mch_id: 2, mode_id: 25, feed_rate: 50.5000, blade_speed: 28.0000, time: 3, energy_Wh: 54),
  (cut_id: 87, mch_id: 3, mode_id: 25, feed_rate: 50.5000, blade_speed: 28.0000, time: 3, energy_Wh: 54),
  (cut_id: 88, mch_id: 3, mode_id: 1, feed_rate: 10.0000, blade_speed: 3.3000, time: 3, energy_Wh: 26),
  (cut_id: 88, mch_id: 1, mode_id: 1, feed_rate: 10.0000, blade_speed: 3.3000, time: 3, energy_Wh: 26),
  (cut_id: 88, mch_id: 2, mode_id: 1, feed_rate: 10.0000, blade_speed: 3.3000, time: 3, energy_Wh: 26),
  (cut_id: 88, mch_id: 3, mode_id: 2, feed_rate: 10.0000, blade_speed: 4.9500, time: 3, energy_Wh: 20),
  (cut_id: 88, mch_id: 1, mode_id: 2, feed_rate: 10.0000, blade_speed: 4.9500, time: 3, energy_Wh: 20),
  (cut_id: 88, mch_id: 2, mode_id: 2, feed_rate: 10.0000, blade_speed: 4.9500, time: 3, energy_Wh: 20),
  (cut_id: 88, mch_id: 3, mode_id: 3, feed_rate: 10.0000, blade_speed: 6.6000, time: 3, energy_Wh: 28),
  (cut_id: 88, mch_id: 1, mode_id: 3, feed_rate: 10.0000, blade_speed: 6.6000, time: 3, energy_Wh: 28),
  (cut_id: 88, mch_id: 2, mode_id: 3, feed_rate: 10.0000, blade_speed: 6.6000, time: 3, energy_Wh: 28),
  (cut_id: 88, mch_id: 3, mode_id: 4, feed_rate: 10.0000, blade_speed: 8.2500, time: 3, energy_Wh: 33),
  (cut_id: 88, mch_id: 1, mode_id: 4, feed_rate: 10.0000, blade_speed: 8.2500, time: 3, energy_Wh: 33),
  (cut_id: 88, mch_id: 2, mode_id: 4, feed_rate: 10.0000, blade_speed: 8.2500, time: 3, energy_Wh: 33),
  (cut_id: 88, mch_id: 3, mode_id: 5, feed_rate: 10.0000, blade_speed: 9.9000, time: 3, energy_Wh: 21),
  (cut_id: 88, mch_id: 1, mode_id: 5, feed_rate: 10.0000, blade_speed: 9.9000, time: 3, energy_Wh: 21),
  (cut_id: 88, mch_id: 2, mode_id: 5, feed_rate: 10.0000, blade_speed: 9.9000, time: 3, energy_Wh: 21),
  (cut_id: 88, mch_id: 3, mode_id: 6, feed_rate: 15.0000, blade_speed: 3.3000, time: 2, energy_Wh: 27),
  (cut_id: 88, mch_id: 1, mode_id: 6, feed_rate: 15.0000, blade_speed: 3.3000, time: 2, energy_Wh: 27),
  (cut_id: 88, mch_id: 2, mode_id: 6, feed_rate: 15.0000, blade_speed: 3.3000, time: 2, energy_Wh: 27),
  (cut_id: 88, mch_id: 3, mode_id: 7, feed_rate: 15.0000, blade_speed: 4.9500, time: 2, energy_Wh: 18),
  (cut_id: 88, mch_id: 1, mode_id: 7, feed_rate: 15.0000, blade_speed: 4.9500, time: 2, energy_Wh: 18),
  (cut_id: 88, mch_id: 2, mode_id: 7, feed_rate: 15.0000, blade_speed: 4.9500, time: 2, energy_Wh: 18),
  (cut_id: 88, mch_id: 3, mode_id: 8, feed_rate: 15.0000, blade_speed: 6.6000, time: 2, energy_Wh: 27),
  (cut_id: 88, mch_id: 1, mode_id: 8, feed_rate: 15.0000, blade_speed: 6.6000, time: 2, energy_Wh: 27),
  (cut_id: 88, mch_id: 2, mode_id: 8, feed_rate: 15.0000, blade_speed: 6.6000, time: 2, energy_Wh: 27),
  (cut_id: 88, mch_id: 3, mode_id: 9, feed_rate: 15.0000, blade_speed: 8.2500, time: 2, energy_Wh: 36),
  (cut_id: 88, mch_id: 1, mode_id: 9, feed_rate: 15.0000, blade_speed: 8.2500, time: 2, energy_Wh: 36),
  (cut_id: 88, mch_id: 2, mode_id: 9, feed_rate: 15.0000, blade_speed: 8.2500, time: 2, energy_Wh: 36),
  (cut_id: 88, mch_id: 3, mode_id: 10, feed_rate: 15.0000, blade_speed: 9.9000, time: 2, energy_Wh: 26),
  (cut_id: 88, mch_id: 1, mode_id: 10, feed_rate: 15.0000, blade_speed: 9.9000, time: 2, energy_Wh: 26),
  (cut_id: 88, mch_id: 2, mode_id: 10, feed_rate: 15.0000, blade_speed: 9.9000, time: 2, energy_Wh: 26),
  (cut_id: 88, mch_id: 3, mode_id: 11, feed_rate: 20.0000, blade_speed: 3.3000, time: 2, energy_Wh: 31),
  (cut_id: 88, mch_id: 1, mode_id: 11, feed_rate: 20.0000, blade_speed: 3.3000, time: 2, energy_Wh: 31),
  (cut_id: 88, mch_id: 2, mode_id: 11, feed_rate: 20.0000, blade_speed: 3.3000, time: 2, energy_Wh: 31),
  (cut_id: 88, mch_id: 3, mode_id: 12, feed_rate: 20.0000, blade_speed: 4.9500, time: 2, energy_Wh: 21),
  (cut_id: 88, mch_id: 1, mode_id: 12, feed_rate: 20.0000, blade_speed: 4.9500, time: 2, energy_Wh: 21),
  (cut_id: 88, mch_id: 2, mode_id: 12, feed_rate: 20.0000, blade_speed: 4.9500, time: 2, energy_Wh: 21),
  (cut_id: 88, mch_id: 3, mode_id: 13, feed_rate: 20.0000, blade_speed: 6.6000, time: 2, energy_Wh: 32),
  (cut_id: 88, mch_id: 1, mode_id: 13, feed_rate: 20.0000, blade_speed: 6.6000, time: 2, energy_Wh: 32),
  (cut_id: 88, mch_id: 2, mode_id: 13, feed_rate: 20.0000, blade_speed: 6.6000, time: 2, energy_Wh: 32),
  (cut_id: 88, mch_id: 3, mode_id: 14, feed_rate: 20.0000, blade_speed: 8.2500, time: 2, energy_Wh: 30),
  (cut_id: 88, mch_id: 1, mode_id: 14, feed_rate: 20.0000, blade_speed: 8.2500, time: 2, energy_Wh: 30),
  (cut_id: 88, mch_id: 2, mode_id: 14, feed_rate: 20.0000, blade_speed: 8.2500, time: 2, energy_Wh: 30),
  (cut_id: 88, mch_id: 3, mode_id: 15, feed_rate: 20.0000, blade_speed: 9.9000, time: 2, energy_Wh: 28),
  (cut_id: 88, mch_id: 1, mode_id: 15, feed_rate: 20.0000, blade_speed: 9.9000, time: 2, energy_Wh: 28),
  (cut_id: 88, mch_id: 2, mode_id: 15, feed_rate: 20.0000, blade_speed: 9.9000, time: 2, energy_Wh: 28),
  (cut_id: 88, mch_id: 3, mode_id: 16, feed_rate: 25.0000, blade_speed: 3.3000, time: 1, energy_Wh: 24),
  (cut_id: 88, mch_id: 1, mode_id: 16, feed_rate: 25.0000, blade_speed: 3.3000, time: 1, energy_Wh: 24),
  (cut_id: 88, mch_id: 2, mode_id: 16, feed_rate: 25.0000, blade_speed: 3.3000, time: 1, energy_Wh: 24),
  (cut_id: 88, mch_id: 3, mode_id: 17, feed_rate: 25.0000, blade_speed: 4.9500, time: 1, energy_Wh: 24),
  (cut_id: 88, mch_id: 1, mode_id: 17, feed_rate: 25.0000, blade_speed: 4.9500, time: 1, energy_Wh: 24),
  (cut_id: 88, mch_id: 2, mode_id: 17, feed_rate: 25.0000, blade_speed: 4.9500, time: 1, energy_Wh: 24),
  (cut_id: 88, mch_id: 3, mode_id: 18, feed_rate: 25.0000, blade_speed: 6.6000, time: 1, energy_Wh: 28),
  (cut_id: 88, mch_id: 1, mode_id: 18, feed_rate: 25.0000, blade_speed: 6.6000, time: 1, energy_Wh: 28),
  (cut_id: 88, mch_id: 2, mode_id: 18, feed_rate: 25.0000, blade_speed: 6.6000, time: 1, energy_Wh: 28),
  (cut_id: 88, mch_id: 3, mode_id: 19, feed_rate: 25.0000, blade_speed: 8.2500, time: 1, energy_Wh: 40),
  (cut_id: 88, mch_id: 1, mode_id: 19, feed_rate: 25.0000, blade_speed: 8.2500, time: 1, energy_Wh: 40),
  (cut_id: 88, mch_id: 2, mode_id: 19, feed_rate: 25.0000, blade_speed: 8.2500, time: 1, energy_Wh: 40),
  (cut_id: 88, mch_id: 3, mode_id: 20, feed_rate: 25.0000, blade_speed: 9.9000, time: 1, energy_Wh: 25),
  (cut_id: 88, mch_id: 1, mode_id: 20, feed_rate: 25.0000, blade_speed: 9.9000, time: 1, energy_Wh: 25),
  (cut_id: 88, mch_id: 2, mode_id: 20, feed_rate: 25.0000, blade_speed: 9.9000, time: 1, energy_Wh: 25),
  (cut_id: 88, mch_id: 3, mode_id: 21, feed_rate: 30.0000, blade_speed: 3.3000, time: 1, energy_Wh: 36),
  (cut_id: 88, mch_id: 1, mode_id: 21, feed_rate: 30.0000, blade_speed: 3.3000, time: 1, energy_Wh: 36),
  (cut_id: 88, mch_id: 2, mode_id: 21, feed_rate: 30.0000, blade_speed: 3.3000, time: 1, energy_Wh: 36),
  (cut_id: 88, mch_id: 3, mode_id: 22, feed_rate: 30.0000, blade_speed: 4.9500, time: 1, energy_Wh: 20),
  (cut_id: 88, mch_id: 1, mode_id: 22, feed_rate: 30.0000, blade_speed: 4.9500, time: 1, energy_Wh: 20),
  (cut_id: 88, mch_id: 2, mode_id: 22, feed_rate: 30.0000, blade_speed: 4.9500, time: 1, energy_Wh: 20),
  (cut_id: 88, mch_id: 3, mode_id: 23, feed_rate: 30.0000, blade_speed: 6.6000, time: 1, energy_Wh: 37),
  (cut_id: 88, mch_id: 1, mode_id: 23, feed_rate: 30.0000, blade_speed: 6.6000, time: 1, energy_Wh: 37),
  (cut_id: 88, mch_id: 2, mode_id: 23, feed_rate: 30.0000, blade_speed: 6.6000, time: 1, energy_Wh: 37),
  (cut_id: 88, mch_id: 3, mode_id: 24, feed_rate: 30.0000, blade_speed: 8.2500, time: 1, energy_Wh: 45),
  (cut_id: 88, mch_id: 1, mode_id: 24, feed_rate: 30.0000, blade_speed: 8.2500, time: 1, energy_Wh: 45),
  (cut_id: 88, mch_id: 2, mode_id: 24, feed_rate: 30.0000, blade_speed: 8.2500, time: 1, energy_Wh: 45),
  (cut_id: 88, mch_id: 3, mode_id: 25, feed_rate: 30.0000, blade_speed: 9.9000, time: 1, energy_Wh: 27),
  (cut_id: 88, mch_id: 1, mode_id: 25, feed_rate: 30.0000, blade_speed: 9.9000, time: 1, energy_Wh: 27),
  (cut_id: 88, mch_id: 2, mode_id: 25, feed_rate: 30.0000, blade_speed: 9.9000, time: 1, energy_Wh: 27),
  (cut_id: 89, mch_id: 2, mode_id: 1, feed_rate: 15.0000, blade_speed: 8.0000, time: 2, energy_Wh: 39),
  (cut_id: 89, mch_id: 3, mode_id: 1, feed_rate: 15.0000, blade_speed: 8.0000, time: 2, energy_Wh: 39),
  (cut_id: 89, mch_id: 1, mode_id: 1, feed_rate: 15.0000, blade_speed: 8.0000, time: 2, energy_Wh: 39),
  (cut_id: 89, mch_id: 2, mode_id: 2, feed_rate: 15.0000, blade_speed: 12.0000, time: 2, energy_Wh: 18),
  (cut_id: 89, mch_id: 3, mode_id: 2, feed_rate: 15.0000, blade_speed: 12.0000, time: 2, energy_Wh: 18),
  (cut_id: 89, mch_id: 1, mode_id: 2, feed_rate: 15.0000, blade_speed: 12.0000, time: 2, energy_Wh: 18),
  (cut_id: 89, mch_id: 2, mode_id: 3, feed_rate: 15.0000, blade_speed: 15.9900, time: 2, energy_Wh: 20),
  (cut_id: 89, mch_id: 3, mode_id: 3, feed_rate: 15.0000, blade_speed: 15.9900, time: 2, energy_Wh: 20),
  (cut_id: 89, mch_id: 1, mode_id: 3, feed_rate: 15.0000, blade_speed: 15.9900, time: 2, energy_Wh: 20),
  (cut_id: 89, mch_id: 2, mode_id: 4, feed_rate: 15.0000, blade_speed: 19.9900, time: 2, energy_Wh: 40),
  (cut_id: 89, mch_id: 3, mode_id: 4, feed_rate: 15.0000, blade_speed: 19.9900, time: 2, energy_Wh: 40),
  (cut_id: 89, mch_id: 1, mode_id: 4, feed_rate: 15.0000, blade_speed: 19.9900, time: 2, energy_Wh: 40),
  (cut_id: 89, mch_id: 2, mode_id: 5, feed_rate: 15.0000, blade_speed: 23.9900, time: 2, energy_Wh: 19),
  (cut_id: 89, mch_id: 3, mode_id: 5, feed_rate: 15.0000, blade_speed: 23.9900, time: 2, energy_Wh: 19),
  (cut_id: 89, mch_id: 1, mode_id: 5, feed_rate: 15.0000, blade_speed: 23.9900, time: 2, energy_Wh: 19),
  (cut_id: 89, mch_id: 2, mode_id: 6, feed_rate: 22.5000, blade_speed: 8.0000, time: 2, energy_Wh: 35),
  (cut_id: 89, mch_id: 3, mode_id: 6, feed_rate: 22.5000, blade_speed: 8.0000, time: 2, energy_Wh: 35),
  (cut_id: 89, mch_id: 1, mode_id: 6, feed_rate: 22.5000, blade_speed: 8.0000, time: 2, energy_Wh: 35),
  (cut_id: 89, mch_id: 2, mode_id: 7, feed_rate: 22.5000, blade_speed: 12.0000, time: 2, energy_Wh: 22),
  (cut_id: 89, mch_id: 3, mode_id: 7, feed_rate: 22.5000, blade_speed: 12.0000, time: 2, energy_Wh: 22),
  (cut_id: 89, mch_id: 1, mode_id: 7, feed_rate: 22.5000, blade_speed: 12.0000, time: 2, energy_Wh: 22),
  (cut_id: 89, mch_id: 2, mode_id: 8, feed_rate: 22.5000, blade_speed: 15.9900, time: 2, energy_Wh: 24),
  (cut_id: 89, mch_id: 3, mode_id: 8, feed_rate: 22.5000, blade_speed: 15.9900, time: 2, energy_Wh: 24),
  (cut_id: 89, mch_id: 1, mode_id: 8, feed_rate: 22.5000, blade_speed: 15.9900, time: 2, energy_Wh: 24),
  (cut_id: 89, mch_id: 2, mode_id: 9, feed_rate: 22.5000, blade_speed: 19.9900, time: 2, energy_Wh: 37),
  (cut_id: 89, mch_id: 3, mode_id: 9, feed_rate: 22.5000, blade_speed: 19.9900, time: 2, energy_Wh: 37),
  (cut_id: 89, mch_id: 1, mode_id: 9, feed_rate: 22.5000, blade_speed: 19.9900, time: 2, energy_Wh: 37),
  (cut_id: 89, mch_id: 2, mode_id: 10, feed_rate: 22.5000, blade_speed: 23.9900, time: 2, energy_Wh: 17),
  (cut_id: 89, mch_id: 3, mode_id: 10, feed_rate: 22.5000, blade_speed: 23.9900, time: 2, energy_Wh: 17),
  (cut_id: 89, mch_id: 1, mode_id: 10, feed_rate: 22.5000, blade_speed: 23.9900, time: 2, energy_Wh: 17),
  (cut_id: 89, mch_id: 2, mode_id: 11, feed_rate: 30.0000, blade_speed: 8.0000, time: 1, energy_Wh: 39),
  (cut_id: 89, mch_id: 3, mode_id: 11, feed_rate: 30.0000, blade_speed: 8.0000, time: 1, energy_Wh: 39),
  (cut_id: 89, mch_id: 1, mode_id: 11, feed_rate: 30.0000, blade_speed: 8.0000, time: 1, energy_Wh: 39),
  (cut_id: 89, mch_id: 2, mode_id: 12, feed_rate: 30.0000, blade_speed: 12.0000, time: 1, energy_Wh: 34),
  (cut_id: 89, mch_id: 3, mode_id: 12, feed_rate: 30.0000, blade_speed: 12.0000, time: 1, energy_Wh: 34),
  (cut_id: 89, mch_id: 1, mode_id: 12, feed_rate: 30.0000, blade_speed: 12.0000, time: 1, energy_Wh: 34),
  (cut_id: 89, mch_id: 2, mode_id: 13, feed_rate: 30.0000, blade_speed: 15.9900, time: 1, energy_Wh: 36),
  (cut_id: 89, mch_id: 3, mode_id: 13, feed_rate: 30.0000, blade_speed: 15.9900, time: 1, energy_Wh: 36),
  (cut_id: 89, mch_id: 1, mode_id: 13, feed_rate: 30.0000, blade_speed: 15.9900, time: 1, energy_Wh: 36),
  (cut_id: 89, mch_id: 2, mode_id: 14, feed_rate: 30.0000, blade_speed: 19.9900, time: 1, energy_Wh: 50),
  (cut_id: 89, mch_id: 3, mode_id: 14, feed_rate: 30.0000, blade_speed: 19.9900, time: 1, energy_Wh: 50),
  (cut_id: 89, mch_id: 1, mode_id: 14, feed_rate: 30.0000, blade_speed: 19.9900, time: 1, energy_Wh: 50),
  (cut_id: 89, mch_id: 2, mode_id: 15, feed_rate: 30.0000, blade_speed: 23.9900, time: 1, energy_Wh: 22),
  (cut_id: 89, mch_id: 3, mode_id: 15, feed_rate: 30.0000, blade_speed: 23.9900, time: 1, energy_Wh: 22),
  (cut_id: 89, mch_id: 1, mode_id: 15, feed_rate: 30.0000, blade_speed: 23.9900, time: 1, energy_Wh: 22),
  (cut_id: 89, mch_id: 2, mode_id: 16, feed_rate: 37.5000, blade_speed: 8.0000, time: 1, energy_Wh: 47),
  (cut_id: 89, mch_id: 3, mode_id: 16, feed_rate: 37.5000, blade_speed: 8.0000, time: 1, energy_Wh: 47),
  (cut_id: 89, mch_id: 1, mode_id: 16, feed_rate: 37.5000, blade_speed: 8.0000, time: 1, energy_Wh: 47),
  (cut_id: 89, mch_id: 2, mode_id: 17, feed_rate: 37.5000, blade_speed: 12.0000, time: 1, energy_Wh: 38),
  (cut_id: 89, mch_id: 3, mode_id: 17, feed_rate: 37.5000, blade_speed: 12.0000, time: 1, energy_Wh: 38),
  (cut_id: 89, mch_id: 1, mode_id: 17, feed_rate: 37.5000, blade_speed: 12.0000, time: 1, energy_Wh: 38),
  (cut_id: 89, mch_id: 2, mode_id: 18, feed_rate: 37.5000, blade_speed: 15.9900, time: 1, energy_Wh: 40),
  (cut_id: 89, mch_id: 3, mode_id: 18, feed_rate: 37.5000, blade_speed: 15.9900, time: 1, energy_Wh: 40),
  (cut_id: 89, mch_id: 1, mode_id: 18, feed_rate: 37.5000, blade_speed: 15.9900, time: 1, energy_Wh: 40),
  (cut_id: 89, mch_id: 2, mode_id: 19, feed_rate: 37.5000, blade_speed: 19.9900, time: 1, energy_Wh: 46),
  (cut_id: 89, mch_id: 3, mode_id: 19, feed_rate: 37.5000, blade_speed: 19.9900, time: 1, energy_Wh: 46),
  (cut_id: 89, mch_id: 1, mode_id: 19, feed_rate: 37.5000, blade_speed: 19.9900, time: 1, energy_Wh: 46),
  (cut_id: 89, mch_id: 2, mode_id: 20, feed_rate: 37.5000, blade_speed: 23.9900, time: 1, energy_Wh: 32),
  (cut_id: 89, mch_id: 3, mode_id: 20, feed_rate: 37.5000, blade_speed: 23.9900, time: 1, energy_Wh: 32),
  (cut_id: 89, mch_id: 1, mode_id: 20, feed_rate: 37.5000, blade_speed: 23.9900, time: 1, energy_Wh: 32),
  (cut_id: 89, mch_id: 2, mode_id: 21, feed_rate: 45.0000, blade_speed: 8.0000, time: 1, energy_Wh: 51),
  (cut_id: 89, mch_id: 3, mode_id: 21, feed_rate: 45.0000, blade_speed: 8.0000, time: 1, energy_Wh: 51),
  (cut_id: 89, mch_id: 1, mode_id: 21, feed_rate: 45.0000, blade_speed: 8.0000, time: 1, energy_Wh: 51),
  (cut_id: 89, mch_id: 2, mode_id: 22, feed_rate: 45.0000, blade_speed: 12.0000, time: 1, energy_Wh: 45),
  (cut_id: 89, mch_id: 3, mode_id: 22, feed_rate: 45.0000, blade_speed: 12.0000, time: 1, energy_Wh: 45),
  (cut_id: 89, mch_id: 1, mode_id: 22, feed_rate: 45.0000, blade_speed: 12.0000, time: 1, energy_Wh: 45),
  (cut_id: 89, mch_id: 2, mode_id: 23, feed_rate: 45.0000, blade_speed: 15.9900, time: 1, energy_Wh: 44),
  (cut_id: 89, mch_id: 3, mode_id: 23, feed_rate: 45.0000, blade_speed: 15.9900, time: 1, energy_Wh: 44),
  (cut_id: 89, mch_id: 1, mode_id: 23, feed_rate: 45.0000, blade_speed: 15.9900, time: 1, energy_Wh: 44),
  (cut_id: 89, mch_id: 2, mode_id: 24, feed_rate: 45.0000, blade_speed: 19.9900, time: 1, energy_Wh: 54),
  (cut_id: 89, mch_id: 3, mode_id: 24, feed_rate: 45.0000, blade_speed: 19.9900, time: 1, energy_Wh: 54),
  (cut_id: 89, mch_id: 1, mode_id: 24, feed_rate: 45.0000, blade_speed: 19.9900, time: 1, energy_Wh: 54),
  (cut_id: 89, mch_id: 2, mode_id: 25, feed_rate: 45.0000, blade_speed: 23.9900, time: 1, energy_Wh: 37),
  (cut_id: 89, mch_id: 3, mode_id: 25, feed_rate: 45.0000, blade_speed: 23.9900, time: 1, energy_Wh: 37),
  (cut_id: 89, mch_id: 1, mode_id: 25, feed_rate: 45.0000, blade_speed: 23.9900, time: 1, energy_Wh: 37),
  (cut_id: 90, mch_id: 3, mode_id: 1, feed_rate: 10.0000, blade_speed: 2.6700, time: 25, energy_Wh: 32),
  (cut_id: 90, mch_id: 2, mode_id: 1, feed_rate: 10.0000, blade_speed: 2.6700, time: 25, energy_Wh: 32),
  (cut_id: 90, mch_id: 1, mode_id: 1, feed_rate: 10.0000, blade_speed: 2.6700, time: 25, energy_Wh: 32),
  (cut_id: 90, mch_id: 3, mode_id: 2, feed_rate: 10.0000, blade_speed: 4.0000, time: 25, energy_Wh: 31),
  (cut_id: 90, mch_id: 2, mode_id: 2, feed_rate: 10.0000, blade_speed: 4.0000, time: 25, energy_Wh: 31),
  (cut_id: 90, mch_id: 1, mode_id: 2, feed_rate: 10.0000, blade_speed: 4.0000, time: 25, energy_Wh: 31),
  (cut_id: 90, mch_id: 3, mode_id: 3, feed_rate: 10.0000, blade_speed: 5.3400, time: 25, energy_Wh: 31),
  (cut_id: 90, mch_id: 2, mode_id: 3, feed_rate: 10.0000, blade_speed: 5.3400, time: 25, energy_Wh: 31),
  (cut_id: 90, mch_id: 1, mode_id: 3, feed_rate: 10.0000, blade_speed: 5.3400, time: 25, energy_Wh: 31),
  (cut_id: 90, mch_id: 3, mode_id: 4, feed_rate: 10.0000, blade_speed: 6.6700, time: 25, energy_Wh: 33),
  (cut_id: 90, mch_id: 2, mode_id: 4, feed_rate: 10.0000, blade_speed: 6.6700, time: 25, energy_Wh: 33),
  (cut_id: 90, mch_id: 1, mode_id: 4, feed_rate: 10.0000, blade_speed: 6.6700, time: 25, energy_Wh: 33),
  (cut_id: 90, mch_id: 3, mode_id: 5, feed_rate: 10.0000, blade_speed: 8.0000, time: 25, energy_Wh: 53),
  (cut_id: 90, mch_id: 2, mode_id: 5, feed_rate: 10.0000, blade_speed: 8.0000, time: 25, energy_Wh: 53),
  (cut_id: 90, mch_id: 1, mode_id: 5, feed_rate: 10.0000, blade_speed: 8.0000, time: 25, energy_Wh: 53),
  (cut_id: 90, mch_id: 3, mode_id: 6, feed_rate: 15.0000, blade_speed: 2.6700, time: 17, energy_Wh: 55),
  (cut_id: 90, mch_id: 2, mode_id: 6, feed_rate: 15.0000, blade_speed: 2.6700, time: 17, energy_Wh: 55),
  (cut_id: 90, mch_id: 1, mode_id: 6, feed_rate: 15.0000, blade_speed: 2.6700, time: 17, energy_Wh: 55),
  (cut_id: 90, mch_id: 3, mode_id: 7, feed_rate: 15.0000, blade_speed: 4.0000, time: 17, energy_Wh: 37),
  (cut_id: 90, mch_id: 2, mode_id: 7, feed_rate: 15.0000, blade_speed: 4.0000, time: 17, energy_Wh: 37),
  (cut_id: 90, mch_id: 1, mode_id: 7, feed_rate: 15.0000, blade_speed: 4.0000, time: 17, energy_Wh: 37),
  (cut_id: 90, mch_id: 3, mode_id: 8, feed_rate: 15.0000, blade_speed: 5.3400, time: 17, energy_Wh: 35),
  (cut_id: 90, mch_id: 2, mode_id: 8, feed_rate: 15.0000, blade_speed: 5.3400, time: 17, energy_Wh: 35),
  (cut_id: 90, mch_id: 1, mode_id: 8, feed_rate: 15.0000, blade_speed: 5.3400, time: 17, energy_Wh: 35),
  (cut_id: 90, mch_id: 3, mode_id: 9, feed_rate: 15.0000, blade_speed: 6.6700, time: 17, energy_Wh: 50),
  (cut_id: 90, mch_id: 2, mode_id: 9, feed_rate: 15.0000, blade_speed: 6.6700, time: 17, energy_Wh: 50),
  (cut_id: 90, mch_id: 1, mode_id: 9, feed_rate: 15.0000, blade_speed: 6.6700, time: 17, energy_Wh: 50),
  (cut_id: 90, mch_id: 3, mode_id: 10, feed_rate: 15.0000, blade_speed: 8.0000, time: 17, energy_Wh: 45),
  (cut_id: 90, mch_id: 2, mode_id: 10, feed_rate: 15.0000, blade_speed: 8.0000, time: 17, energy_Wh: 45),
  (cut_id: 90, mch_id: 1, mode_id: 10, feed_rate: 15.0000, blade_speed: 8.0000, time: 17, energy_Wh: 45),
  (cut_id: 90, mch_id: 3, mode_id: 11, feed_rate: 20.0000, blade_speed: 2.6700, time: 13, energy_Wh: 60),
  (cut_id: 90, mch_id: 2, mode_id: 11, feed_rate: 20.0000, blade_speed: 2.6700, time: 13, energy_Wh: 60),
  (cut_id: 90, mch_id: 1, mode_id: 11, feed_rate: 20.0000, blade_speed: 2.6700, time: 13, energy_Wh: 60),
  (cut_id: 90, mch_id: 3, mode_id: 12, feed_rate: 20.0000, blade_speed: 4.0000, time: 13, energy_Wh: 34),
  (cut_id: 90, mch_id: 2, mode_id: 12, feed_rate: 20.0000, blade_speed: 4.0000, time: 13, energy_Wh: 34),
  (cut_id: 90, mch_id: 1, mode_id: 12, feed_rate: 20.0000, blade_speed: 4.0000, time: 13, energy_Wh: 34),
  (cut_id: 90, mch_id: 3, mode_id: 13, feed_rate: 20.0000, blade_speed: 5.3400, time: 13, energy_Wh: 38),
  (cut_id: 90, mch_id: 2, mode_id: 13, feed_rate: 20.0000, blade_speed: 5.3400, time: 13, energy_Wh: 38),
  (cut_id: 90, mch_id: 1, mode_id: 13, feed_rate: 20.0000, blade_speed: 5.3400, time: 13, energy_Wh: 38),
  (cut_id: 90, mch_id: 3, mode_id: 14, feed_rate: 20.0000, blade_speed: 6.6700, time: 13, energy_Wh: 46),
  (cut_id: 90, mch_id: 2, mode_id: 14, feed_rate: 20.0000, blade_speed: 6.6700, time: 13, energy_Wh: 46),
  (cut_id: 90, mch_id: 1, mode_id: 14, feed_rate: 20.0000, blade_speed: 6.6700, time: 13, energy_Wh: 46),
  (cut_id: 90, mch_id: 3, mode_id: 15, feed_rate: 20.0000, blade_speed: 8.0000, time: 13, energy_Wh: 67),
  (cut_id: 90, mch_id: 2, mode_id: 15, feed_rate: 20.0000, blade_speed: 8.0000, time: 13, energy_Wh: 67),
  (cut_id: 90, mch_id: 1, mode_id: 15, feed_rate: 20.0000, blade_speed: 8.0000, time: 13, energy_Wh: 67),
  (cut_id: 90, mch_id: 3, mode_id: 16, feed_rate: 25.0000, blade_speed: 2.6700, time: 10, energy_Wh: 45),
  (cut_id: 90, mch_id: 2, mode_id: 16, feed_rate: 25.0000, blade_speed: 2.6700, time: 10, energy_Wh: 45),
  (cut_id: 90, mch_id: 1, mode_id: 16, feed_rate: 25.0000, blade_speed: 2.6700, time: 10, energy_Wh: 45),
  (cut_id: 90, mch_id: 3, mode_id: 17, feed_rate: 25.0000, blade_speed: 4.0000, time: 10, energy_Wh: 38),
  (cut_id: 90, mch_id: 2, mode_id: 17, feed_rate: 25.0000, blade_speed: 4.0000, time: 10, energy_Wh: 38),
  (cut_id: 90, mch_id: 1, mode_id: 17, feed_rate: 25.0000, blade_speed: 4.0000, time: 10, energy_Wh: 38),
  (cut_id: 90, mch_id: 3, mode_id: 18, feed_rate: 25.0000, blade_speed: 5.3400, time: 10, energy_Wh: 42),
  (cut_id: 90, mch_id: 2, mode_id: 18, feed_rate: 25.0000, blade_speed: 5.3400, time: 10, energy_Wh: 42),
  (cut_id: 90, mch_id: 1, mode_id: 18, feed_rate: 25.0000, blade_speed: 5.3400, time: 10, energy_Wh: 42),
  (cut_id: 90, mch_id: 3, mode_id: 19, feed_rate: 25.0000, blade_speed: 6.6700, time: 10, energy_Wh: 57),
  (cut_id: 90, mch_id: 2, mode_id: 19, feed_rate: 25.0000, blade_speed: 6.6700, time: 10, energy_Wh: 57),
  (cut_id: 90, mch_id: 1, mode_id: 19, feed_rate: 25.0000, blade_speed: 6.6700, time: 10, energy_Wh: 57),
  (cut_id: 90, mch_id: 3, mode_id: 20, feed_rate: 25.0000, blade_speed: 8.0000, time: 10, energy_Wh: 65),
  (cut_id: 90, mch_id: 2, mode_id: 20, feed_rate: 25.0000, blade_speed: 8.0000, time: 10, energy_Wh: 65),
  (cut_id: 90, mch_id: 1, mode_id: 20, feed_rate: 25.0000, blade_speed: 8.0000, time: 10, energy_Wh: 65),
  (cut_id: 90, mch_id: 3, mode_id: 21, feed_rate: 30.0000, blade_speed: 2.6700, time: 9, energy_Wh: 68),
  (cut_id: 90, mch_id: 2, mode_id: 21, feed_rate: 30.0000, blade_speed: 2.6700, time: 9, energy_Wh: 68),
  (cut_id: 90, mch_id: 1, mode_id: 21, feed_rate: 30.0000, blade_speed: 2.6700, time: 9, energy_Wh: 68),
  (cut_id: 90, mch_id: 3, mode_id: 22, feed_rate: 30.0000, blade_speed: 4.0000, time: 9, energy_Wh: 45),
  (cut_id: 90, mch_id: 2, mode_id: 22, feed_rate: 30.0000, blade_speed: 4.0000, time: 9, energy_Wh: 45),
  (cut_id: 90, mch_id: 1, mode_id: 22, feed_rate: 30.0000, blade_speed: 4.0000, time: 9, energy_Wh: 45),
  (cut_id: 90, mch_id: 3, mode_id: 23, feed_rate: 30.0000, blade_speed: 5.3400, time: 9, energy_Wh: 37),
  (cut_id: 90, mch_id: 2, mode_id: 23, feed_rate: 30.0000, blade_speed: 5.3400, time: 9, energy_Wh: 37),
  (cut_id: 90, mch_id: 1, mode_id: 23, feed_rate: 30.0000, blade_speed: 5.3400, time: 9, energy_Wh: 37),
  (cut_id: 90, mch_id: 3, mode_id: 24, feed_rate: 30.0000, blade_speed: 6.6700, time: 9, energy_Wh: 61),
  (cut_id: 90, mch_id: 2, mode_id: 24, feed_rate: 30.0000, blade_speed: 6.6700, time: 9, energy_Wh: 61),
  (cut_id: 90, mch_id: 1, mode_id: 24, feed_rate: 30.0000, blade_speed: 6.6700, time: 9, energy_Wh: 61),
  (cut_id: 90, mch_id: 3, mode_id: 25, feed_rate: 30.0000, blade_speed: 8.0000, time: 9, energy_Wh: 74),
  (cut_id: 90, mch_id: 2, mode_id: 25, feed_rate: 30.0000, blade_speed: 8.0000, time: 9, energy_Wh: 74),
  (cut_id: 90, mch_id: 1, mode_id: 25, feed_rate: 30.0000, blade_speed: 8.0000, time: 9, energy_Wh: 74),
  (cut_id: 91, mch_id: 1, mode_id: 1, feed_rate: 36.0000, blade_speed: 22.0000, time: 7, energy_Wh: 61),
  (cut_id: 91, mch_id: 2, mode_id: 1, feed_rate: 36.0000, blade_speed: 22.0000, time: 7, energy_Wh: 61),
  (cut_id: 91, mch_id: 3, mode_id: 1, feed_rate: 36.0000, blade_speed: 22.0000, time: 7, energy_Wh: 61),
  (cut_id: 91, mch_id: 1, mode_id: 2, feed_rate: 36.0000, blade_speed: 33.0000, time: 7, energy_Wh: 75),
  (cut_id: 91, mch_id: 2, mode_id: 2, feed_rate: 36.0000, blade_speed: 33.0000, time: 7, energy_Wh: 75),
  (cut_id: 91, mch_id: 3, mode_id: 2, feed_rate: 36.0000, blade_speed: 33.0000, time: 7, energy_Wh: 75),
  (cut_id: 91, mch_id: 1, mode_id: 3, feed_rate: 36.0000, blade_speed: 44.0000, time: 7, energy_Wh: 54),
  (cut_id: 91, mch_id: 2, mode_id: 3, feed_rate: 36.0000, blade_speed: 44.0000, time: 7, energy_Wh: 54),
  (cut_id: 91, mch_id: 3, mode_id: 3, feed_rate: 36.0000, blade_speed: 44.0000, time: 7, energy_Wh: 54),
  (cut_id: 91, mch_id: 1, mode_id: 4, feed_rate: 36.0000, blade_speed: 55.0000, time: 7, energy_Wh: 42),
  (cut_id: 91, mch_id: 2, mode_id: 4, feed_rate: 36.0000, blade_speed: 55.0000, time: 7, energy_Wh: 42),
  (cut_id: 91, mch_id: 3, mode_id: 4, feed_rate: 36.0000, blade_speed: 55.0000, time: 7, energy_Wh: 42),
  (cut_id: 91, mch_id: 1, mode_id: 5, feed_rate: 36.0000, blade_speed: 66.0000, time: 7, energy_Wh: 58),
  (cut_id: 91, mch_id: 2, mode_id: 5, feed_rate: 36.0000, blade_speed: 66.0000, time: 7, energy_Wh: 58),
  (cut_id: 91, mch_id: 3, mode_id: 5, feed_rate: 36.0000, blade_speed: 66.0000, time: 7, energy_Wh: 58),
  (cut_id: 91, mch_id: 1, mode_id: 6, feed_rate: 54.0000, blade_speed: 22.0000, time: 5, energy_Wh: 73),
  (cut_id: 91, mch_id: 2, mode_id: 6, feed_rate: 54.0000, blade_speed: 22.0000, time: 5, energy_Wh: 73),
  (cut_id: 91, mch_id: 3, mode_id: 6, feed_rate: 54.0000, blade_speed: 22.0000, time: 5, energy_Wh: 73),
  (cut_id: 91, mch_id: 1, mode_id: 7, feed_rate: 54.0000, blade_speed: 33.0000, time: 5, energy_Wh: 109),
  (cut_id: 91, mch_id: 2, mode_id: 7, feed_rate: 54.0000, blade_speed: 33.0000, time: 5, energy_Wh: 109),
  (cut_id: 91, mch_id: 3, mode_id: 7, feed_rate: 54.0000, blade_speed: 33.0000, time: 5, energy_Wh: 109),
  (cut_id: 91, mch_id: 1, mode_id: 8, feed_rate: 54.0000, blade_speed: 44.0000, time: 5, energy_Wh: 63),
  (cut_id: 91, mch_id: 2, mode_id: 8, feed_rate: 54.0000, blade_speed: 44.0000, time: 5, energy_Wh: 63),
  (cut_id: 91, mch_id: 3, mode_id: 8, feed_rate: 54.0000, blade_speed: 44.0000, time: 5, energy_Wh: 63),
  (cut_id: 91, mch_id: 1, mode_id: 9, feed_rate: 54.0000, blade_speed: 55.0000, time: 5, energy_Wh: 53),
  (cut_id: 91, mch_id: 2, mode_id: 9, feed_rate: 54.0000, blade_speed: 55.0000, time: 5, energy_Wh: 53),
  (cut_id: 91, mch_id: 3, mode_id: 9, feed_rate: 54.0000, blade_speed: 55.0000, time: 5, energy_Wh: 53),
  (cut_id: 91, mch_id: 1, mode_id: 10, feed_rate: 54.0000, blade_speed: 66.0000, time: 5, energy_Wh: 74),
  (cut_id: 91, mch_id: 2, mode_id: 10, feed_rate: 54.0000, blade_speed: 66.0000, time: 5, energy_Wh: 74),
  (cut_id: 91, mch_id: 3, mode_id: 10, feed_rate: 54.0000, blade_speed: 66.0000, time: 5, energy_Wh: 74),
  (cut_id: 91, mch_id: 1, mode_id: 11, feed_rate: 72.0000, blade_speed: 22.0000, time: 4, energy_Wh: 79),
  (cut_id: 91, mch_id: 2, mode_id: 11, feed_rate: 72.0000, blade_speed: 22.0000, time: 4, energy_Wh: 79),
  (cut_id: 91, mch_id: 3, mode_id: 11, feed_rate: 72.0000, blade_speed: 22.0000, time: 4, energy_Wh: 79),
  (cut_id: 91, mch_id: 1, mode_id: 12, feed_rate: 72.0000, blade_speed: 33.0000, time: 4, energy_Wh: 145),
  (cut_id: 91, mch_id: 2, mode_id: 12, feed_rate: 72.0000, blade_speed: 33.0000, time: 4, energy_Wh: 145),
  (cut_id: 91, mch_id: 3, mode_id: 12, feed_rate: 72.0000, blade_speed: 33.0000, time: 4, energy_Wh: 145),
  (cut_id: 91, mch_id: 1, mode_id: 13, feed_rate: 72.0000, blade_speed: 44.0000, time: 4, energy_Wh: 93),
  (cut_id: 91, mch_id: 2, mode_id: 13, feed_rate: 72.0000, blade_speed: 44.0000, time: 4, energy_Wh: 93),
  (cut_id: 91, mch_id: 3, mode_id: 13, feed_rate: 72.0000, blade_speed: 44.0000, time: 4, energy_Wh: 93),
  (cut_id: 91, mch_id: 1, mode_id: 14, feed_rate: 72.0000, blade_speed: 55.0000, time: 4, energy_Wh: 66),
  (cut_id: 91, mch_id: 2, mode_id: 14, feed_rate: 72.0000, blade_speed: 55.0000, time: 4, energy_Wh: 66),
  (cut_id: 91, mch_id: 3, mode_id: 14, feed_rate: 72.0000, blade_speed: 55.0000, time: 4, energy_Wh: 66),
  (cut_id: 91, mch_id: 1, mode_id: 15, feed_rate: 72.0000, blade_speed: 66.0000, time: 4, energy_Wh: 108),
  (cut_id: 91, mch_id: 2, mode_id: 15, feed_rate: 72.0000, blade_speed: 66.0000, time: 4, energy_Wh: 108),
  (cut_id: 91, mch_id: 3, mode_id: 15, feed_rate: 72.0000, blade_speed: 66.0000, time: 4, energy_Wh: 108),
  (cut_id: 91, mch_id: 1, mode_id: 16, feed_rate: 90.0000, blade_speed: 22.0000, time: 3, energy_Wh: 113),
  (cut_id: 91, mch_id: 2, mode_id: 16, feed_rate: 90.0000, blade_speed: 22.0000, time: 3, energy_Wh: 113),
  (cut_id: 91, mch_id: 3, mode_id: 16, feed_rate: 90.0000, blade_speed: 22.0000, time: 3, energy_Wh: 113),
  (cut_id: 91, mch_id: 1, mode_id: 17, feed_rate: 90.0000, blade_speed: 33.0000, time: 3, energy_Wh: 179),
  (cut_id: 91, mch_id: 2, mode_id: 17, feed_rate: 90.0000, blade_speed: 33.0000, time: 3, energy_Wh: 179),
  (cut_id: 91, mch_id: 3, mode_id: 17, feed_rate: 90.0000, blade_speed: 33.0000, time: 3, energy_Wh: 179),
  (cut_id: 91, mch_id: 1, mode_id: 18, feed_rate: 90.0000, blade_speed: 44.0000, time: 3, energy_Wh: 121),
  (cut_id: 91, mch_id: 2, mode_id: 18, feed_rate: 90.0000, blade_speed: 44.0000, time: 3, energy_Wh: 121),
  (cut_id: 91, mch_id: 3, mode_id: 18, feed_rate: 90.0000, blade_speed: 44.0000, time: 3, energy_Wh: 121),
  (cut_id: 91, mch_id: 1, mode_id: 19, feed_rate: 90.0000, blade_speed: 55.0000, time: 3, energy_Wh: 74),
  (cut_id: 91, mch_id: 2, mode_id: 19, feed_rate: 90.0000, blade_speed: 55.0000, time: 3, energy_Wh: 74),
  (cut_id: 91, mch_id: 3, mode_id: 19, feed_rate: 90.0000, blade_speed: 55.0000, time: 3, energy_Wh: 74),
  (cut_id: 91, mch_id: 1, mode_id: 20, feed_rate: 90.0000, blade_speed: 66.0000, time: 3, energy_Wh: 120),
  (cut_id: 91, mch_id: 2, mode_id: 20, feed_rate: 90.0000, blade_speed: 66.0000, time: 3, energy_Wh: 120),
  (cut_id: 91, mch_id: 3, mode_id: 20, feed_rate: 90.0000, blade_speed: 66.0000, time: 3, energy_Wh: 120),
  (cut_id: 91, mch_id: 1, mode_id: 21, feed_rate: 108.0000, blade_speed: 22.0000, time: 3, energy_Wh: 149),
  (cut_id: 91, mch_id: 2, mode_id: 21, feed_rate: 108.0000, blade_speed: 22.0000, time: 3, energy_Wh: 149),
  (cut_id: 91, mch_id: 3, mode_id: 21, feed_rate: 108.0000, blade_speed: 22.0000, time: 3, energy_Wh: 149),
  (cut_id: 91, mch_id: 1, mode_id: 22, feed_rate: 108.0000, blade_speed: 33.0000, time: 3, energy_Wh: 192),
  (cut_id: 91, mch_id: 2, mode_id: 22, feed_rate: 108.0000, blade_speed: 33.0000, time: 3, energy_Wh: 192),
  (cut_id: 91, mch_id: 3, mode_id: 22, feed_rate: 108.0000, blade_speed: 33.0000, time: 3, energy_Wh: 192),
  (cut_id: 91, mch_id: 1, mode_id: 23, feed_rate: 108.0000, blade_speed: 44.0000, time: 3, energy_Wh: 149),
  (cut_id: 91, mch_id: 2, mode_id: 23, feed_rate: 108.0000, blade_speed: 44.0000, time: 3, energy_Wh: 149),
  (cut_id: 91, mch_id: 3, mode_id: 23, feed_rate: 108.0000, blade_speed: 44.0000, time: 3, energy_Wh: 149),
  (cut_id: 91, mch_id: 1, mode_id: 24, feed_rate: 108.0000, blade_speed: 55.0000, time: 3, energy_Wh: 122),
  (cut_id: 91, mch_id: 2, mode_id: 24, feed_rate: 108.0000, blade_speed: 55.0000, time: 3, energy_Wh: 122),
  (cut_id: 91, mch_id: 3, mode_id: 24, feed_rate: 108.0000, blade_speed: 55.0000, time: 3, energy_Wh: 122),
  (cut_id: 91, mch_id: 1, mode_id: 25, feed_rate: 108.0000, blade_speed: 66.0000, time: 3, energy_Wh: 188),
  (cut_id: 91, mch_id: 2, mode_id: 25, feed_rate: 108.0000, blade_speed: 66.0000, time: 3, energy_Wh: 188),
  (cut_id: 91, mch_id: 3, mode_id: 25, feed_rate: 108.0000, blade_speed: 66.0000, time: 3, energy_Wh: 188),
  (cut_id: 92, mch_id: 2, mode_id: 1, feed_rate: 30.4500, blade_speed: 19.8800, time: 1, energy_Wh: 46),
  (cut_id: 92, mch_id: 3, mode_id: 1, feed_rate: 30.4500, blade_speed: 19.8800, time: 1, energy_Wh: 46),
  (cut_id: 92, mch_id: 1, mode_id: 1, feed_rate: 30.4500, blade_speed: 19.8800, time: 1, energy_Wh: 46),
  (cut_id: 92, mch_id: 2, mode_id: 2, feed_rate: 30.4500, blade_speed: 29.8200, time: 1, energy_Wh: 25),
  (cut_id: 92, mch_id: 3, mode_id: 2, feed_rate: 30.4500, blade_speed: 29.8200, time: 1, energy_Wh: 25),
  (cut_id: 92, mch_id: 1, mode_id: 2, feed_rate: 30.4500, blade_speed: 29.8200, time: 1, energy_Wh: 25),
  (cut_id: 92, mch_id: 2, mode_id: 3, feed_rate: 30.4500, blade_speed: 39.7600, time: 1, energy_Wh: 36),
  (cut_id: 92, mch_id: 3, mode_id: 3, feed_rate: 30.4500, blade_speed: 39.7600, time: 1, energy_Wh: 36),
  (cut_id: 92, mch_id: 1, mode_id: 3, feed_rate: 30.4500, blade_speed: 39.7600, time: 1, energy_Wh: 36),
  (cut_id: 92, mch_id: 2, mode_id: 4, feed_rate: 30.4500, blade_speed: 49.7000, time: 1, energy_Wh: 30),
  (cut_id: 92, mch_id: 3, mode_id: 4, feed_rate: 30.4500, blade_speed: 49.7000, time: 1, energy_Wh: 30),
  (cut_id: 92, mch_id: 1, mode_id: 4, feed_rate: 30.4500, blade_speed: 49.7000, time: 1, energy_Wh: 30),
  (cut_id: 92, mch_id: 2, mode_id: 5, feed_rate: 30.4500, blade_speed: 59.6300, time: 1, energy_Wh: 32),
  (cut_id: 92, mch_id: 3, mode_id: 5, feed_rate: 30.4500, blade_speed: 59.6300, time: 1, energy_Wh: 32),
  (cut_id: 92, mch_id: 1, mode_id: 5, feed_rate: 30.4500, blade_speed: 59.6300, time: 1, energy_Wh: 32),
  (cut_id: 92, mch_id: 2, mode_id: 6, feed_rate: 45.6800, blade_speed: 19.8800, time: 1, energy_Wh: 62),
  (cut_id: 92, mch_id: 3, mode_id: 6, feed_rate: 45.6800, blade_speed: 19.8800, time: 1, energy_Wh: 62),
  (cut_id: 92, mch_id: 1, mode_id: 6, feed_rate: 45.6800, blade_speed: 19.8800, time: 1, energy_Wh: 62),
  (cut_id: 92, mch_id: 2, mode_id: 7, feed_rate: 45.6800, blade_speed: 29.8200, time: 1, energy_Wh: 36),
  (cut_id: 92, mch_id: 3, mode_id: 7, feed_rate: 45.6800, blade_speed: 29.8200, time: 1, energy_Wh: 36),
  (cut_id: 92, mch_id: 1, mode_id: 7, feed_rate: 45.6800, blade_speed: 29.8200, time: 1, energy_Wh: 36),
  (cut_id: 92, mch_id: 2, mode_id: 8, feed_rate: 45.6800, blade_speed: 39.7600, time: 1, energy_Wh: 65),
  (cut_id: 92, mch_id: 3, mode_id: 8, feed_rate: 45.6800, blade_speed: 39.7600, time: 1, energy_Wh: 65),
  (cut_id: 92, mch_id: 1, mode_id: 8, feed_rate: 45.6800, blade_speed: 39.7600, time: 1, energy_Wh: 65),
  (cut_id: 92, mch_id: 2, mode_id: 9, feed_rate: 45.6800, blade_speed: 49.7000, time: 1, energy_Wh: 38),
  (cut_id: 92, mch_id: 3, mode_id: 9, feed_rate: 45.6800, blade_speed: 49.7000, time: 1, energy_Wh: 38),
  (cut_id: 92, mch_id: 1, mode_id: 9, feed_rate: 45.6800, blade_speed: 49.7000, time: 1, energy_Wh: 38),
  (cut_id: 92, mch_id: 2, mode_id: 10, feed_rate: 45.6800, blade_speed: 59.6300, time: 1, energy_Wh: 37),
  (cut_id: 92, mch_id: 3, mode_id: 10, feed_rate: 45.6800, blade_speed: 59.6300, time: 1, energy_Wh: 37),
  (cut_id: 92, mch_id: 1, mode_id: 10, feed_rate: 45.6800, blade_speed: 59.6300, time: 1, energy_Wh: 37),
  (cut_id: 92, mch_id: 2, mode_id: 11, feed_rate: 60.9000, blade_speed: 19.8800, time: 1, energy_Wh: 90),
  (cut_id: 92, mch_id: 3, mode_id: 11, feed_rate: 60.9000, blade_speed: 19.8800, time: 1, energy_Wh: 90),
  (cut_id: 92, mch_id: 1, mode_id: 11, feed_rate: 60.9000, blade_speed: 19.8800, time: 1, energy_Wh: 90),
  (cut_id: 92, mch_id: 2, mode_id: 12, feed_rate: 60.9000, blade_speed: 29.8200, time: 1, energy_Wh: 38),
  (cut_id: 92, mch_id: 3, mode_id: 12, feed_rate: 60.9000, blade_speed: 29.8200, time: 1, energy_Wh: 38),
  (cut_id: 92, mch_id: 1, mode_id: 12, feed_rate: 60.9000, blade_speed: 29.8200, time: 1, energy_Wh: 38),
  (cut_id: 92, mch_id: 2, mode_id: 13, feed_rate: 60.9000, blade_speed: 39.7600, time: 1, energy_Wh: 82),
  (cut_id: 92, mch_id: 3, mode_id: 13, feed_rate: 60.9000, blade_speed: 39.7600, time: 1, energy_Wh: 82),
  (cut_id: 92, mch_id: 1, mode_id: 13, feed_rate: 60.9000, blade_speed: 39.7600, time: 1, energy_Wh: 82),
  (cut_id: 92, mch_id: 2, mode_id: 14, feed_rate: 60.9000, blade_speed: 49.7000, time: 1, energy_Wh: 43),
  (cut_id: 92, mch_id: 3, mode_id: 14, feed_rate: 60.9000, blade_speed: 49.7000, time: 1, energy_Wh: 43),
  (cut_id: 92, mch_id: 1, mode_id: 14, feed_rate: 60.9000, blade_speed: 49.7000, time: 1, energy_Wh: 43),
  (cut_id: 92, mch_id: 2, mode_id: 15, feed_rate: 60.9000, blade_speed: 59.6300, time: 1, energy_Wh: 67),
  (cut_id: 92, mch_id: 3, mode_id: 15, feed_rate: 60.9000, blade_speed: 59.6300, time: 1, energy_Wh: 67),
  (cut_id: 92, mch_id: 1, mode_id: 15, feed_rate: 60.9000, blade_speed: 59.6300, time: 1, energy_Wh: 67),
  (cut_id: 92, mch_id: 2, mode_id: 16, feed_rate: 76.1300, blade_speed: 19.8800, time: 1, energy_Wh: 93),
  (cut_id: 92, mch_id: 3, mode_id: 16, feed_rate: 76.1300, blade_speed: 19.8800, time: 1, energy_Wh: 93),
  (cut_id: 92, mch_id: 1, mode_id: 16, feed_rate: 76.1300, blade_speed: 19.8800, time: 1, energy_Wh: 93),
  (cut_id: 92, mch_id: 2, mode_id: 17, feed_rate: 76.1300, blade_speed: 29.8200, time: 1, energy_Wh: 51),
  (cut_id: 92, mch_id: 3, mode_id: 17, feed_rate: 76.1300, blade_speed: 29.8200, time: 1, energy_Wh: 51),
  (cut_id: 92, mch_id: 1, mode_id: 17, feed_rate: 76.1300, blade_speed: 29.8200, time: 1, energy_Wh: 51),
  (cut_id: 92, mch_id: 2, mode_id: 18, feed_rate: 76.1300, blade_speed: 39.7600, time: 1, energy_Wh: 104),
  (cut_id: 92, mch_id: 3, mode_id: 18, feed_rate: 76.1300, blade_speed: 39.7600, time: 1, energy_Wh: 104),
  (cut_id: 92, mch_id: 1, mode_id: 18, feed_rate: 76.1300, blade_speed: 39.7600, time: 1, energy_Wh: 104),
  (cut_id: 92, mch_id: 2, mode_id: 19, feed_rate: 76.1300, blade_speed: 49.7000, time: 1, energy_Wh: 68),
  (cut_id: 92, mch_id: 3, mode_id: 19, feed_rate: 76.1300, blade_speed: 49.7000, time: 1, energy_Wh: 68),
  (cut_id: 92, mch_id: 1, mode_id: 19, feed_rate: 76.1300, blade_speed: 49.7000, time: 1, energy_Wh: 68),
  (cut_id: 92, mch_id: 2, mode_id: 20, feed_rate: 76.1300, blade_speed: 59.6300, time: 1, energy_Wh: 93),
  (cut_id: 92, mch_id: 3, mode_id: 20, feed_rate: 76.1300, blade_speed: 59.6300, time: 1, energy_Wh: 93),
  (cut_id: 92, mch_id: 1, mode_id: 20, feed_rate: 76.1300, blade_speed: 59.6300, time: 1, energy_Wh: 93),
  (cut_id: 92, mch_id: 2, mode_id: 21, feed_rate: 91.3500, blade_speed: 19.8800, time: 1, energy_Wh: 160),
  (cut_id: 92, mch_id: 3, mode_id: 21, feed_rate: 91.3500, blade_speed: 19.8800, time: 1, energy_Wh: 160),
  (cut_id: 92, mch_id: 1, mode_id: 21, feed_rate: 91.3500, blade_speed: 19.8800, time: 1, energy_Wh: 160),
  (cut_id: 92, mch_id: 2, mode_id: 22, feed_rate: 91.3500, blade_speed: 29.8200, time: 1, energy_Wh: 73),
  (cut_id: 92, mch_id: 3, mode_id: 22, feed_rate: 91.3500, blade_speed: 29.8200, time: 1, energy_Wh: 73),
  (cut_id: 92, mch_id: 1, mode_id: 22, feed_rate: 91.3500, blade_speed: 29.8200, time: 1, energy_Wh: 73),
  (cut_id: 92, mch_id: 2, mode_id: 23, feed_rate: 91.3500, blade_speed: 39.7600, time: 1, energy_Wh: 122),
  (cut_id: 92, mch_id: 3, mode_id: 23, feed_rate: 91.3500, blade_speed: 39.7600, time: 1, energy_Wh: 122),
  (cut_id: 92, mch_id: 1, mode_id: 23, feed_rate: 91.3500, blade_speed: 39.7600, time: 1, energy_Wh: 122),
  (cut_id: 92, mch_id: 2, mode_id: 24, feed_rate: 91.3500, blade_speed: 49.7000, time: 1, energy_Wh: 105),
  (cut_id: 92, mch_id: 3, mode_id: 24, feed_rate: 91.3500, blade_speed: 49.7000, time: 1, energy_Wh: 105),
  (cut_id: 92, mch_id: 1, mode_id: 24, feed_rate: 91.3500, blade_speed: 49.7000, time: 1, energy_Wh: 105),
  (cut_id: 92, mch_id: 2, mode_id: 25, feed_rate: 91.3500, blade_speed: 59.6300, time: 1, energy_Wh: 130),
  (cut_id: 92, mch_id: 3, mode_id: 25, feed_rate: 91.3500, blade_speed: 59.6300, time: 1, energy_Wh: 130),
  (cut_id: 92, mch_id: 1, mode_id: 25, feed_rate: 91.3500, blade_speed: 59.6300, time: 1, energy_Wh: 130),
  (cut_id: 93, mch_id: 1, mode_id: 1, feed_rate: 34.5900, blade_speed: 19.1700, time: 1, energy_Wh: 41),
  (cut_id: 93, mch_id: 2, mode_id: 1, feed_rate: 34.5900, blade_speed: 19.1700, time: 1, energy_Wh: 41),
  (cut_id: 93, mch_id: 3, mode_id: 1, feed_rate: 34.5900, blade_speed: 19.1700, time: 1, energy_Wh: 41),
  (cut_id: 93, mch_id: 1, mode_id: 2, feed_rate: 34.5900, blade_speed: 28.7600, time: 1, energy_Wh: 35),
  (cut_id: 93, mch_id: 2, mode_id: 2, feed_rate: 34.5900, blade_speed: 28.7600, time: 1, energy_Wh: 35),
  (cut_id: 93, mch_id: 3, mode_id: 2, feed_rate: 34.5900, blade_speed: 28.7600, time: 1, energy_Wh: 35),
  (cut_id: 93, mch_id: 1, mode_id: 3, feed_rate: 34.5900, blade_speed: 38.3400, time: 1, energy_Wh: 42),
  (cut_id: 93, mch_id: 2, mode_id: 3, feed_rate: 34.5900, blade_speed: 38.3400, time: 1, energy_Wh: 42),
  (cut_id: 93, mch_id: 3, mode_id: 3, feed_rate: 34.5900, blade_speed: 38.3400, time: 1, energy_Wh: 42),
  (cut_id: 93, mch_id: 1, mode_id: 4, feed_rate: 34.5900, blade_speed: 47.9300, time: 1, energy_Wh: 31),
  (cut_id: 93, mch_id: 2, mode_id: 4, feed_rate: 34.5900, blade_speed: 47.9300, time: 1, energy_Wh: 31),
  (cut_id: 93, mch_id: 3, mode_id: 4, feed_rate: 34.5900, blade_speed: 47.9300, time: 1, energy_Wh: 31),
  (cut_id: 93, mch_id: 1, mode_id: 5, feed_rate: 34.5900, blade_speed: 57.5100, time: 1, energy_Wh: 46),
  (cut_id: 93, mch_id: 2, mode_id: 5, feed_rate: 34.5900, blade_speed: 57.5100, time: 1, energy_Wh: 46),
  (cut_id: 93, mch_id: 3, mode_id: 5, feed_rate: 34.5900, blade_speed: 57.5100, time: 1, energy_Wh: 46),
  (cut_id: 93, mch_id: 1, mode_id: 6, feed_rate: 51.8800, blade_speed: 19.1700, time: 1, energy_Wh: 56),
  (cut_id: 93, mch_id: 2, mode_id: 6, feed_rate: 51.8800, blade_speed: 19.1700, time: 1, energy_Wh: 56),
  (cut_id: 93, mch_id: 3, mode_id: 6, feed_rate: 51.8800, blade_speed: 19.1700, time: 1, energy_Wh: 56),
  (cut_id: 93, mch_id: 1, mode_id: 7, feed_rate: 51.8800, blade_speed: 28.7600, time: 1, energy_Wh: 45),
  (cut_id: 93, mch_id: 2, mode_id: 7, feed_rate: 51.8800, blade_speed: 28.7600, time: 1, energy_Wh: 45),
  (cut_id: 93, mch_id: 3, mode_id: 7, feed_rate: 51.8800, blade_speed: 28.7600, time: 1, energy_Wh: 45),
  (cut_id: 93, mch_id: 1, mode_id: 8, feed_rate: 51.8800, blade_speed: 38.3400, time: 1, energy_Wh: 71),
  (cut_id: 93, mch_id: 2, mode_id: 8, feed_rate: 51.8800, blade_speed: 38.3400, time: 1, energy_Wh: 71),
  (cut_id: 93, mch_id: 3, mode_id: 8, feed_rate: 51.8800, blade_speed: 38.3400, time: 1, energy_Wh: 71),
  (cut_id: 93, mch_id: 1, mode_id: 9, feed_rate: 51.8800, blade_speed: 47.9300, time: 1, energy_Wh: 35),
  (cut_id: 93, mch_id: 2, mode_id: 9, feed_rate: 51.8800, blade_speed: 47.9300, time: 1, energy_Wh: 35),
  (cut_id: 93, mch_id: 3, mode_id: 9, feed_rate: 51.8800, blade_speed: 47.9300, time: 1, energy_Wh: 35),
  (cut_id: 93, mch_id: 1, mode_id: 10, feed_rate: 51.8800, blade_speed: 57.5100, time: 1, energy_Wh: 51),
  (cut_id: 93, mch_id: 2, mode_id: 10, feed_rate: 51.8800, blade_speed: 57.5100, time: 1, energy_Wh: 51),
  (cut_id: 93, mch_id: 3, mode_id: 10, feed_rate: 51.8800, blade_speed: 57.5100, time: 1, energy_Wh: 51),
  (cut_id: 93, mch_id: 1, mode_id: 11, feed_rate: 69.1700, blade_speed: 19.1700, time: 1, energy_Wh: 73),
  (cut_id: 93, mch_id: 2, mode_id: 11, feed_rate: 69.1700, blade_speed: 19.1700, time: 1, energy_Wh: 73),
  (cut_id: 93, mch_id: 3, mode_id: 11, feed_rate: 69.1700, blade_speed: 19.1700, time: 1, energy_Wh: 73),
  (cut_id: 93, mch_id: 1, mode_id: 12, feed_rate: 69.1700, blade_speed: 28.7600, time: 1, energy_Wh: 69),
  (cut_id: 93, mch_id: 2, mode_id: 12, feed_rate: 69.1700, blade_speed: 28.7600, time: 1, energy_Wh: 69),
  (cut_id: 93, mch_id: 3, mode_id: 12, feed_rate: 69.1700, blade_speed: 28.7600, time: 1, energy_Wh: 69),
  (cut_id: 93, mch_id: 1, mode_id: 13, feed_rate: 69.1700, blade_speed: 38.3400, time: 1, energy_Wh: 89),
  (cut_id: 93, mch_id: 2, mode_id: 13, feed_rate: 69.1700, blade_speed: 38.3400, time: 1, energy_Wh: 89),
  (cut_id: 93, mch_id: 3, mode_id: 13, feed_rate: 69.1700, blade_speed: 38.3400, time: 1, energy_Wh: 89),
  (cut_id: 93, mch_id: 1, mode_id: 14, feed_rate: 69.1700, blade_speed: 47.9300, time: 1, energy_Wh: 50),
  (cut_id: 93, mch_id: 2, mode_id: 14, feed_rate: 69.1700, blade_speed: 47.9300, time: 1, energy_Wh: 50),
  (cut_id: 93, mch_id: 3, mode_id: 14, feed_rate: 69.1700, blade_speed: 47.9300, time: 1, energy_Wh: 50),
  (cut_id: 93, mch_id: 1, mode_id: 15, feed_rate: 69.1700, blade_speed: 57.5100, time: 1, energy_Wh: 96),
  (cut_id: 93, mch_id: 2, mode_id: 15, feed_rate: 69.1700, blade_speed: 57.5100, time: 1, energy_Wh: 96),
  (cut_id: 93, mch_id: 3, mode_id: 15, feed_rate: 69.1700, blade_speed: 57.5100, time: 1, energy_Wh: 96),
  (cut_id: 93, mch_id: 1, mode_id: 16, feed_rate: 86.4600, blade_speed: 19.1700, time: 1, energy_Wh: 126),
  (cut_id: 93, mch_id: 2, mode_id: 16, feed_rate: 86.4600, blade_speed: 19.1700, time: 1, energy_Wh: 126),
  (cut_id: 93, mch_id: 3, mode_id: 16, feed_rate: 86.4600, blade_speed: 19.1700, time: 1, energy_Wh: 126),
  (cut_id: 93, mch_id: 1, mode_id: 17, feed_rate: 86.4600, blade_speed: 28.7600, time: 1, energy_Wh: 99),
  (cut_id: 93, mch_id: 2, mode_id: 17, feed_rate: 86.4600, blade_speed: 28.7600, time: 1, energy_Wh: 99),
  (cut_id: 93, mch_id: 3, mode_id: 17, feed_rate: 86.4600, blade_speed: 28.7600, time: 1, energy_Wh: 99),
  (cut_id: 93, mch_id: 1, mode_id: 18, feed_rate: 86.4600, blade_speed: 38.3400, time: 1, energy_Wh: 109),
  (cut_id: 93, mch_id: 2, mode_id: 18, feed_rate: 86.4600, blade_speed: 38.3400, time: 1, energy_Wh: 109),
  (cut_id: 93, mch_id: 3, mode_id: 18, feed_rate: 86.4600, blade_speed: 38.3400, time: 1, energy_Wh: 109),
  (cut_id: 93, mch_id: 1, mode_id: 19, feed_rate: 86.4600, blade_speed: 47.9300, time: 1, energy_Wh: 91),
  (cut_id: 93, mch_id: 2, mode_id: 19, feed_rate: 86.4600, blade_speed: 47.9300, time: 1, energy_Wh: 91),
  (cut_id: 93, mch_id: 3, mode_id: 19, feed_rate: 86.4600, blade_speed: 47.9300, time: 1, energy_Wh: 91),
  (cut_id: 93, mch_id: 1, mode_id: 20, feed_rate: 86.4600, blade_speed: 57.5100, time: 1, energy_Wh: 108),
  (cut_id: 93, mch_id: 2, mode_id: 20, feed_rate: 86.4600, blade_speed: 57.5100, time: 1, energy_Wh: 108),
  (cut_id: 93, mch_id: 3, mode_id: 20, feed_rate: 86.4600, blade_speed: 57.5100, time: 1, energy_Wh: 108),
  (cut_id: 93, mch_id: 1, mode_id: 21, feed_rate: 103.7600, blade_speed: 19.1700, time: 1, energy_Wh: 117),
  (cut_id: 93, mch_id: 2, mode_id: 21, feed_rate: 103.7600, blade_speed: 19.1700, time: 1, energy_Wh: 117),
  (cut_id: 93, mch_id: 3, mode_id: 21, feed_rate: 103.7600, blade_speed: 19.1700, time: 1, energy_Wh: 117),
  (cut_id: 93, mch_id: 1, mode_id: 22, feed_rate: 103.7600, blade_speed: 28.7600, time: 1, energy_Wh: 135),
  (cut_id: 93, mch_id: 2, mode_id: 22, feed_rate: 103.7600, blade_speed: 28.7600, time: 1, energy_Wh: 135),
  (cut_id: 93, mch_id: 3, mode_id: 22, feed_rate: 103.7600, blade_speed: 28.7600, time: 1, energy_Wh: 135),
  (cut_id: 93, mch_id: 1, mode_id: 23, feed_rate: 103.7600, blade_speed: 38.3400, time: 1, energy_Wh: 161),
  (cut_id: 93, mch_id: 2, mode_id: 23, feed_rate: 103.7600, blade_speed: 38.3400, time: 1, energy_Wh: 161),
  (cut_id: 93, mch_id: 3, mode_id: 23, feed_rate: 103.7600, blade_speed: 38.3400, time: 1, energy_Wh: 161),
  (cut_id: 93, mch_id: 1, mode_id: 24, feed_rate: 103.7600, blade_speed: 47.9300, time: 1, energy_Wh: 115),
  (cut_id: 93, mch_id: 2, mode_id: 24, feed_rate: 103.7600, blade_speed: 47.9300, time: 1, energy_Wh: 115),
  (cut_id: 93, mch_id: 3, mode_id: 24, feed_rate: 103.7600, blade_speed: 47.9300, time: 1, energy_Wh: 115),
  (cut_id: 93, mch_id: 1, mode_id: 25, feed_rate: 103.7600, blade_speed: 57.5100, time: 1, energy_Wh: 154),
  (cut_id: 93, mch_id: 2, mode_id: 25, feed_rate: 103.7600, blade_speed: 57.5100, time: 1, energy_Wh: 154),
  (cut_id: 93, mch_id: 3, mode_id: 25, feed_rate: 103.7600, blade_speed: 57.5100, time: 1, energy_Wh: 154),
  (cut_id: 94, mch_id: 1, mode_id: 1, feed_rate: 20.0000, blade_speed: 50.0000, time: 17, energy_Wh: 50),
  (cut_id: 94, mch_id: 2, mode_id: 1, feed_rate: 20.0000, blade_speed: 50.0000, time: 17, energy_Wh: 50),
  (cut_id: 94, mch_id: 3, mode_id: 1, feed_rate: 20.0000, blade_speed: 50.0000, time: 17, energy_Wh: 50),
  (cut_id: 94, mch_id: 1, mode_id: 2, feed_rate: 20.0000, blade_speed: 75.0000, time: 17, energy_Wh: 48),
  (cut_id: 94, mch_id: 2, mode_id: 2, feed_rate: 20.0000, blade_speed: 75.0000, time: 17, energy_Wh: 48),
  (cut_id: 94, mch_id: 3, mode_id: 2, feed_rate: 20.0000, blade_speed: 75.0000, time: 17, energy_Wh: 48),
  (cut_id: 94, mch_id: 1, mode_id: 3, feed_rate: 20.0000, blade_speed: 100.0000, time: 17, energy_Wh: 39),
  (cut_id: 94, mch_id: 2, mode_id: 3, feed_rate: 20.0000, blade_speed: 100.0000, time: 17, energy_Wh: 39),
  (cut_id: 94, mch_id: 3, mode_id: 3, feed_rate: 20.0000, blade_speed: 100.0000, time: 17, energy_Wh: 39),
  (cut_id: 94, mch_id: 1, mode_id: 4, feed_rate: 20.0000, blade_speed: 125.0000, time: 17, energy_Wh: 32),
  (cut_id: 94, mch_id: 2, mode_id: 4, feed_rate: 20.0000, blade_speed: 125.0000, time: 17, energy_Wh: 32),
  (cut_id: 94, mch_id: 3, mode_id: 4, feed_rate: 20.0000, blade_speed: 125.0000, time: 17, energy_Wh: 32),
  (cut_id: 94, mch_id: 1, mode_id: 5, feed_rate: 20.0000, blade_speed: 150.0000, time: 17, energy_Wh: 36),
  (cut_id: 94, mch_id: 2, mode_id: 5, feed_rate: 20.0000, blade_speed: 150.0000, time: 17, energy_Wh: 36),
  (cut_id: 94, mch_id: 3, mode_id: 5, feed_rate: 20.0000, blade_speed: 150.0000, time: 17, energy_Wh: 36),
  (cut_id: 94, mch_id: 1, mode_id: 6, feed_rate: 30.0000, blade_speed: 50.0000, time: 11, energy_Wh: 54),
  (cut_id: 94, mch_id: 2, mode_id: 6, feed_rate: 30.0000, blade_speed: 50.0000, time: 11, energy_Wh: 54),
  (cut_id: 94, mch_id: 3, mode_id: 6, feed_rate: 30.0000, blade_speed: 50.0000, time: 11, energy_Wh: 54),
  (cut_id: 94, mch_id: 1, mode_id: 7, feed_rate: 30.0000, blade_speed: 75.0000, time: 11, energy_Wh: 48),
  (cut_id: 94, mch_id: 2, mode_id: 7, feed_rate: 30.0000, blade_speed: 75.0000, time: 11, energy_Wh: 48),
  (cut_id: 94, mch_id: 3, mode_id: 7, feed_rate: 30.0000, blade_speed: 75.0000, time: 11, energy_Wh: 48),
  (cut_id: 94, mch_id: 1, mode_id: 8, feed_rate: 30.0000, blade_speed: 100.0000, time: 11, energy_Wh: 43),
  (cut_id: 94, mch_id: 2, mode_id: 8, feed_rate: 30.0000, blade_speed: 100.0000, time: 11, energy_Wh: 43),
  (cut_id: 94, mch_id: 3, mode_id: 8, feed_rate: 30.0000, blade_speed: 100.0000, time: 11, energy_Wh: 43),
  (cut_id: 94, mch_id: 1, mode_id: 9, feed_rate: 30.0000, blade_speed: 125.0000, time: 11, energy_Wh: 36),
  (cut_id: 94, mch_id: 2, mode_id: 9, feed_rate: 30.0000, blade_speed: 125.0000, time: 11, energy_Wh: 36),
  (cut_id: 94, mch_id: 3, mode_id: 9, feed_rate: 30.0000, blade_speed: 125.0000, time: 11, energy_Wh: 36),
  (cut_id: 94, mch_id: 1, mode_id: 10, feed_rate: 30.0000, blade_speed: 150.0000, time: 11, energy_Wh: 47),
  (cut_id: 94, mch_id: 2, mode_id: 10, feed_rate: 30.0000, blade_speed: 150.0000, time: 11, energy_Wh: 47),
  (cut_id: 94, mch_id: 3, mode_id: 10, feed_rate: 30.0000, blade_speed: 150.0000, time: 11, energy_Wh: 47),
  (cut_id: 94, mch_id: 1, mode_id: 11, feed_rate: 40.0000, blade_speed: 50.0000, time: 9, energy_Wh: 59),
  (cut_id: 94, mch_id: 2, mode_id: 11, feed_rate: 40.0000, blade_speed: 50.0000, time: 9, energy_Wh: 59),
  (cut_id: 94, mch_id: 3, mode_id: 11, feed_rate: 40.0000, blade_speed: 50.0000, time: 9, energy_Wh: 59),
  (cut_id: 94, mch_id: 1, mode_id: 12, feed_rate: 40.0000, blade_speed: 75.0000, time: 9, energy_Wh: 51),
  (cut_id: 94, mch_id: 2, mode_id: 12, feed_rate: 40.0000, blade_speed: 75.0000, time: 9, energy_Wh: 51),
  (cut_id: 94, mch_id: 3, mode_id: 12, feed_rate: 40.0000, blade_speed: 75.0000, time: 9, energy_Wh: 51),
  (cut_id: 94, mch_id: 1, mode_id: 13, feed_rate: 40.0000, blade_speed: 100.0000, time: 9, energy_Wh: 62),
  (cut_id: 94, mch_id: 2, mode_id: 13, feed_rate: 40.0000, blade_speed: 100.0000, time: 9, energy_Wh: 62),
  (cut_id: 94, mch_id: 3, mode_id: 13, feed_rate: 40.0000, blade_speed: 100.0000, time: 9, energy_Wh: 62),
  (cut_id: 94, mch_id: 1, mode_id: 14, feed_rate: 40.0000, blade_speed: 125.0000, time: 9, energy_Wh: 58),
  (cut_id: 94, mch_id: 2, mode_id: 14, feed_rate: 40.0000, blade_speed: 125.0000, time: 9, energy_Wh: 58),
  (cut_id: 94, mch_id: 3, mode_id: 14, feed_rate: 40.0000, blade_speed: 125.0000, time: 9, energy_Wh: 58),
  (cut_id: 94, mch_id: 1, mode_id: 15, feed_rate: 40.0000, blade_speed: 150.0000, time: 9, energy_Wh: 40),
  (cut_id: 94, mch_id: 2, mode_id: 15, feed_rate: 40.0000, blade_speed: 150.0000, time: 9, energy_Wh: 40),
  (cut_id: 94, mch_id: 3, mode_id: 15, feed_rate: 40.0000, blade_speed: 150.0000, time: 9, energy_Wh: 40),
  (cut_id: 94, mch_id: 1, mode_id: 16, feed_rate: 50.0000, blade_speed: 50.0000, time: 7, energy_Wh: 69),
  (cut_id: 94, mch_id: 2, mode_id: 16, feed_rate: 50.0000, blade_speed: 50.0000, time: 7, energy_Wh: 69),
  (cut_id: 94, mch_id: 3, mode_id: 16, feed_rate: 50.0000, blade_speed: 50.0000, time: 7, energy_Wh: 69),
  (cut_id: 94, mch_id: 1, mode_id: 17, feed_rate: 50.0000, blade_speed: 75.0000, time: 7, energy_Wh: 74),
  (cut_id: 94, mch_id: 2, mode_id: 17, feed_rate: 50.0000, blade_speed: 75.0000, time: 7, energy_Wh: 74),
  (cut_id: 94, mch_id: 3, mode_id: 17, feed_rate: 50.0000, blade_speed: 75.0000, time: 7, energy_Wh: 74),
  (cut_id: 94, mch_id: 1, mode_id: 18, feed_rate: 50.0000, blade_speed: 100.0000, time: 7, energy_Wh: 67),
  (cut_id: 94, mch_id: 2, mode_id: 18, feed_rate: 50.0000, blade_speed: 100.0000, time: 7, energy_Wh: 67),
  (cut_id: 94, mch_id: 3, mode_id: 18, feed_rate: 50.0000, blade_speed: 100.0000, time: 7, energy_Wh: 67),
  (cut_id: 94, mch_id: 1, mode_id: 19, feed_rate: 50.0000, blade_speed: 125.0000, time: 7, energy_Wh: 71),
  (cut_id: 94, mch_id: 2, mode_id: 19, feed_rate: 50.0000, blade_speed: 125.0000, time: 7, energy_Wh: 71),
  (cut_id: 94, mch_id: 3, mode_id: 19, feed_rate: 50.0000, blade_speed: 125.0000, time: 7, energy_Wh: 71),
  (cut_id: 94, mch_id: 1, mode_id: 20, feed_rate: 50.0000, blade_speed: 150.0000, time: 7, energy_Wh: 56),
  (cut_id: 94, mch_id: 2, mode_id: 20, feed_rate: 50.0000, blade_speed: 150.0000, time: 7, energy_Wh: 56),
  (cut_id: 94, mch_id: 3, mode_id: 20, feed_rate: 50.0000, blade_speed: 150.0000, time: 7, energy_Wh: 56),
  (cut_id: 94, mch_id: 1, mode_id: 21, feed_rate: 60.0000, blade_speed: 50.0000, time: 6, energy_Wh: 78),
  (cut_id: 94, mch_id: 2, mode_id: 21, feed_rate: 60.0000, blade_speed: 50.0000, time: 6, energy_Wh: 78),
  (cut_id: 94, mch_id: 3, mode_id: 21, feed_rate: 60.0000, blade_speed: 50.0000, time: 6, energy_Wh: 78),
  (cut_id: 94, mch_id: 1, mode_id: 22, feed_rate: 60.0000, blade_speed: 75.0000, time: 6, energy_Wh: 62),
  (cut_id: 94, mch_id: 2, mode_id: 22, feed_rate: 60.0000, blade_speed: 75.0000, time: 6, energy_Wh: 62),
  (cut_id: 94, mch_id: 3, mode_id: 22, feed_rate: 60.0000, blade_speed: 75.0000, time: 6, energy_Wh: 62),
  (cut_id: 94, mch_id: 1, mode_id: 23, feed_rate: 60.0000, blade_speed: 100.0000, time: 6, energy_Wh: 65),
  (cut_id: 94, mch_id: 2, mode_id: 23, feed_rate: 60.0000, blade_speed: 100.0000, time: 6, energy_Wh: 65),
  (cut_id: 94, mch_id: 3, mode_id: 23, feed_rate: 60.0000, blade_speed: 100.0000, time: 6, energy_Wh: 65),
  (cut_id: 94, mch_id: 1, mode_id: 24, feed_rate: 60.0000, blade_speed: 125.0000, time: 6, energy_Wh: 73),
  (cut_id: 94, mch_id: 2, mode_id: 24, feed_rate: 60.0000, blade_speed: 125.0000, time: 6, energy_Wh: 73),
  (cut_id: 94, mch_id: 3, mode_id: 24, feed_rate: 60.0000, blade_speed: 125.0000, time: 6, energy_Wh: 73),
  (cut_id: 94, mch_id: 1, mode_id: 25, feed_rate: 60.0000, blade_speed: 150.0000, time: 6, energy_Wh: 73),
  (cut_id: 94, mch_id: 2, mode_id: 25, feed_rate: 60.0000, blade_speed: 150.0000, time: 6, energy_Wh: 73),
  (cut_id: 94, mch_id: 3, mode_id: 25, feed_rate: 60.0000, blade_speed: 150.0000, time: 6, energy_Wh: 73),
  (cut_id: 95, mch_id: 2, mode_id: 1, feed_rate: 36.0000, blade_speed: 22.0000, time: 4, energy_Wh: 36),
  (cut_id: 95, mch_id: 1, mode_id: 1, feed_rate: 36.0000, blade_speed: 22.0000, time: 4, energy_Wh: 36),
  (cut_id: 95, mch_id: 3, mode_id: 1, feed_rate: 36.0000, blade_speed: 22.0000, time: 4, energy_Wh: 36),
  (cut_id: 95, mch_id: 2, mode_id: 2, feed_rate: 36.0000, blade_speed: 33.0000, time: 4, energy_Wh: 46),
  (cut_id: 95, mch_id: 1, mode_id: 2, feed_rate: 36.0000, blade_speed: 33.0000, time: 4, energy_Wh: 46),
  (cut_id: 95, mch_id: 3, mode_id: 2, feed_rate: 36.0000, blade_speed: 33.0000, time: 4, energy_Wh: 46),
  (cut_id: 95, mch_id: 2, mode_id: 3, feed_rate: 36.0000, blade_speed: 44.0000, time: 4, energy_Wh: 39),
  (cut_id: 95, mch_id: 1, mode_id: 3, feed_rate: 36.0000, blade_speed: 44.0000, time: 4, energy_Wh: 39),
  (cut_id: 95, mch_id: 3, mode_id: 3, feed_rate: 36.0000, blade_speed: 44.0000, time: 4, energy_Wh: 39),
  (cut_id: 95, mch_id: 2, mode_id: 4, feed_rate: 36.0000, blade_speed: 55.0000, time: 4, energy_Wh: 27),
  (cut_id: 95, mch_id: 1, mode_id: 4, feed_rate: 36.0000, blade_speed: 55.0000, time: 4, energy_Wh: 27),
  (cut_id: 95, mch_id: 3, mode_id: 4, feed_rate: 36.0000, blade_speed: 55.0000, time: 4, energy_Wh: 27),
  (cut_id: 95, mch_id: 2, mode_id: 5, feed_rate: 36.0000, blade_speed: 66.0000, time: 4, energy_Wh: 46),
  (cut_id: 95, mch_id: 1, mode_id: 5, feed_rate: 36.0000, blade_speed: 66.0000, time: 4, energy_Wh: 46),
  (cut_id: 95, mch_id: 3, mode_id: 5, feed_rate: 36.0000, blade_speed: 66.0000, time: 4, energy_Wh: 46),
  (cut_id: 95, mch_id: 2, mode_id: 6, feed_rate: 54.0000, blade_speed: 22.0000, time: 3, energy_Wh: 52),
  (cut_id: 95, mch_id: 1, mode_id: 6, feed_rate: 54.0000, blade_speed: 22.0000, time: 3, energy_Wh: 52),
  (cut_id: 95, mch_id: 3, mode_id: 6, feed_rate: 54.0000, blade_speed: 22.0000, time: 3, energy_Wh: 52),
  (cut_id: 95, mch_id: 2, mode_id: 7, feed_rate: 54.0000, blade_speed: 33.0000, time: 3, energy_Wh: 81),
  (cut_id: 95, mch_id: 1, mode_id: 7, feed_rate: 54.0000, blade_speed: 33.0000, time: 3, energy_Wh: 81),
  (cut_id: 95, mch_id: 3, mode_id: 7, feed_rate: 54.0000, blade_speed: 33.0000, time: 3, energy_Wh: 81),
  (cut_id: 95, mch_id: 2, mode_id: 8, feed_rate: 54.0000, blade_speed: 44.0000, time: 3, energy_Wh: 71),
  (cut_id: 95, mch_id: 1, mode_id: 8, feed_rate: 54.0000, blade_speed: 44.0000, time: 3, energy_Wh: 71),
  (cut_id: 95, mch_id: 3, mode_id: 8, feed_rate: 54.0000, blade_speed: 44.0000, time: 3, energy_Wh: 71),
  (cut_id: 95, mch_id: 2, mode_id: 9, feed_rate: 54.0000, blade_speed: 55.0000, time: 3, energy_Wh: 35),
  (cut_id: 95, mch_id: 1, mode_id: 9, feed_rate: 54.0000, blade_speed: 55.0000, time: 3, energy_Wh: 35),
  (cut_id: 95, mch_id: 3, mode_id: 9, feed_rate: 54.0000, blade_speed: 55.0000, time: 3, energy_Wh: 35),
  (cut_id: 95, mch_id: 2, mode_id: 10, feed_rate: 54.0000, blade_speed: 66.0000, time: 3, energy_Wh: 50),
  (cut_id: 95, mch_id: 1, mode_id: 10, feed_rate: 54.0000, blade_speed: 66.0000, time: 3, energy_Wh: 50),
  (cut_id: 95, mch_id: 3, mode_id: 10, feed_rate: 54.0000, blade_speed: 66.0000, time: 3, energy_Wh: 50),
  (cut_id: 95, mch_id: 2, mode_id: 11, feed_rate: 72.0000, blade_speed: 22.0000, time: 2, energy_Wh: 90),
  (cut_id: 95, mch_id: 1, mode_id: 11, feed_rate: 72.0000, blade_speed: 22.0000, time: 2, energy_Wh: 90),
  (cut_id: 95, mch_id: 3, mode_id: 11, feed_rate: 72.0000, blade_speed: 22.0000, time: 2, energy_Wh: 90),
  (cut_id: 95, mch_id: 2, mode_id: 12, feed_rate: 72.0000, blade_speed: 33.0000, time: 2, energy_Wh: 130),
  (cut_id: 95, mch_id: 1, mode_id: 12, feed_rate: 72.0000, blade_speed: 33.0000, time: 2, energy_Wh: 130),
  (cut_id: 95, mch_id: 3, mode_id: 12, feed_rate: 72.0000, blade_speed: 33.0000, time: 2, energy_Wh: 130),
  (cut_id: 95, mch_id: 2, mode_id: 13, feed_rate: 72.0000, blade_speed: 44.0000, time: 2, energy_Wh: 76),
  (cut_id: 95, mch_id: 1, mode_id: 13, feed_rate: 72.0000, blade_speed: 44.0000, time: 2, energy_Wh: 76),
  (cut_id: 95, mch_id: 3, mode_id: 13, feed_rate: 72.0000, blade_speed: 44.0000, time: 2, energy_Wh: 76),
  (cut_id: 95, mch_id: 2, mode_id: 14, feed_rate: 72.0000, blade_speed: 55.0000, time: 2, energy_Wh: 60),
  (cut_id: 95, mch_id: 1, mode_id: 14, feed_rate: 72.0000, blade_speed: 55.0000, time: 2, energy_Wh: 60),
  (cut_id: 95, mch_id: 3, mode_id: 14, feed_rate: 72.0000, blade_speed: 55.0000, time: 2, energy_Wh: 60),
  (cut_id: 95, mch_id: 2, mode_id: 15, feed_rate: 72.0000, blade_speed: 66.0000, time: 2, energy_Wh: 87),
  (cut_id: 95, mch_id: 1, mode_id: 15, feed_rate: 72.0000, blade_speed: 66.0000, time: 2, energy_Wh: 87),
  (cut_id: 95, mch_id: 3, mode_id: 15, feed_rate: 72.0000, blade_speed: 66.0000, time: 2, energy_Wh: 87),
  (cut_id: 95, mch_id: 2, mode_id: 16, feed_rate: 90.0000, blade_speed: 22.0000, time: 2, energy_Wh: 93),
  (cut_id: 95, mch_id: 1, mode_id: 16, feed_rate: 90.0000, blade_speed: 22.0000, time: 2, energy_Wh: 93),
  (cut_id: 95, mch_id: 3, mode_id: 16, feed_rate: 90.0000, blade_speed: 22.0000, time: 2, energy_Wh: 93),
  (cut_id: 95, mch_id: 2, mode_id: 17, feed_rate: 90.0000, blade_speed: 33.0000, time: 2, energy_Wh: 125),
  (cut_id: 95, mch_id: 1, mode_id: 17, feed_rate: 90.0000, blade_speed: 33.0000, time: 2, energy_Wh: 125),
  (cut_id: 95, mch_id: 3, mode_id: 17, feed_rate: 90.0000, blade_speed: 33.0000, time: 2, energy_Wh: 125),
  (cut_id: 95, mch_id: 2, mode_id: 18, feed_rate: 90.0000, blade_speed: 44.0000, time: 2, energy_Wh: 128),
  (cut_id: 95, mch_id: 1, mode_id: 18, feed_rate: 90.0000, blade_speed: 44.0000, time: 2, energy_Wh: 128),
  (cut_id: 95, mch_id: 3, mode_id: 18, feed_rate: 90.0000, blade_speed: 44.0000, time: 2, energy_Wh: 128),
  (cut_id: 95, mch_id: 2, mode_id: 19, feed_rate: 90.0000, blade_speed: 55.0000, time: 2, energy_Wh: 77),
  (cut_id: 95, mch_id: 1, mode_id: 19, feed_rate: 90.0000, blade_speed: 55.0000, time: 2, energy_Wh: 77),
  (cut_id: 95, mch_id: 3, mode_id: 19, feed_rate: 90.0000, blade_speed: 55.0000, time: 2, energy_Wh: 77),
  (cut_id: 95, mch_id: 2, mode_id: 20, feed_rate: 90.0000, blade_speed: 66.0000, time: 2, energy_Wh: 128),
  (cut_id: 95, mch_id: 1, mode_id: 20, feed_rate: 90.0000, blade_speed: 66.0000, time: 2, energy_Wh: 128),
  (cut_id: 95, mch_id: 3, mode_id: 20, feed_rate: 90.0000, blade_speed: 66.0000, time: 2, energy_Wh: 128),
  (cut_id: 95, mch_id: 2, mode_id: 21, feed_rate: 108.0000, blade_speed: 22.0000, time: 2, energy_Wh: 149),
  (cut_id: 95, mch_id: 1, mode_id: 21, feed_rate: 108.0000, blade_speed: 22.0000, time: 2, energy_Wh: 149),
  (cut_id: 95, mch_id: 3, mode_id: 21, feed_rate: 108.0000, blade_speed: 22.0000, time: 2, energy_Wh: 149),
  (cut_id: 95, mch_id: 2, mode_id: 22, feed_rate: 108.0000, blade_speed: 33.0000, time: 2, energy_Wh: 168),
  (cut_id: 95, mch_id: 1, mode_id: 22, feed_rate: 108.0000, blade_speed: 33.0000, time: 2, energy_Wh: 168),
  (cut_id: 95, mch_id: 3, mode_id: 22, feed_rate: 108.0000, blade_speed: 33.0000, time: 2, energy_Wh: 168),
  (cut_id: 95, mch_id: 2, mode_id: 23, feed_rate: 108.0000, blade_speed: 44.0000, time: 2, energy_Wh: 137),
  (cut_id: 95, mch_id: 1, mode_id: 23, feed_rate: 108.0000, blade_speed: 44.0000, time: 2, energy_Wh: 137),
  (cut_id: 95, mch_id: 3, mode_id: 23, feed_rate: 108.0000, blade_speed: 44.0000, time: 2, energy_Wh: 137),
  (cut_id: 95, mch_id: 2, mode_id: 24, feed_rate: 108.0000, blade_speed: 55.0000, time: 2, energy_Wh: 85),
  (cut_id: 95, mch_id: 1, mode_id: 24, feed_rate: 108.0000, blade_speed: 55.0000, time: 2, energy_Wh: 85),
  (cut_id: 95, mch_id: 3, mode_id: 24, feed_rate: 108.0000, blade_speed: 55.0000, time: 2, energy_Wh: 85),
  (cut_id: 95, mch_id: 2, mode_id: 25, feed_rate: 108.0000, blade_speed: 66.0000, time: 2, energy_Wh: 123),
  (cut_id: 95, mch_id: 1, mode_id: 25, feed_rate: 108.0000, blade_speed: 66.0000, time: 2, energy_Wh: 123),
  (cut_id: 95, mch_id: 3, mode_id: 25, feed_rate: 108.0000, blade_speed: 66.0000, time: 2, energy_Wh: 123),
  (cut_id: 96, mch_id: 2, mode_id: 1, feed_rate: 10.0000, blade_speed: 10.0000, time: 14, energy_Wh: 22),
  (cut_id: 96, mch_id: 1, mode_id: 1, feed_rate: 10.0000, blade_speed: 10.0000, time: 14, energy_Wh: 22),
  (cut_id: 96, mch_id: 3, mode_id: 1, feed_rate: 10.0000, blade_speed: 10.0000, time: 14, energy_Wh: 22),
  (cut_id: 96, mch_id: 2, mode_id: 2, feed_rate: 10.0000, blade_speed: 15.0000, time: 14, energy_Wh: 29),
  (cut_id: 96, mch_id: 1, mode_id: 2, feed_rate: 10.0000, blade_speed: 15.0000, time: 14, energy_Wh: 29),
  (cut_id: 96, mch_id: 3, mode_id: 2, feed_rate: 10.0000, blade_speed: 15.0000, time: 14, energy_Wh: 29),
  (cut_id: 96, mch_id: 2, mode_id: 3, feed_rate: 10.0000, blade_speed: 20.0000, time: 14, energy_Wh: 35),
  (cut_id: 96, mch_id: 1, mode_id: 3, feed_rate: 10.0000, blade_speed: 20.0000, time: 14, energy_Wh: 35),
  (cut_id: 96, mch_id: 3, mode_id: 3, feed_rate: 10.0000, blade_speed: 20.0000, time: 14, energy_Wh: 35),
  (cut_id: 96, mch_id: 2, mode_id: 4, feed_rate: 10.0000, blade_speed: 25.0000, time: 14, energy_Wh: 30),
  (cut_id: 96, mch_id: 1, mode_id: 4, feed_rate: 10.0000, blade_speed: 25.0000, time: 14, energy_Wh: 30),
  (cut_id: 96, mch_id: 3, mode_id: 4, feed_rate: 10.0000, blade_speed: 25.0000, time: 14, energy_Wh: 30),
  (cut_id: 96, mch_id: 2, mode_id: 5, feed_rate: 10.0000, blade_speed: 30.0000, time: 14, energy_Wh: 18),
  (cut_id: 96, mch_id: 1, mode_id: 5, feed_rate: 10.0000, blade_speed: 30.0000, time: 14, energy_Wh: 18),
  (cut_id: 96, mch_id: 3, mode_id: 5, feed_rate: 10.0000, blade_speed: 30.0000, time: 14, energy_Wh: 18),
  (cut_id: 96, mch_id: 2, mode_id: 6, feed_rate: 15.0000, blade_speed: 10.0000, time: 9, energy_Wh: 25),
  (cut_id: 96, mch_id: 1, mode_id: 6, feed_rate: 15.0000, blade_speed: 10.0000, time: 9, energy_Wh: 25),
  (cut_id: 96, mch_id: 3, mode_id: 6, feed_rate: 15.0000, blade_speed: 10.0000, time: 9, energy_Wh: 25),
  (cut_id: 96, mch_id: 2, mode_id: 7, feed_rate: 15.0000, blade_speed: 15.0000, time: 9, energy_Wh: 41),
  (cut_id: 96, mch_id: 1, mode_id: 7, feed_rate: 15.0000, blade_speed: 15.0000, time: 9, energy_Wh: 41),
  (cut_id: 96, mch_id: 3, mode_id: 7, feed_rate: 15.0000, blade_speed: 15.0000, time: 9, energy_Wh: 41),
  (cut_id: 96, mch_id: 2, mode_id: 8, feed_rate: 15.0000, blade_speed: 20.0000, time: 9, energy_Wh: 39),
  (cut_id: 96, mch_id: 1, mode_id: 8, feed_rate: 15.0000, blade_speed: 20.0000, time: 9, energy_Wh: 39),
  (cut_id: 96, mch_id: 3, mode_id: 8, feed_rate: 15.0000, blade_speed: 20.0000, time: 9, energy_Wh: 39),
  (cut_id: 96, mch_id: 2, mode_id: 9, feed_rate: 15.0000, blade_speed: 25.0000, time: 9, energy_Wh: 32),
  (cut_id: 96, mch_id: 1, mode_id: 9, feed_rate: 15.0000, blade_speed: 25.0000, time: 9, energy_Wh: 32),
  (cut_id: 96, mch_id: 3, mode_id: 9, feed_rate: 15.0000, blade_speed: 25.0000, time: 9, energy_Wh: 32),
  (cut_id: 96, mch_id: 2, mode_id: 10, feed_rate: 15.0000, blade_speed: 30.0000, time: 9, energy_Wh: 22),
  (cut_id: 96, mch_id: 1, mode_id: 10, feed_rate: 15.0000, blade_speed: 30.0000, time: 9, energy_Wh: 22),
  (cut_id: 96, mch_id: 3, mode_id: 10, feed_rate: 15.0000, blade_speed: 30.0000, time: 9, energy_Wh: 22),
  (cut_id: 96, mch_id: 2, mode_id: 11, feed_rate: 20.0000, blade_speed: 10.0000, time: 7, energy_Wh: 24),
  (cut_id: 96, mch_id: 1, mode_id: 11, feed_rate: 20.0000, blade_speed: 10.0000, time: 7, energy_Wh: 24),
  (cut_id: 96, mch_id: 3, mode_id: 11, feed_rate: 20.0000, blade_speed: 10.0000, time: 7, energy_Wh: 24),
  (cut_id: 96, mch_id: 2, mode_id: 12, feed_rate: 20.0000, blade_speed: 15.0000, time: 7, energy_Wh: 44),
  (cut_id: 96, mch_id: 1, mode_id: 12, feed_rate: 20.0000, blade_speed: 15.0000, time: 7, energy_Wh: 44),
  (cut_id: 96, mch_id: 3, mode_id: 12, feed_rate: 20.0000, blade_speed: 15.0000, time: 7, energy_Wh: 44),
  (cut_id: 96, mch_id: 2, mode_id: 13, feed_rate: 20.0000, blade_speed: 20.0000, time: 7, energy_Wh: 44),
  (cut_id: 96, mch_id: 1, mode_id: 13, feed_rate: 20.0000, blade_speed: 20.0000, time: 7, energy_Wh: 44),
  (cut_id: 96, mch_id: 3, mode_id: 13, feed_rate: 20.0000, blade_speed: 20.0000, time: 7, energy_Wh: 44),
  (cut_id: 96, mch_id: 2, mode_id: 14, feed_rate: 20.0000, blade_speed: 25.0000, time: 7, energy_Wh: 35),
  (cut_id: 96, mch_id: 1, mode_id: 14, feed_rate: 20.0000, blade_speed: 25.0000, time: 7, energy_Wh: 35),
  (cut_id: 96, mch_id: 3, mode_id: 14, feed_rate: 20.0000, blade_speed: 25.0000, time: 7, energy_Wh: 35),
  (cut_id: 96, mch_id: 2, mode_id: 15, feed_rate: 20.0000, blade_speed: 30.0000, time: 7, energy_Wh: 21),
  (cut_id: 96, mch_id: 1, mode_id: 15, feed_rate: 20.0000, blade_speed: 30.0000, time: 7, energy_Wh: 21),
  (cut_id: 96, mch_id: 3, mode_id: 15, feed_rate: 20.0000, blade_speed: 30.0000, time: 7, energy_Wh: 21),
  (cut_id: 96, mch_id: 2, mode_id: 16, feed_rate: 25.0000, blade_speed: 10.0000, time: 6, energy_Wh: 27),
  (cut_id: 96, mch_id: 1, mode_id: 16, feed_rate: 25.0000, blade_speed: 10.0000, time: 6, energy_Wh: 27),
  (cut_id: 96, mch_id: 3, mode_id: 16, feed_rate: 25.0000, blade_speed: 10.0000, time: 6, energy_Wh: 27),
  (cut_id: 96, mch_id: 2, mode_id: 17, feed_rate: 25.0000, blade_speed: 15.0000, time: 6, energy_Wh: 38),
  (cut_id: 96, mch_id: 1, mode_id: 17, feed_rate: 25.0000, blade_speed: 15.0000, time: 6, energy_Wh: 38),
  (cut_id: 96, mch_id: 3, mode_id: 17, feed_rate: 25.0000, blade_speed: 15.0000, time: 6, energy_Wh: 38),
  (cut_id: 96, mch_id: 2, mode_id: 18, feed_rate: 25.0000, blade_speed: 20.0000, time: 6, energy_Wh: 47),
  (cut_id: 96, mch_id: 1, mode_id: 18, feed_rate: 25.0000, blade_speed: 20.0000, time: 6, energy_Wh: 47),
  (cut_id: 96, mch_id: 3, mode_id: 18, feed_rate: 25.0000, blade_speed: 20.0000, time: 6, energy_Wh: 47),
  (cut_id: 96, mch_id: 2, mode_id: 19, feed_rate: 25.0000, blade_speed: 25.0000, time: 6, energy_Wh: 30),
  (cut_id: 96, mch_id: 1, mode_id: 19, feed_rate: 25.0000, blade_speed: 25.0000, time: 6, energy_Wh: 30),
  (cut_id: 96, mch_id: 3, mode_id: 19, feed_rate: 25.0000, blade_speed: 25.0000, time: 6, energy_Wh: 30),
  (cut_id: 96, mch_id: 2, mode_id: 20, feed_rate: 25.0000, blade_speed: 30.0000, time: 6, energy_Wh: 24),
  (cut_id: 96, mch_id: 1, mode_id: 20, feed_rate: 25.0000, blade_speed: 30.0000, time: 6, energy_Wh: 24),
  (cut_id: 96, mch_id: 3, mode_id: 20, feed_rate: 25.0000, blade_speed: 30.0000, time: 6, energy_Wh: 24),
  (cut_id: 96, mch_id: 2, mode_id: 21, feed_rate: 30.0000, blade_speed: 10.0000, time: 5, energy_Wh: 38),
  (cut_id: 96, mch_id: 1, mode_id: 21, feed_rate: 30.0000, blade_speed: 10.0000, time: 5, energy_Wh: 38),
  (cut_id: 96, mch_id: 3, mode_id: 21, feed_rate: 30.0000, blade_speed: 10.0000, time: 5, energy_Wh: 38),
  (cut_id: 96, mch_id: 2, mode_id: 22, feed_rate: 30.0000, blade_speed: 15.0000, time: 5, energy_Wh: 56),
  (cut_id: 96, mch_id: 1, mode_id: 22, feed_rate: 30.0000, blade_speed: 15.0000, time: 5, energy_Wh: 56),
  (cut_id: 96, mch_id: 3, mode_id: 22, feed_rate: 30.0000, blade_speed: 15.0000, time: 5, energy_Wh: 56),
  (cut_id: 96, mch_id: 2, mode_id: 23, feed_rate: 30.0000, blade_speed: 20.0000, time: 5, energy_Wh: 41),
  (cut_id: 96, mch_id: 1, mode_id: 23, feed_rate: 30.0000, blade_speed: 20.0000, time: 5, energy_Wh: 41),
  (cut_id: 96, mch_id: 3, mode_id: 23, feed_rate: 30.0000, blade_speed: 20.0000, time: 5, energy_Wh: 41),
  (cut_id: 96, mch_id: 2, mode_id: 24, feed_rate: 30.0000, blade_speed: 25.0000, time: 5, energy_Wh: 42),
  (cut_id: 96, mch_id: 1, mode_id: 24, feed_rate: 30.0000, blade_speed: 25.0000, time: 5, energy_Wh: 42),
  (cut_id: 96, mch_id: 3, mode_id: 24, feed_rate: 30.0000, blade_speed: 25.0000, time: 5, energy_Wh: 42),
  (cut_id: 96, mch_id: 2, mode_id: 25, feed_rate: 30.0000, blade_speed: 30.0000, time: 5, energy_Wh: 27),
  (cut_id: 96, mch_id: 1, mode_id: 25, feed_rate: 30.0000, blade_speed: 30.0000, time: 5, energy_Wh: 27),
  (cut_id: 96, mch_id: 3, mode_id: 25, feed_rate: 30.0000, blade_speed: 30.0000, time: 5, energy_Wh: 27),
  (cut_id: 97, mch_id: 2, mode_id: 1, feed_rate: 15.0000, blade_speed: 3.5000, time: 9, energy_Wh: 47),
  (cut_id: 97, mch_id: 3, mode_id: 1, feed_rate: 15.0000, blade_speed: 3.5000, time: 9, energy_Wh: 47),
  (cut_id: 97, mch_id: 1, mode_id: 1, feed_rate: 15.0000, blade_speed: 3.5000, time: 9, energy_Wh: 47),
  (cut_id: 97, mch_id: 2, mode_id: 2, feed_rate: 15.0000, blade_speed: 5.2500, time: 9, energy_Wh: 29),
  (cut_id: 97, mch_id: 3, mode_id: 2, feed_rate: 15.0000, blade_speed: 5.2500, time: 9, energy_Wh: 29),
  (cut_id: 97, mch_id: 1, mode_id: 2, feed_rate: 15.0000, blade_speed: 5.2500, time: 9, energy_Wh: 29),
  (cut_id: 97, mch_id: 2, mode_id: 3, feed_rate: 15.0000, blade_speed: 7.0000, time: 9, energy_Wh: 49),
  (cut_id: 97, mch_id: 3, mode_id: 3, feed_rate: 15.0000, blade_speed: 7.0000, time: 9, energy_Wh: 49),
  (cut_id: 97, mch_id: 1, mode_id: 3, feed_rate: 15.0000, blade_speed: 7.0000, time: 9, energy_Wh: 49),
  (cut_id: 97, mch_id: 2, mode_id: 4, feed_rate: 15.0000, blade_speed: 8.7500, time: 9, energy_Wh: 57),
  (cut_id: 97, mch_id: 3, mode_id: 4, feed_rate: 15.0000, blade_speed: 8.7500, time: 9, energy_Wh: 57),
  (cut_id: 97, mch_id: 1, mode_id: 4, feed_rate: 15.0000, blade_speed: 8.7500, time: 9, energy_Wh: 57),
  (cut_id: 97, mch_id: 2, mode_id: 5, feed_rate: 15.0000, blade_speed: 10.5000, time: 9, energy_Wh: 34),
  (cut_id: 97, mch_id: 3, mode_id: 5, feed_rate: 15.0000, blade_speed: 10.5000, time: 9, energy_Wh: 34),
  (cut_id: 97, mch_id: 1, mode_id: 5, feed_rate: 15.0000, blade_speed: 10.5000, time: 9, energy_Wh: 34),
  (cut_id: 97, mch_id: 2, mode_id: 6, feed_rate: 22.5000, blade_speed: 3.5000, time: 6, energy_Wh: 50),
  (cut_id: 97, mch_id: 3, mode_id: 6, feed_rate: 22.5000, blade_speed: 3.5000, time: 6, energy_Wh: 50),
  (cut_id: 97, mch_id: 1, mode_id: 6, feed_rate: 22.5000, blade_speed: 3.5000, time: 6, energy_Wh: 50),
  (cut_id: 97, mch_id: 2, mode_id: 7, feed_rate: 22.5000, blade_speed: 5.2500, time: 6, energy_Wh: 38),
  (cut_id: 97, mch_id: 3, mode_id: 7, feed_rate: 22.5000, blade_speed: 5.2500, time: 6, energy_Wh: 38),
  (cut_id: 97, mch_id: 1, mode_id: 7, feed_rate: 22.5000, blade_speed: 5.2500, time: 6, energy_Wh: 38),
  (cut_id: 97, mch_id: 2, mode_id: 8, feed_rate: 22.5000, blade_speed: 7.0000, time: 6, energy_Wh: 62),
  (cut_id: 97, mch_id: 3, mode_id: 8, feed_rate: 22.5000, blade_speed: 7.0000, time: 6, energy_Wh: 62),
  (cut_id: 97, mch_id: 1, mode_id: 8, feed_rate: 22.5000, blade_speed: 7.0000, time: 6, energy_Wh: 62),
  (cut_id: 97, mch_id: 2, mode_id: 9, feed_rate: 22.5000, blade_speed: 8.7500, time: 6, energy_Wh: 65),
  (cut_id: 97, mch_id: 3, mode_id: 9, feed_rate: 22.5000, blade_speed: 8.7500, time: 6, energy_Wh: 65),
  (cut_id: 97, mch_id: 1, mode_id: 9, feed_rate: 22.5000, blade_speed: 8.7500, time: 6, energy_Wh: 65),
  (cut_id: 97, mch_id: 2, mode_id: 10, feed_rate: 22.5000, blade_speed: 10.5000, time: 6, energy_Wh: 33),
  (cut_id: 97, mch_id: 3, mode_id: 10, feed_rate: 22.5000, blade_speed: 10.5000, time: 6, energy_Wh: 33),
  (cut_id: 97, mch_id: 1, mode_id: 10, feed_rate: 22.5000, blade_speed: 10.5000, time: 6, energy_Wh: 33),
  (cut_id: 97, mch_id: 2, mode_id: 11, feed_rate: 30.0000, blade_speed: 3.5000, time: 5, energy_Wh: 47),
  (cut_id: 97, mch_id: 3, mode_id: 11, feed_rate: 30.0000, blade_speed: 3.5000, time: 5, energy_Wh: 47),
  (cut_id: 97, mch_id: 1, mode_id: 11, feed_rate: 30.0000, blade_speed: 3.5000, time: 5, energy_Wh: 47),
  (cut_id: 97, mch_id: 2, mode_id: 12, feed_rate: 30.0000, blade_speed: 5.2500, time: 5, energy_Wh: 43),
  (cut_id: 97, mch_id: 3, mode_id: 12, feed_rate: 30.0000, blade_speed: 5.2500, time: 5, energy_Wh: 43),
  (cut_id: 97, mch_id: 1, mode_id: 12, feed_rate: 30.0000, blade_speed: 5.2500, time: 5, energy_Wh: 43),
  (cut_id: 97, mch_id: 2, mode_id: 13, feed_rate: 30.0000, blade_speed: 7.0000, time: 5, energy_Wh: 59),
  (cut_id: 97, mch_id: 3, mode_id: 13, feed_rate: 30.0000, blade_speed: 7.0000, time: 5, energy_Wh: 59),
  (cut_id: 97, mch_id: 1, mode_id: 13, feed_rate: 30.0000, blade_speed: 7.0000, time: 5, energy_Wh: 59),
  (cut_id: 97, mch_id: 2, mode_id: 14, feed_rate: 30.0000, blade_speed: 8.7500, time: 5, energy_Wh: 56),
  (cut_id: 97, mch_id: 3, mode_id: 14, feed_rate: 30.0000, blade_speed: 8.7500, time: 5, energy_Wh: 56),
  (cut_id: 97, mch_id: 1, mode_id: 14, feed_rate: 30.0000, blade_speed: 8.7500, time: 5, energy_Wh: 56),
  (cut_id: 97, mch_id: 2, mode_id: 15, feed_rate: 30.0000, blade_speed: 10.5000, time: 5, energy_Wh: 38),
  (cut_id: 97, mch_id: 3, mode_id: 15, feed_rate: 30.0000, blade_speed: 10.5000, time: 5, energy_Wh: 38),
  (cut_id: 97, mch_id: 1, mode_id: 15, feed_rate: 30.0000, blade_speed: 10.5000, time: 5, energy_Wh: 38),
  (cut_id: 97, mch_id: 2, mode_id: 16, feed_rate: 37.5000, blade_speed: 3.5000, time: 4, energy_Wh: 57),
  (cut_id: 97, mch_id: 3, mode_id: 16, feed_rate: 37.5000, blade_speed: 3.5000, time: 4, energy_Wh: 57),
  (cut_id: 97, mch_id: 1, mode_id: 16, feed_rate: 37.5000, blade_speed: 3.5000, time: 4, energy_Wh: 57),
  (cut_id: 97, mch_id: 2, mode_id: 17, feed_rate: 37.5000, blade_speed: 5.2500, time: 4, energy_Wh: 51),
  (cut_id: 97, mch_id: 3, mode_id: 17, feed_rate: 37.5000, blade_speed: 5.2500, time: 4, energy_Wh: 51),
  (cut_id: 97, mch_id: 1, mode_id: 17, feed_rate: 37.5000, blade_speed: 5.2500, time: 4, energy_Wh: 51),
  (cut_id: 97, mch_id: 2, mode_id: 18, feed_rate: 37.5000, blade_speed: 7.0000, time: 4, energy_Wh: 70),
  (cut_id: 97, mch_id: 3, mode_id: 18, feed_rate: 37.5000, blade_speed: 7.0000, time: 4, energy_Wh: 70),
  (cut_id: 97, mch_id: 1, mode_id: 18, feed_rate: 37.5000, blade_speed: 7.0000, time: 4, energy_Wh: 70),
  (cut_id: 97, mch_id: 2, mode_id: 19, feed_rate: 37.5000, blade_speed: 8.7500, time: 4, energy_Wh: 85),
  (cut_id: 97, mch_id: 3, mode_id: 19, feed_rate: 37.5000, blade_speed: 8.7500, time: 4, energy_Wh: 85),
  (cut_id: 97, mch_id: 1, mode_id: 19, feed_rate: 37.5000, blade_speed: 8.7500, time: 4, energy_Wh: 85),
  (cut_id: 97, mch_id: 2, mode_id: 20, feed_rate: 37.5000, blade_speed: 10.5000, time: 4, energy_Wh: 39),
  (cut_id: 97, mch_id: 3, mode_id: 20, feed_rate: 37.5000, blade_speed: 10.5000, time: 4, energy_Wh: 39),
  (cut_id: 97, mch_id: 1, mode_id: 20, feed_rate: 37.5000, blade_speed: 10.5000, time: 4, energy_Wh: 39),
  (cut_id: 97, mch_id: 2, mode_id: 21, feed_rate: 45.0000, blade_speed: 3.5000, time: 3, energy_Wh: 59),
  (cut_id: 97, mch_id: 3, mode_id: 21, feed_rate: 45.0000, blade_speed: 3.5000, time: 3, energy_Wh: 59),
  (cut_id: 97, mch_id: 1, mode_id: 21, feed_rate: 45.0000, blade_speed: 3.5000, time: 3, energy_Wh: 59),
  (cut_id: 97, mch_id: 2, mode_id: 22, feed_rate: 45.0000, blade_speed: 5.2500, time: 3, energy_Wh: 59),
  (cut_id: 97, mch_id: 3, mode_id: 22, feed_rate: 45.0000, blade_speed: 5.2500, time: 3, energy_Wh: 59),
  (cut_id: 97, mch_id: 1, mode_id: 22, feed_rate: 45.0000, blade_speed: 5.2500, time: 3, energy_Wh: 59),
  (cut_id: 97, mch_id: 2, mode_id: 23, feed_rate: 45.0000, blade_speed: 7.0000, time: 3, energy_Wh: 88),
  (cut_id: 97, mch_id: 3, mode_id: 23, feed_rate: 45.0000, blade_speed: 7.0000, time: 3, energy_Wh: 88),
  (cut_id: 97, mch_id: 1, mode_id: 23, feed_rate: 45.0000, blade_speed: 7.0000, time: 3, energy_Wh: 88),
  (cut_id: 97, mch_id: 2, mode_id: 24, feed_rate: 45.0000, blade_speed: 8.7500, time: 3, energy_Wh: 78),
  (cut_id: 97, mch_id: 3, mode_id: 24, feed_rate: 45.0000, blade_speed: 8.7500, time: 3, energy_Wh: 78),
  (cut_id: 97, mch_id: 1, mode_id: 24, feed_rate: 45.0000, blade_speed: 8.7500, time: 3, energy_Wh: 78),
  (cut_id: 97, mch_id: 2, mode_id: 25, feed_rate: 45.0000, blade_speed: 10.5000, time: 3, energy_Wh: 54),
  (cut_id: 97, mch_id: 3, mode_id: 25, feed_rate: 45.0000, blade_speed: 10.5000, time: 3, energy_Wh: 54),
  (cut_id: 97, mch_id: 1, mode_id: 25, feed_rate: 45.0000, blade_speed: 10.5000, time: 3, energy_Wh: 54),
  (cut_id: 98, mch_id: 3, mode_id: 1, feed_rate: 10.4100, blade_speed: 2.9700, time: 39, energy_Wh: 38),
  (cut_id: 98, mch_id: 2, mode_id: 1, feed_rate: 10.4100, blade_speed: 2.9700, time: 39, energy_Wh: 38),
  (cut_id: 98, mch_id: 1, mode_id: 1, feed_rate: 10.4100, blade_speed: 2.9700, time: 39, energy_Wh: 38),
  (cut_id: 98, mch_id: 3, mode_id: 2, feed_rate: 10.4100, blade_speed: 4.4500, time: 39, energy_Wh: 24),
  (cut_id: 98, mch_id: 2, mode_id: 2, feed_rate: 10.4100, blade_speed: 4.4500, time: 39, energy_Wh: 24),
  (cut_id: 98, mch_id: 1, mode_id: 2, feed_rate: 10.4100, blade_speed: 4.4500, time: 39, energy_Wh: 24),
  (cut_id: 98, mch_id: 3, mode_id: 3, feed_rate: 10.4100, blade_speed: 5.9400, time: 39, energy_Wh: 29),
  (cut_id: 98, mch_id: 2, mode_id: 3, feed_rate: 10.4100, blade_speed: 5.9400, time: 39, energy_Wh: 29),
  (cut_id: 98, mch_id: 1, mode_id: 3, feed_rate: 10.4100, blade_speed: 5.9400, time: 39, energy_Wh: 29),
  (cut_id: 98, mch_id: 3, mode_id: 4, feed_rate: 10.4100, blade_speed: 7.4200, time: 39, energy_Wh: 49),
  (cut_id: 98, mch_id: 2, mode_id: 4, feed_rate: 10.4100, blade_speed: 7.4200, time: 39, energy_Wh: 49),
  (cut_id: 98, mch_id: 1, mode_id: 4, feed_rate: 10.4100, blade_speed: 7.4200, time: 39, energy_Wh: 49),
  (cut_id: 98, mch_id: 3, mode_id: 5, feed_rate: 10.4100, blade_speed: 8.9100, time: 39, energy_Wh: 41),
  (cut_id: 98, mch_id: 2, mode_id: 5, feed_rate: 10.4100, blade_speed: 8.9100, time: 39, energy_Wh: 41),
  (cut_id: 98, mch_id: 1, mode_id: 5, feed_rate: 10.4100, blade_speed: 8.9100, time: 39, energy_Wh: 41),
  (cut_id: 98, mch_id: 3, mode_id: 6, feed_rate: 15.6100, blade_speed: 2.9700, time: 26, energy_Wh: 54),
  (cut_id: 98, mch_id: 2, mode_id: 6, feed_rate: 15.6100, blade_speed: 2.9700, time: 26, energy_Wh: 54),
  (cut_id: 98, mch_id: 1, mode_id: 6, feed_rate: 15.6100, blade_speed: 2.9700, time: 26, energy_Wh: 54),
  (cut_id: 98, mch_id: 3, mode_id: 7, feed_rate: 15.6100, blade_speed: 4.4500, time: 26, energy_Wh: 35),
  (cut_id: 98, mch_id: 2, mode_id: 7, feed_rate: 15.6100, blade_speed: 4.4500, time: 26, energy_Wh: 35),
  (cut_id: 98, mch_id: 1, mode_id: 7, feed_rate: 15.6100, blade_speed: 4.4500, time: 26, energy_Wh: 35),
  (cut_id: 98, mch_id: 3, mode_id: 8, feed_rate: 15.6100, blade_speed: 5.9400, time: 26, energy_Wh: 45),
  (cut_id: 98, mch_id: 2, mode_id: 8, feed_rate: 15.6100, blade_speed: 5.9400, time: 26, energy_Wh: 45),
  (cut_id: 98, mch_id: 1, mode_id: 8, feed_rate: 15.6100, blade_speed: 5.9400, time: 26, energy_Wh: 45),
  (cut_id: 98, mch_id: 3, mode_id: 9, feed_rate: 15.6100, blade_speed: 7.4200, time: 26, energy_Wh: 67),
  (cut_id: 98, mch_id: 2, mode_id: 9, feed_rate: 15.6100, blade_speed: 7.4200, time: 26, energy_Wh: 67),
  (cut_id: 98, mch_id: 1, mode_id: 9, feed_rate: 15.6100, blade_speed: 7.4200, time: 26, energy_Wh: 67),
  (cut_id: 98, mch_id: 3, mode_id: 10, feed_rate: 15.6100, blade_speed: 8.9100, time: 26, energy_Wh: 50),
  (cut_id: 98, mch_id: 2, mode_id: 10, feed_rate: 15.6100, blade_speed: 8.9100, time: 26, energy_Wh: 50),
  (cut_id: 98, mch_id: 1, mode_id: 10, feed_rate: 15.6100, blade_speed: 8.9100, time: 26, energy_Wh: 50),
  (cut_id: 98, mch_id: 3, mode_id: 11, feed_rate: 20.8200, blade_speed: 2.9700, time: 20, energy_Wh: 61),
  (cut_id: 98, mch_id: 2, mode_id: 11, feed_rate: 20.8200, blade_speed: 2.9700, time: 20, energy_Wh: 61),
  (cut_id: 98, mch_id: 1, mode_id: 11, feed_rate: 20.8200, blade_speed: 2.9700, time: 20, energy_Wh: 61),
  (cut_id: 98, mch_id: 3, mode_id: 12, feed_rate: 20.8200, blade_speed: 4.4500, time: 20, energy_Wh: 38),
  (cut_id: 98, mch_id: 2, mode_id: 12, feed_rate: 20.8200, blade_speed: 4.4500, time: 20, energy_Wh: 38),
  (cut_id: 98, mch_id: 1, mode_id: 12, feed_rate: 20.8200, blade_speed: 4.4500, time: 20, energy_Wh: 38),
  (cut_id: 98, mch_id: 3, mode_id: 13, feed_rate: 20.8200, blade_speed: 5.9400, time: 20, energy_Wh: 42),
  (cut_id: 98, mch_id: 2, mode_id: 13, feed_rate: 20.8200, blade_speed: 5.9400, time: 20, energy_Wh: 42),
  (cut_id: 98, mch_id: 1, mode_id: 13, feed_rate: 20.8200, blade_speed: 5.9400, time: 20, energy_Wh: 42),
  (cut_id: 98, mch_id: 3, mode_id: 14, feed_rate: 20.8200, blade_speed: 7.4200, time: 20, energy_Wh: 74),
  (cut_id: 98, mch_id: 2, mode_id: 14, feed_rate: 20.8200, blade_speed: 7.4200, time: 20, energy_Wh: 74),
  (cut_id: 98, mch_id: 1, mode_id: 14, feed_rate: 20.8200, blade_speed: 7.4200, time: 20, energy_Wh: 74),
  (cut_id: 98, mch_id: 3, mode_id: 15, feed_rate: 20.8200, blade_speed: 8.9100, time: 20, energy_Wh: 71),
  (cut_id: 98, mch_id: 2, mode_id: 15, feed_rate: 20.8200, blade_speed: 8.9100, time: 20, energy_Wh: 71),
  (cut_id: 98, mch_id: 1, mode_id: 15, feed_rate: 20.8200, blade_speed: 8.9100, time: 20, energy_Wh: 71),
  (cut_id: 98, mch_id: 3, mode_id: 16, feed_rate: 26.0200, blade_speed: 2.9700, time: 16, energy_Wh: 56),
  (cut_id: 98, mch_id: 2, mode_id: 16, feed_rate: 26.0200, blade_speed: 2.9700, time: 16, energy_Wh: 56),
  (cut_id: 98, mch_id: 1, mode_id: 16, feed_rate: 26.0200, blade_speed: 2.9700, time: 16, energy_Wh: 56),
  (cut_id: 98, mch_id: 3, mode_id: 17, feed_rate: 26.0200, blade_speed: 4.4500, time: 16, energy_Wh: 41),
  (cut_id: 98, mch_id: 2, mode_id: 17, feed_rate: 26.0200, blade_speed: 4.4500, time: 16, energy_Wh: 41),
  (cut_id: 98, mch_id: 1, mode_id: 17, feed_rate: 26.0200, blade_speed: 4.4500, time: 16, energy_Wh: 41),
  (cut_id: 98, mch_id: 3, mode_id: 18, feed_rate: 26.0200, blade_speed: 5.9400, time: 16, energy_Wh: 53),
  (cut_id: 98, mch_id: 2, mode_id: 18, feed_rate: 26.0200, blade_speed: 5.9400, time: 16, energy_Wh: 53),
  (cut_id: 98, mch_id: 1, mode_id: 18, feed_rate: 26.0200, blade_speed: 5.9400, time: 16, energy_Wh: 53),
  (cut_id: 98, mch_id: 3, mode_id: 19, feed_rate: 26.0200, blade_speed: 7.4200, time: 16, energy_Wh: 71),
  (cut_id: 98, mch_id: 2, mode_id: 19, feed_rate: 26.0200, blade_speed: 7.4200, time: 16, energy_Wh: 71),
  (cut_id: 98, mch_id: 1, mode_id: 19, feed_rate: 26.0200, blade_speed: 7.4200, time: 16, energy_Wh: 71),
  (cut_id: 98, mch_id: 3, mode_id: 20, feed_rate: 26.0200, blade_speed: 8.9100, time: 16, energy_Wh: 56),
  (cut_id: 98, mch_id: 2, mode_id: 20, feed_rate: 26.0200, blade_speed: 8.9100, time: 16, energy_Wh: 56),
  (cut_id: 98, mch_id: 1, mode_id: 20, feed_rate: 26.0200, blade_speed: 8.9100, time: 16, energy_Wh: 56),
  (cut_id: 98, mch_id: 3, mode_id: 21, feed_rate: 31.2300, blade_speed: 2.9700, time: 13, energy_Wh: 59),
  (cut_id: 98, mch_id: 2, mode_id: 21, feed_rate: 31.2300, blade_speed: 2.9700, time: 13, energy_Wh: 59),
  (cut_id: 98, mch_id: 1, mode_id: 21, feed_rate: 31.2300, blade_speed: 2.9700, time: 13, energy_Wh: 59),
  (cut_id: 98, mch_id: 3, mode_id: 22, feed_rate: 31.2300, blade_speed: 4.4500, time: 13, energy_Wh: 53),
  (cut_id: 98, mch_id: 2, mode_id: 22, feed_rate: 31.2300, blade_speed: 4.4500, time: 13, energy_Wh: 53),
  (cut_id: 98, mch_id: 1, mode_id: 22, feed_rate: 31.2300, blade_speed: 4.4500, time: 13, energy_Wh: 53),
  (cut_id: 98, mch_id: 3, mode_id: 23, feed_rate: 31.2300, blade_speed: 5.9400, time: 13, energy_Wh: 49),
  (cut_id: 98, mch_id: 2, mode_id: 23, feed_rate: 31.2300, blade_speed: 5.9400, time: 13, energy_Wh: 49),
  (cut_id: 98, mch_id: 1, mode_id: 23, feed_rate: 31.2300, blade_speed: 5.9400, time: 13, energy_Wh: 49),
  (cut_id: 98, mch_id: 3, mode_id: 24, feed_rate: 31.2300, blade_speed: 7.4200, time: 13, energy_Wh: 67),
  (cut_id: 98, mch_id: 2, mode_id: 24, feed_rate: 31.2300, blade_speed: 7.4200, time: 13, energy_Wh: 67),
  (cut_id: 98, mch_id: 1, mode_id: 24, feed_rate: 31.2300, blade_speed: 7.4200, time: 13, energy_Wh: 67),
  (cut_id: 98, mch_id: 3, mode_id: 25, feed_rate: 31.2300, blade_speed: 8.9100, time: 13, energy_Wh: 81),
  (cut_id: 98, mch_id: 2, mode_id: 25, feed_rate: 31.2300, blade_speed: 8.9100, time: 13, energy_Wh: 81),
  (cut_id: 98, mch_id: 1, mode_id: 25, feed_rate: 31.2300, blade_speed: 8.9100, time: 13, energy_Wh: 81),
  (cut_id: 99, mch_id: 2, mode_id: 1, feed_rate: 17.5000, blade_speed: 10.0000, time: 7, energy_Wh: 36),
  (cut_id: 99, mch_id: 3, mode_id: 1, feed_rate: 17.5000, blade_speed: 10.0000, time: 7, energy_Wh: 36),
  (cut_id: 99, mch_id: 1, mode_id: 1, feed_rate: 17.5000, blade_speed: 10.0000, time: 7, energy_Wh: 36),
  (cut_id: 99, mch_id: 2, mode_id: 2, feed_rate: 17.5000, blade_speed: 15.0000, time: 7, energy_Wh: 46),
  (cut_id: 99, mch_id: 3, mode_id: 2, feed_rate: 17.5000, blade_speed: 15.0000, time: 7, energy_Wh: 46),
  (cut_id: 99, mch_id: 1, mode_id: 2, feed_rate: 17.5000, blade_speed: 15.0000, time: 7, energy_Wh: 46),
  (cut_id: 99, mch_id: 2, mode_id: 3, feed_rate: 17.5000, blade_speed: 20.0000, time: 7, energy_Wh: 51),
  (cut_id: 99, mch_id: 3, mode_id: 3, feed_rate: 17.5000, blade_speed: 20.0000, time: 7, energy_Wh: 51),
  (cut_id: 99, mch_id: 1, mode_id: 3, feed_rate: 17.5000, blade_speed: 20.0000, time: 7, energy_Wh: 51),
  (cut_id: 99, mch_id: 2, mode_id: 4, feed_rate: 17.5000, blade_speed: 25.0000, time: 7, energy_Wh: 29),
  (cut_id: 99, mch_id: 3, mode_id: 4, feed_rate: 17.5000, blade_speed: 25.0000, time: 7, energy_Wh: 29),
  (cut_id: 99, mch_id: 1, mode_id: 4, feed_rate: 17.5000, blade_speed: 25.0000, time: 7, energy_Wh: 29),
  (cut_id: 99, mch_id: 2, mode_id: 5, feed_rate: 17.5000, blade_speed: 30.0000, time: 7, energy_Wh: 27),
  (cut_id: 99, mch_id: 3, mode_id: 5, feed_rate: 17.5000, blade_speed: 30.0000, time: 7, energy_Wh: 27),
  (cut_id: 99, mch_id: 1, mode_id: 5, feed_rate: 17.5000, blade_speed: 30.0000, time: 7, energy_Wh: 27),
  (cut_id: 99, mch_id: 2, mode_id: 6, feed_rate: 26.2500, blade_speed: 10.0000, time: 5, energy_Wh: 42),
  (cut_id: 99, mch_id: 3, mode_id: 6, feed_rate: 26.2500, blade_speed: 10.0000, time: 5, energy_Wh: 42),
  (cut_id: 99, mch_id: 1, mode_id: 6, feed_rate: 26.2500, blade_speed: 10.0000, time: 5, energy_Wh: 42),
  (cut_id: 99, mch_id: 2, mode_id: 7, feed_rate: 26.2500, blade_speed: 15.0000, time: 5, energy_Wh: 53),
  (cut_id: 99, mch_id: 3, mode_id: 7, feed_rate: 26.2500, blade_speed: 15.0000, time: 5, energy_Wh: 53),
  (cut_id: 99, mch_id: 1, mode_id: 7, feed_rate: 26.2500, blade_speed: 15.0000, time: 5, energy_Wh: 53),
  (cut_id: 99, mch_id: 2, mode_id: 8, feed_rate: 26.2500, blade_speed: 20.0000, time: 5, energy_Wh: 58),
  (cut_id: 99, mch_id: 3, mode_id: 8, feed_rate: 26.2500, blade_speed: 20.0000, time: 5, energy_Wh: 58),
  (cut_id: 99, mch_id: 1, mode_id: 8, feed_rate: 26.2500, blade_speed: 20.0000, time: 5, energy_Wh: 58),
  (cut_id: 99, mch_id: 2, mode_id: 9, feed_rate: 26.2500, blade_speed: 25.0000, time: 5, energy_Wh: 34),
  (cut_id: 99, mch_id: 3, mode_id: 9, feed_rate: 26.2500, blade_speed: 25.0000, time: 5, energy_Wh: 34),
  (cut_id: 99, mch_id: 1, mode_id: 9, feed_rate: 26.2500, blade_speed: 25.0000, time: 5, energy_Wh: 34),
  (cut_id: 99, mch_id: 2, mode_id: 10, feed_rate: 26.2500, blade_speed: 30.0000, time: 5, energy_Wh: 26),
  (cut_id: 99, mch_id: 3, mode_id: 10, feed_rate: 26.2500, blade_speed: 30.0000, time: 5, energy_Wh: 26),
  (cut_id: 99, mch_id: 1, mode_id: 10, feed_rate: 26.2500, blade_speed: 30.0000, time: 5, energy_Wh: 26),
  (cut_id: 99, mch_id: 2, mode_id: 11, feed_rate: 35.0000, blade_speed: 10.0000, time: 4, energy_Wh: 37),
  (cut_id: 99, mch_id: 3, mode_id: 11, feed_rate: 35.0000, blade_speed: 10.0000, time: 4, energy_Wh: 37),
  (cut_id: 99, mch_id: 1, mode_id: 11, feed_rate: 35.0000, blade_speed: 10.0000, time: 4, energy_Wh: 37),
  (cut_id: 99, mch_id: 2, mode_id: 12, feed_rate: 35.0000, blade_speed: 15.0000, time: 4, energy_Wh: 56),
  (cut_id: 99, mch_id: 3, mode_id: 12, feed_rate: 35.0000, blade_speed: 15.0000, time: 4, energy_Wh: 56),
  (cut_id: 99, mch_id: 1, mode_id: 12, feed_rate: 35.0000, blade_speed: 15.0000, time: 4, energy_Wh: 56),
  (cut_id: 99, mch_id: 2, mode_id: 13, feed_rate: 35.0000, blade_speed: 20.0000, time: 4, energy_Wh: 61),
  (cut_id: 99, mch_id: 3, mode_id: 13, feed_rate: 35.0000, blade_speed: 20.0000, time: 4, energy_Wh: 61),
  (cut_id: 99, mch_id: 1, mode_id: 13, feed_rate: 35.0000, blade_speed: 20.0000, time: 4, energy_Wh: 61),
  (cut_id: 99, mch_id: 2, mode_id: 14, feed_rate: 35.0000, blade_speed: 25.0000, time: 4, energy_Wh: 51),
  (cut_id: 99, mch_id: 3, mode_id: 14, feed_rate: 35.0000, blade_speed: 25.0000, time: 4, energy_Wh: 51),
  (cut_id: 99, mch_id: 1, mode_id: 14, feed_rate: 35.0000, blade_speed: 25.0000, time: 4, energy_Wh: 51),
  (cut_id: 99, mch_id: 2, mode_id: 15, feed_rate: 35.0000, blade_speed: 30.0000, time: 4, energy_Wh: 41),
  (cut_id: 99, mch_id: 3, mode_id: 15, feed_rate: 35.0000, blade_speed: 30.0000, time: 4, energy_Wh: 41),
  (cut_id: 99, mch_id: 1, mode_id: 15, feed_rate: 35.0000, blade_speed: 30.0000, time: 4, energy_Wh: 41),
  (cut_id: 99, mch_id: 2, mode_id: 16, feed_rate: 43.7500, blade_speed: 10.0000, time: 3, energy_Wh: 56),
  (cut_id: 99, mch_id: 3, mode_id: 16, feed_rate: 43.7500, blade_speed: 10.0000, time: 3, energy_Wh: 56),
  (cut_id: 99, mch_id: 1, mode_id: 16, feed_rate: 43.7500, blade_speed: 10.0000, time: 3, energy_Wh: 56),
  (cut_id: 99, mch_id: 2, mode_id: 17, feed_rate: 43.7500, blade_speed: 15.0000, time: 3, energy_Wh: 70),
  (cut_id: 99, mch_id: 3, mode_id: 17, feed_rate: 43.7500, blade_speed: 15.0000, time: 3, energy_Wh: 70),
  (cut_id: 99, mch_id: 1, mode_id: 17, feed_rate: 43.7500, blade_speed: 15.0000, time: 3, energy_Wh: 70),
  (cut_id: 99, mch_id: 2, mode_id: 18, feed_rate: 43.7500, blade_speed: 20.0000, time: 3, energy_Wh: 77),
  (cut_id: 99, mch_id: 3, mode_id: 18, feed_rate: 43.7500, blade_speed: 20.0000, time: 3, energy_Wh: 77),
  (cut_id: 99, mch_id: 1, mode_id: 18, feed_rate: 43.7500, blade_speed: 20.0000, time: 3, energy_Wh: 77),
  (cut_id: 99, mch_id: 2, mode_id: 19, feed_rate: 43.7500, blade_speed: 25.0000, time: 3, energy_Wh: 62),
  (cut_id: 99, mch_id: 3, mode_id: 19, feed_rate: 43.7500, blade_speed: 25.0000, time: 3, energy_Wh: 62),
  (cut_id: 99, mch_id: 1, mode_id: 19, feed_rate: 43.7500, blade_speed: 25.0000, time: 3, energy_Wh: 62),
  (cut_id: 99, mch_id: 2, mode_id: 20, feed_rate: 43.7500, blade_speed: 30.0000, time: 3, energy_Wh: 44),
  (cut_id: 99, mch_id: 3, mode_id: 20, feed_rate: 43.7500, blade_speed: 30.0000, time: 3, energy_Wh: 44),
  (cut_id: 99, mch_id: 1, mode_id: 20, feed_rate: 43.7500, blade_speed: 30.0000, time: 3, energy_Wh: 44),
  (cut_id: 99, mch_id: 2, mode_id: 21, feed_rate: 52.5000, blade_speed: 10.0000, time: 3, energy_Wh: 55),
  (cut_id: 99, mch_id: 3, mode_id: 21, feed_rate: 52.5000, blade_speed: 10.0000, time: 3, energy_Wh: 55),
  (cut_id: 99, mch_id: 1, mode_id: 21, feed_rate: 52.5000, blade_speed: 10.0000, time: 3, energy_Wh: 55),
  (cut_id: 99, mch_id: 2, mode_id: 22, feed_rate: 52.5000, blade_speed: 15.0000, time: 3, energy_Wh: 87),
  (cut_id: 99, mch_id: 3, mode_id: 22, feed_rate: 52.5000, blade_speed: 15.0000, time: 3, energy_Wh: 87),
  (cut_id: 99, mch_id: 1, mode_id: 22, feed_rate: 52.5000, blade_speed: 15.0000, time: 3, energy_Wh: 87),
  (cut_id: 99, mch_id: 2, mode_id: 23, feed_rate: 52.5000, blade_speed: 20.0000, time: 3, energy_Wh: 81),
  (cut_id: 99, mch_id: 3, mode_id: 23, feed_rate: 52.5000, blade_speed: 20.0000, time: 3, energy_Wh: 81),
  (cut_id: 99, mch_id: 1, mode_id: 23, feed_rate: 52.5000, blade_speed: 20.0000, time: 3, energy_Wh: 81),
  (cut_id: 99, mch_id: 2, mode_id: 24, feed_rate: 52.5000, blade_speed: 25.0000, time: 3, energy_Wh: 51),
  (cut_id: 99, mch_id: 3, mode_id: 24, feed_rate: 52.5000, blade_speed: 25.0000, time: 3, energy_Wh: 51),
  (cut_id: 99, mch_id: 1, mode_id: 24, feed_rate: 52.5000, blade_speed: 25.0000, time: 3, energy_Wh: 51),
  (cut_id: 99, mch_id: 2, mode_id: 25, feed_rate: 52.5000, blade_speed: 30.0000, time: 3, energy_Wh: 40),
  (cut_id: 99, mch_id: 3, mode_id: 25, feed_rate: 52.5000, blade_speed: 30.0000, time: 3, energy_Wh: 40),
  (cut_id: 99, mch_id: 1, mode_id: 25, feed_rate: 52.5000, blade_speed: 30.0000, time: 3, energy_Wh: 40),
  (cut_id: 100, mch_id: 3, mode_id: 1, feed_rate: 18.4500, blade_speed: 7.2800, time: 34, energy_Wh: 83),
  (cut_id: 100, mch_id: 1, mode_id: 1, feed_rate: 18.4500, blade_speed: 7.2800, time: 34, energy_Wh: 83),
  (cut_id: 100, mch_id: 2, mode_id: 1, feed_rate: 18.4500, blade_speed: 7.2800, time: 34, energy_Wh: 83),
  (cut_id: 100, mch_id: 3, mode_id: 2, feed_rate: 18.4500, blade_speed: 10.9200, time: 34, energy_Wh: 51),
  (cut_id: 100, mch_id: 1, mode_id: 2, feed_rate: 18.4500, blade_speed: 10.9200, time: 34, energy_Wh: 51),
  (cut_id: 100, mch_id: 2, mode_id: 2, feed_rate: 18.4500, blade_speed: 10.9200, time: 34, energy_Wh: 51),
  (cut_id: 100, mch_id: 3, mode_id: 3, feed_rate: 18.4500, blade_speed: 14.5600, time: 34, energy_Wh: 86),
  (cut_id: 100, mch_id: 1, mode_id: 3, feed_rate: 18.4500, blade_speed: 14.5600, time: 34, energy_Wh: 86),
  (cut_id: 100, mch_id: 2, mode_id: 3, feed_rate: 18.4500, blade_speed: 14.5600, time: 34, energy_Wh: 86),
  (cut_id: 100, mch_id: 3, mode_id: 4, feed_rate: 18.4500, blade_speed: 18.2000, time: 34, energy_Wh: 54),
  (cut_id: 100, mch_id: 1, mode_id: 4, feed_rate: 18.4500, blade_speed: 18.2000, time: 34, energy_Wh: 54),
  (cut_id: 100, mch_id: 2, mode_id: 4, feed_rate: 18.4500, blade_speed: 18.2000, time: 34, energy_Wh: 54),
  (cut_id: 100, mch_id: 3, mode_id: 5, feed_rate: 18.4500, blade_speed: 21.8400, time: 34, energy_Wh: 78),
  (cut_id: 100, mch_id: 1, mode_id: 5, feed_rate: 18.4500, blade_speed: 21.8400, time: 34, energy_Wh: 78),
  (cut_id: 100, mch_id: 2, mode_id: 5, feed_rate: 18.4500, blade_speed: 21.8400, time: 34, energy_Wh: 78),
  (cut_id: 100, mch_id: 3, mode_id: 6, feed_rate: 27.6800, blade_speed: 7.2800, time: 23, energy_Wh: 88),
  (cut_id: 100, mch_id: 1, mode_id: 6, feed_rate: 27.6800, blade_speed: 7.2800, time: 23, energy_Wh: 88),
  (cut_id: 100, mch_id: 2, mode_id: 6, feed_rate: 27.6800, blade_speed: 7.2800, time: 23, energy_Wh: 88),
  (cut_id: 100, mch_id: 3, mode_id: 7, feed_rate: 27.6800, blade_speed: 10.9200, time: 23, energy_Wh: 60),
  (cut_id: 100, mch_id: 1, mode_id: 7, feed_rate: 27.6800, blade_speed: 10.9200, time: 23, energy_Wh: 60),
  (cut_id: 100, mch_id: 2, mode_id: 7, feed_rate: 27.6800, blade_speed: 10.9200, time: 23, energy_Wh: 60),
  (cut_id: 100, mch_id: 3, mode_id: 8, feed_rate: 27.6800, blade_speed: 14.5600, time: 23, energy_Wh: 93),
  (cut_id: 100, mch_id: 1, mode_id: 8, feed_rate: 27.6800, blade_speed: 14.5600, time: 23, energy_Wh: 93),
  (cut_id: 100, mch_id: 2, mode_id: 8, feed_rate: 27.6800, blade_speed: 14.5600, time: 23, energy_Wh: 93),
  (cut_id: 100, mch_id: 3, mode_id: 9, feed_rate: 27.6800, blade_speed: 18.2000, time: 23, energy_Wh: 63),
  (cut_id: 100, mch_id: 1, mode_id: 9, feed_rate: 27.6800, blade_speed: 18.2000, time: 23, energy_Wh: 63),
  (cut_id: 100, mch_id: 2, mode_id: 9, feed_rate: 27.6800, blade_speed: 18.2000, time: 23, energy_Wh: 63),
  (cut_id: 100, mch_id: 3, mode_id: 10, feed_rate: 27.6800, blade_speed: 21.8400, time: 23, energy_Wh: 78),
  (cut_id: 100, mch_id: 1, mode_id: 10, feed_rate: 27.6800, blade_speed: 21.8400, time: 23, energy_Wh: 78),
  (cut_id: 100, mch_id: 2, mode_id: 10, feed_rate: 27.6800, blade_speed: 21.8400, time: 23, energy_Wh: 78),
  (cut_id: 100, mch_id: 3, mode_id: 11, feed_rate: 36.9000, blade_speed: 7.2800, time: 17, energy_Wh: 124),
  (cut_id: 100, mch_id: 1, mode_id: 11, feed_rate: 36.9000, blade_speed: 7.2800, time: 17, energy_Wh: 124),
  (cut_id: 100, mch_id: 2, mode_id: 11, feed_rate: 36.9000, blade_speed: 7.2800, time: 17, energy_Wh: 124),
  (cut_id: 100, mch_id: 3, mode_id: 12, feed_rate: 36.9000, blade_speed: 10.9200, time: 17, energy_Wh: 51),
  (cut_id: 100, mch_id: 1, mode_id: 12, feed_rate: 36.9000, blade_speed: 10.9200, time: 17, energy_Wh: 51),
  (cut_id: 100, mch_id: 2, mode_id: 12, feed_rate: 36.9000, blade_speed: 10.9200, time: 17, energy_Wh: 51),
  (cut_id: 100, mch_id: 3, mode_id: 13, feed_rate: 36.9000, blade_speed: 14.5600, time: 17, energy_Wh: 97),
  (cut_id: 100, mch_id: 1, mode_id: 13, feed_rate: 36.9000, blade_speed: 14.5600, time: 17, energy_Wh: 97),
  (cut_id: 100, mch_id: 2, mode_id: 13, feed_rate: 36.9000, blade_speed: 14.5600, time: 17, energy_Wh: 97),
  (cut_id: 100, mch_id: 3, mode_id: 14, feed_rate: 36.9000, blade_speed: 18.2000, time: 17, energy_Wh: 79),
  (cut_id: 100, mch_id: 1, mode_id: 14, feed_rate: 36.9000, blade_speed: 18.2000, time: 17, energy_Wh: 79),
  (cut_id: 100, mch_id: 2, mode_id: 14, feed_rate: 36.9000, blade_speed: 18.2000, time: 17, energy_Wh: 79),
  (cut_id: 100, mch_id: 3, mode_id: 15, feed_rate: 36.9000, blade_speed: 21.8400, time: 17, energy_Wh: 81),
  (cut_id: 100, mch_id: 1, mode_id: 15, feed_rate: 36.9000, blade_speed: 21.8400, time: 17, energy_Wh: 81),
  (cut_id: 100, mch_id: 2, mode_id: 15, feed_rate: 36.9000, blade_speed: 21.8400, time: 17, energy_Wh: 81),
  (cut_id: 100, mch_id: 3, mode_id: 16, feed_rate: 46.1300, blade_speed: 7.2800, time: 14, energy_Wh: 133),
  (cut_id: 100, mch_id: 1, mode_id: 16, feed_rate: 46.1300, blade_speed: 7.2800, time: 14, energy_Wh: 133),
  (cut_id: 100, mch_id: 2, mode_id: 16, feed_rate: 46.1300, blade_speed: 7.2800, time: 14, energy_Wh: 133),
  (cut_id: 100, mch_id: 3, mode_id: 17, feed_rate: 46.1300, blade_speed: 10.9200, time: 14, energy_Wh: 68),
  (cut_id: 100, mch_id: 1, mode_id: 17, feed_rate: 46.1300, blade_speed: 10.9200, time: 14, energy_Wh: 68),
  (cut_id: 100, mch_id: 2, mode_id: 17, feed_rate: 46.1300, blade_speed: 10.9200, time: 14, energy_Wh: 68),
  (cut_id: 100, mch_id: 3, mode_id: 18, feed_rate: 46.1300, blade_speed: 14.5600, time: 14, energy_Wh: 128),
  (cut_id: 100, mch_id: 1, mode_id: 18, feed_rate: 46.1300, blade_speed: 14.5600, time: 14, energy_Wh: 128),
  (cut_id: 100, mch_id: 2, mode_id: 18, feed_rate: 46.1300, blade_speed: 14.5600, time: 14, energy_Wh: 128),
  (cut_id: 100, mch_id: 3, mode_id: 19, feed_rate: 46.1300, blade_speed: 18.2000, time: 14, energy_Wh: 72),
  (cut_id: 100, mch_id: 1, mode_id: 19, feed_rate: 46.1300, blade_speed: 18.2000, time: 14, energy_Wh: 72),
  (cut_id: 100, mch_id: 2, mode_id: 19, feed_rate: 46.1300, blade_speed: 18.2000, time: 14, energy_Wh: 72),
  (cut_id: 100, mch_id: 3, mode_id: 20, feed_rate: 46.1300, blade_speed: 21.8400, time: 14, energy_Wh: 82),
  (cut_id: 100, mch_id: 1, mode_id: 20, feed_rate: 46.1300, blade_speed: 21.8400, time: 14, energy_Wh: 82),
  (cut_id: 100, mch_id: 2, mode_id: 20, feed_rate: 46.1300, blade_speed: 21.8400, time: 14, energy_Wh: 82),
  (cut_id: 100, mch_id: 3, mode_id: 21, feed_rate: 55.3500, blade_speed: 7.2800, time: 12, energy_Wh: 161),
  (cut_id: 100, mch_id: 1, mode_id: 21, feed_rate: 55.3500, blade_speed: 7.2800, time: 12, energy_Wh: 161),
  (cut_id: 100, mch_id: 2, mode_id: 21, feed_rate: 55.3500, blade_speed: 7.2800, time: 12, energy_Wh: 161),
  (cut_id: 100, mch_id: 3, mode_id: 22, feed_rate: 55.3500, blade_speed: 10.9200, time: 12, energy_Wh: 89),
  (cut_id: 100, mch_id: 1, mode_id: 22, feed_rate: 55.3500, blade_speed: 10.9200, time: 12, energy_Wh: 89),
  (cut_id: 100, mch_id: 2, mode_id: 22, feed_rate: 55.3500, blade_speed: 10.9200, time: 12, energy_Wh: 89),
  (cut_id: 100, mch_id: 3, mode_id: 23, feed_rate: 55.3500, blade_speed: 14.5600, time: 12, energy_Wh: 116),
  (cut_id: 100, mch_id: 1, mode_id: 23, feed_rate: 55.3500, blade_speed: 14.5600, time: 12, energy_Wh: 116),
  (cut_id: 100, mch_id: 2, mode_id: 23, feed_rate: 55.3500, blade_speed: 14.5600, time: 12, energy_Wh: 116),
  (cut_id: 100, mch_id: 3, mode_id: 24, feed_rate: 55.3500, blade_speed: 18.2000, time: 12, energy_Wh: 94),
  (cut_id: 100, mch_id: 1, mode_id: 24, feed_rate: 55.3500, blade_speed: 18.2000, time: 12, energy_Wh: 94),
  (cut_id: 100, mch_id: 2, mode_id: 24, feed_rate: 55.3500, blade_speed: 18.2000, time: 12, energy_Wh: 94),
  (cut_id: 100, mch_id: 3, mode_id: 25, feed_rate: 55.3500, blade_speed: 21.8400, time: 12, energy_Wh: 111),
  (cut_id: 100, mch_id: 1, mode_id: 25, feed_rate: 55.3500, blade_speed: 21.8400, time: 12, energy_Wh: 111),
  (cut_id: 100, mch_id: 2, mode_id: 25, feed_rate: 55.3500, blade_speed: 21.8400, time: 12, energy_Wh: 111)
];

% --- operations
% fields: ('op_id', 'cut_id', 'job_id', 'pos_in_job', 'op_type')
operations = [
  (op_id: 1, cut_id: 1, job_id: 1, pos_in_job: 1, op_type: 0),
  (op_id: 2, cut_id: 1, job_id: 1, pos_in_job: 2, op_type: 1),
  (op_id: 3, cut_id: 1, job_id: 1, pos_in_job: 3, op_type: 2),
  (op_id: 4, cut_id: 2, job_id: 1, pos_in_job: 4, op_type: 0),
  (op_id: 5, cut_id: 2, job_id: 1, pos_in_job: 5, op_type: 1),
  (op_id: 6, cut_id: 2, job_id: 1, pos_in_job: 6, op_type: 2),
  (op_id: 7, cut_id: 3, job_id: 1, pos_in_job: 7, op_type: 0),
  (op_id: 8, cut_id: 3, job_id: 1, pos_in_job: 8, op_type: 1),
  (op_id: 9, cut_id: 3, job_id: 1, pos_in_job: 9, op_type: 2),
  (op_id: 10, cut_id: 4, job_id: 2, pos_in_job: 1, op_type: 0),
  (op_id: 11, cut_id: 4, job_id: 2, pos_in_job: 2, op_type: 1),
  (op_id: 12, cut_id: 4, job_id: 2, pos_in_job: 3, op_type: 2),
  (op_id: 13, cut_id: 5, job_id: 2, pos_in_job: 4, op_type: 0),
  (op_id: 14, cut_id: 5, job_id: 2, pos_in_job: 5, op_type: 1),
  (op_id: 15, cut_id: 5, job_id: 2, pos_in_job: 6, op_type: 2),
  (op_id: 16, cut_id: 6, job_id: 3, pos_in_job: 1, op_type: 0),
  (op_id: 17, cut_id: 6, job_id: 3, pos_in_job: 2, op_type: 1),
  (op_id: 18, cut_id: 6, job_id: 3, pos_in_job: 3, op_type: 2),
  (op_id: 19, cut_id: 7, job_id: 3, pos_in_job: 4, op_type: 0),
  (op_id: 20, cut_id: 7, job_id: 3, pos_in_job: 5, op_type: 1),
  (op_id: 21, cut_id: 7, job_id: 3, pos_in_job: 6, op_type: 2),
  (op_id: 22, cut_id: 8, job_id: 3, pos_in_job: 7, op_type: 0),
  (op_id: 23, cut_id: 8, job_id: 3, pos_in_job: 8, op_type: 1),
  (op_id: 24, cut_id: 8, job_id: 3, pos_in_job: 9, op_type: 2),
  (op_id: 25, cut_id: 9, job_id: 4, pos_in_job: 1, op_type: 0),
  (op_id: 26, cut_id: 9, job_id: 4, pos_in_job: 2, op_type: 1),
  (op_id: 27, cut_id: 9, job_id: 4, pos_in_job: 3, op_type: 2),
  (op_id: 28, cut_id: 10, job_id: 5, pos_in_job: 1, op_type: 0),
  (op_id: 29, cut_id: 10, job_id: 5, pos_in_job: 2, op_type: 1),
  (op_id: 30, cut_id: 10, job_id: 5, pos_in_job: 3, op_type: 2),
  (op_id: 31, cut_id: 11, job_id: 5, pos_in_job: 4, op_type: 0),
  (op_id: 32, cut_id: 11, job_id: 5, pos_in_job: 5, op_type: 1),
  (op_id: 33, cut_id: 11, job_id: 5, pos_in_job: 6, op_type: 2),
  (op_id: 34, cut_id: 12, job_id: 6, pos_in_job: 1, op_type: 0),
  (op_id: 35, cut_id: 12, job_id: 6, pos_in_job: 2, op_type: 1),
  (op_id: 36, cut_id: 12, job_id: 6, pos_in_job: 3, op_type: 2),
  (op_id: 37, cut_id: 13, job_id: 6, pos_in_job: 4, op_type: 0),
  (op_id: 38, cut_id: 13, job_id: 6, pos_in_job: 5, op_type: 1),
  (op_id: 39, cut_id: 13, job_id: 6, pos_in_job: 6, op_type: 2),
  (op_id: 40, cut_id: 14, job_id: 7, pos_in_job: 1, op_type: 0),
  (op_id: 41, cut_id: 14, job_id: 7, pos_in_job: 2, op_type: 1),
  (op_id: 42, cut_id: 14, job_id: 7, pos_in_job: 3, op_type: 2),
  (op_id: 43, cut_id: 15, job_id: 7, pos_in_job: 4, op_type: 0),
  (op_id: 44, cut_id: 15, job_id: 7, pos_in_job: 5, op_type: 1),
  (op_id: 45, cut_id: 15, job_id: 7, pos_in_job: 6, op_type: 2),
  (op_id: 46, cut_id: 16, job_id: 8, pos_in_job: 1, op_type: 0),
  (op_id: 47, cut_id: 16, job_id: 8, pos_in_job: 2, op_type: 1),
  (op_id: 48, cut_id: 16, job_id: 8, pos_in_job: 3, op_type: 2),
  (op_id: 49, cut_id: 17, job_id: 8, pos_in_job: 4, op_type: 0),
  (op_id: 50, cut_id: 17, job_id: 8, pos_in_job: 5, op_type: 1),
  (op_id: 51, cut_id: 17, job_id: 8, pos_in_job: 6, op_type: 2),
  (op_id: 52, cut_id: 18, job_id: 9, pos_in_job: 1, op_type: 0),
  (op_id: 53, cut_id: 18, job_id: 9, pos_in_job: 2, op_type: 1),
  (op_id: 54, cut_id: 18, job_id: 9, pos_in_job: 3, op_type: 2),
  (op_id: 55, cut_id: 19, job_id: 10, pos_in_job: 1, op_type: 0),
  (op_id: 56, cut_id: 19, job_id: 10, pos_in_job: 2, op_type: 1),
  (op_id: 57, cut_id: 19, job_id: 10, pos_in_job: 3, op_type: 2),
  (op_id: 58, cut_id: 20, job_id: 10, pos_in_job: 4, op_type: 0),
  (op_id: 59, cut_id: 20, job_id: 10, pos_in_job: 5, op_type: 1),
  (op_id: 60, cut_id: 20, job_id: 10, pos_in_job: 6, op_type: 2),
  (op_id: 61, cut_id: 21, job_id: 10, pos_in_job: 7, op_type: 0),
  (op_id: 62, cut_id: 21, job_id: 10, pos_in_job: 8, op_type: 1),
  (op_id: 63, cut_id: 21, job_id: 10, pos_in_job: 9, op_type: 2),
  (op_id: 64, cut_id: 22, job_id: 11, pos_in_job: 1, op_type: 0),
  (op_id: 65, cut_id: 22, job_id: 11, pos_in_job: 2, op_type: 1),
  (op_id: 66, cut_id: 22, job_id: 11, pos_in_job: 3, op_type: 2),
  (op_id: 67, cut_id: 23, job_id: 12, pos_in_job: 1, op_type: 0),
  (op_id: 68, cut_id: 23, job_id: 12, pos_in_job: 2, op_type: 1),
  (op_id: 69, cut_id: 23, job_id: 12, pos_in_job: 3, op_type: 2),
  (op_id: 70, cut_id: 24, job_id: 12, pos_in_job: 4, op_type: 0),
  (op_id: 71, cut_id: 24, job_id: 12, pos_in_job: 5, op_type: 1),
  (op_id: 72, cut_id: 24, job_id: 12, pos_in_job: 6, op_type: 2),
  (op_id: 73, cut_id: 25, job_id: 13, pos_in_job: 1, op_type: 0),
  (op_id: 74, cut_id: 25, job_id: 13, pos_in_job: 2, op_type: 1),
  (op_id: 75, cut_id: 25, job_id: 13, pos_in_job: 3, op_type: 2),
  (op_id: 76, cut_id: 26, job_id: 14, pos_in_job: 1, op_type: 0),
  (op_id: 77, cut_id: 26, job_id: 14, pos_in_job: 2, op_type: 1),
  (op_id: 78, cut_id: 26, job_id: 14, pos_in_job: 3, op_type: 2),
  (op_id: 79, cut_id: 27, job_id: 15, pos_in_job: 1, op_type: 0),
  (op_id: 80, cut_id: 27, job_id: 15, pos_in_job: 2, op_type: 1),
  (op_id: 81, cut_id: 27, job_id: 15, pos_in_job: 3, op_type: 2),
  (op_id: 82, cut_id: 28, job_id: 15, pos_in_job: 4, op_type: 0),
  (op_id: 83, cut_id: 28, job_id: 15, pos_in_job: 5, op_type: 1),
  (op_id: 84, cut_id: 28, job_id: 15, pos_in_job: 6, op_type: 2),
  (op_id: 85, cut_id: 29, job_id: 15, pos_in_job: 7, op_type: 0),
  (op_id: 86, cut_id: 29, job_id: 15, pos_in_job: 8, op_type: 1),
  (op_id: 87, cut_id: 29, job_id: 15, pos_in_job: 9, op_type: 2),
  (op_id: 88, cut_id: 30, job_id: 15, pos_in_job: 10, op_type: 0),
  (op_id: 89, cut_id: 30, job_id: 15, pos_in_job: 11, op_type: 1),
  (op_id: 90, cut_id: 30, job_id: 15, pos_in_job: 12, op_type: 2),
  (op_id: 91, cut_id: 31, job_id: 16, pos_in_job: 1, op_type: 0),
  (op_id: 92, cut_id: 31, job_id: 16, pos_in_job: 2, op_type: 1),
  (op_id: 93, cut_id: 31, job_id: 16, pos_in_job: 3, op_type: 2),
  (op_id: 94, cut_id: 32, job_id: 17, pos_in_job: 1, op_type: 0),
  (op_id: 95, cut_id: 32, job_id: 17, pos_in_job: 2, op_type: 1),
  (op_id: 96, cut_id: 32, job_id: 17, pos_in_job: 3, op_type: 2),
  (op_id: 97, cut_id: 33, job_id: 17, pos_in_job: 4, op_type: 0),
  (op_id: 98, cut_id: 33, job_id: 17, pos_in_job: 5, op_type: 1),
  (op_id: 99, cut_id: 33, job_id: 17, pos_in_job: 6, op_type: 2),
  (op_id: 100, cut_id: 34, job_id: 18, pos_in_job: 1, op_type: 0),
  (op_id: 101, cut_id: 34, job_id: 18, pos_in_job: 2, op_type: 1),
  (op_id: 102, cut_id: 34, job_id: 18, pos_in_job: 3, op_type: 2),
  (op_id: 103, cut_id: 35, job_id: 18, pos_in_job: 4, op_type: 0),
  (op_id: 104, cut_id: 35, job_id: 18, pos_in_job: 5, op_type: 1),
  (op_id: 105, cut_id: 35, job_id: 18, pos_in_job: 6, op_type: 2),
  (op_id: 106, cut_id: 36, job_id: 19, pos_in_job: 1, op_type: 0),
  (op_id: 107, cut_id: 36, job_id: 19, pos_in_job: 2, op_type: 1),
  (op_id: 108, cut_id: 36, job_id: 19, pos_in_job: 3, op_type: 2),
  (op_id: 109, cut_id: 37, job_id: 19, pos_in_job: 4, op_type: 0),
  (op_id: 110, cut_id: 37, job_id: 19, pos_in_job: 5, op_type: 1),
  (op_id: 111, cut_id: 37, job_id: 19, pos_in_job: 6, op_type: 2),
  (op_id: 112, cut_id: 38, job_id: 20, pos_in_job: 1, op_type: 0),
  (op_id: 113, cut_id: 38, job_id: 20, pos_in_job: 2, op_type: 1),
  (op_id: 114, cut_id: 38, job_id: 20, pos_in_job: 3, op_type: 2),
  (op_id: 115, cut_id: 39, job_id: 20, pos_in_job: 4, op_type: 0),
  (op_id: 116, cut_id: 39, job_id: 20, pos_in_job: 5, op_type: 1),
  (op_id: 117, cut_id: 39, job_id: 20, pos_in_job: 6, op_type: 2),
  (op_id: 118, cut_id: 40, job_id: 21, pos_in_job: 1, op_type: 0),
  (op_id: 119, cut_id: 40, job_id: 21, pos_in_job: 2, op_type: 1),
  (op_id: 120, cut_id: 40, job_id: 21, pos_in_job: 3, op_type: 2),
  (op_id: 121, cut_id: 41, job_id: 21, pos_in_job: 4, op_type: 0),
  (op_id: 122, cut_id: 41, job_id: 21, pos_in_job: 5, op_type: 1),
  (op_id: 123, cut_id: 41, job_id: 21, pos_in_job: 6, op_type: 2),
  (op_id: 124, cut_id: 42, job_id: 21, pos_in_job: 7, op_type: 0),
  (op_id: 125, cut_id: 42, job_id: 21, pos_in_job: 8, op_type: 1),
  (op_id: 126, cut_id: 42, job_id: 21, pos_in_job: 9, op_type: 2),
  (op_id: 127, cut_id: 43, job_id: 21, pos_in_job: 10, op_type: 0),
  (op_id: 128, cut_id: 43, job_id: 21, pos_in_job: 11, op_type: 1),
  (op_id: 129, cut_id: 43, job_id: 21, pos_in_job: 12, op_type: 2),
  (op_id: 130, cut_id: 44, job_id: 22, pos_in_job: 1, op_type: 0),
  (op_id: 131, cut_id: 44, job_id: 22, pos_in_job: 2, op_type: 1),
  (op_id: 132, cut_id: 44, job_id: 22, pos_in_job: 3, op_type: 2),
  (op_id: 133, cut_id: 45, job_id: 22, pos_in_job: 4, op_type: 0),
  (op_id: 134, cut_id: 45, job_id: 22, pos_in_job: 5, op_type: 1),
  (op_id: 135, cut_id: 45, job_id: 22, pos_in_job: 6, op_type: 2),
  (op_id: 136, cut_id: 46, job_id: 23, pos_in_job: 1, op_type: 0),
  (op_id: 137, cut_id: 46, job_id: 23, pos_in_job: 2, op_type: 1),
  (op_id: 138, cut_id: 46, job_id: 23, pos_in_job: 3, op_type: 2),
  (op_id: 139, cut_id: 47, job_id: 24, pos_in_job: 1, op_type: 0),
  (op_id: 140, cut_id: 47, job_id: 24, pos_in_job: 2, op_type: 1),
  (op_id: 141, cut_id: 47, job_id: 24, pos_in_job: 3, op_type: 2),
  (op_id: 142, cut_id: 48, job_id: 25, pos_in_job: 1, op_type: 0),
  (op_id: 143, cut_id: 48, job_id: 25, pos_in_job: 2, op_type: 1),
  (op_id: 144, cut_id: 48, job_id: 25, pos_in_job: 3, op_type: 2),
  (op_id: 145, cut_id: 49, job_id: 25, pos_in_job: 4, op_type: 0),
  (op_id: 146, cut_id: 49, job_id: 25, pos_in_job: 5, op_type: 1),
  (op_id: 147, cut_id: 49, job_id: 25, pos_in_job: 6, op_type: 2),
  (op_id: 148, cut_id: 50, job_id: 26, pos_in_job: 1, op_type: 0),
  (op_id: 149, cut_id: 50, job_id: 26, pos_in_job: 2, op_type: 1),
  (op_id: 150, cut_id: 50, job_id: 26, pos_in_job: 3, op_type: 2),
  (op_id: 151, cut_id: 51, job_id: 26, pos_in_job: 4, op_type: 0),
  (op_id: 152, cut_id: 51, job_id: 26, pos_in_job: 5, op_type: 1),
  (op_id: 153, cut_id: 51, job_id: 26, pos_in_job: 6, op_type: 2),
  (op_id: 154, cut_id: 52, job_id: 27, pos_in_job: 1, op_type: 0),
  (op_id: 155, cut_id: 52, job_id: 27, pos_in_job: 2, op_type: 1),
  (op_id: 156, cut_id: 52, job_id: 27, pos_in_job: 3, op_type: 2),
  (op_id: 157, cut_id: 53, job_id: 27, pos_in_job: 4, op_type: 0),
  (op_id: 158, cut_id: 53, job_id: 27, pos_in_job: 5, op_type: 1),
  (op_id: 159, cut_id: 53, job_id: 27, pos_in_job: 6, op_type: 2),
  (op_id: 160, cut_id: 54, job_id: 28, pos_in_job: 1, op_type: 0),
  (op_id: 161, cut_id: 54, job_id: 28, pos_in_job: 2, op_type: 1),
  (op_id: 162, cut_id: 54, job_id: 28, pos_in_job: 3, op_type: 2),
  (op_id: 163, cut_id: 55, job_id: 28, pos_in_job: 4, op_type: 0),
  (op_id: 164, cut_id: 55, job_id: 28, pos_in_job: 5, op_type: 1),
  (op_id: 165, cut_id: 55, job_id: 28, pos_in_job: 6, op_type: 2),
  (op_id: 166, cut_id: 56, job_id: 28, pos_in_job: 7, op_type: 0),
  (op_id: 167, cut_id: 56, job_id: 28, pos_in_job: 8, op_type: 1),
  (op_id: 168, cut_id: 56, job_id: 28, pos_in_job: 9, op_type: 2),
  (op_id: 169, cut_id: 57, job_id: 29, pos_in_job: 1, op_type: 0),
  (op_id: 170, cut_id: 57, job_id: 29, pos_in_job: 2, op_type: 1),
  (op_id: 171, cut_id: 57, job_id: 29, pos_in_job: 3, op_type: 2),
  (op_id: 172, cut_id: 58, job_id: 29, pos_in_job: 4, op_type: 0),
  (op_id: 173, cut_id: 58, job_id: 29, pos_in_job: 5, op_type: 1),
  (op_id: 174, cut_id: 58, job_id: 29, pos_in_job: 6, op_type: 2),
  (op_id: 175, cut_id: 59, job_id: 30, pos_in_job: 1, op_type: 0),
  (op_id: 176, cut_id: 59, job_id: 30, pos_in_job: 2, op_type: 1),
  (op_id: 177, cut_id: 59, job_id: 30, pos_in_job: 3, op_type: 2),
  (op_id: 178, cut_id: 60, job_id: 30, pos_in_job: 4, op_type: 0),
  (op_id: 179, cut_id: 60, job_id: 30, pos_in_job: 5, op_type: 1),
  (op_id: 180, cut_id: 60, job_id: 30, pos_in_job: 6, op_type: 2),
  (op_id: 181, cut_id: 61, job_id: 30, pos_in_job: 7, op_type: 0),
  (op_id: 182, cut_id: 61, job_id: 30, pos_in_job: 8, op_type: 1),
  (op_id: 183, cut_id: 61, job_id: 30, pos_in_job: 9, op_type: 2),
  (op_id: 184, cut_id: 62, job_id: 31, pos_in_job: 1, op_type: 0),
  (op_id: 185, cut_id: 62, job_id: 31, pos_in_job: 2, op_type: 1),
  (op_id: 186, cut_id: 62, job_id: 31, pos_in_job: 3, op_type: 2),
  (op_id: 187, cut_id: 63, job_id: 31, pos_in_job: 4, op_type: 0),
  (op_id: 188, cut_id: 63, job_id: 31, pos_in_job: 5, op_type: 1),
  (op_id: 189, cut_id: 63, job_id: 31, pos_in_job: 6, op_type: 2),
  (op_id: 190, cut_id: 64, job_id: 32, pos_in_job: 1, op_type: 0),
  (op_id: 191, cut_id: 64, job_id: 32, pos_in_job: 2, op_type: 1),
  (op_id: 192, cut_id: 64, job_id: 32, pos_in_job: 3, op_type: 2),
  (op_id: 193, cut_id: 65, job_id: 32, pos_in_job: 4, op_type: 0),
  (op_id: 194, cut_id: 65, job_id: 32, pos_in_job: 5, op_type: 1),
  (op_id: 195, cut_id: 65, job_id: 32, pos_in_job: 6, op_type: 2),
  (op_id: 196, cut_id: 66, job_id: 33, pos_in_job: 1, op_type: 0),
  (op_id: 197, cut_id: 66, job_id: 33, pos_in_job: 2, op_type: 1),
  (op_id: 198, cut_id: 66, job_id: 33, pos_in_job: 3, op_type: 2),
  (op_id: 199, cut_id: 67, job_id: 34, pos_in_job: 1, op_type: 0),
  (op_id: 200, cut_id: 67, job_id: 34, pos_in_job: 2, op_type: 1),
  (op_id: 201, cut_id: 67, job_id: 34, pos_in_job: 3, op_type: 2),
  (op_id: 202, cut_id: 68, job_id: 34, pos_in_job: 4, op_type: 0),
  (op_id: 203, cut_id: 68, job_id: 34, pos_in_job: 5, op_type: 1),
  (op_id: 204, cut_id: 68, job_id: 34, pos_in_job: 6, op_type: 2),
  (op_id: 205, cut_id: 69, job_id: 34, pos_in_job: 7, op_type: 0),
  (op_id: 206, cut_id: 69, job_id: 34, pos_in_job: 8, op_type: 1),
  (op_id: 207, cut_id: 69, job_id: 34, pos_in_job: 9, op_type: 2),
  (op_id: 208, cut_id: 70, job_id: 35, pos_in_job: 1, op_type: 0),
  (op_id: 209, cut_id: 70, job_id: 35, pos_in_job: 2, op_type: 1),
  (op_id: 210, cut_id: 70, job_id: 35, pos_in_job: 3, op_type: 2),
  (op_id: 211, cut_id: 71, job_id: 35, pos_in_job: 4, op_type: 0),
  (op_id: 212, cut_id: 71, job_id: 35, pos_in_job: 5, op_type: 1),
  (op_id: 213, cut_id: 71, job_id: 35, pos_in_job: 6, op_type: 2),
  (op_id: 214, cut_id: 72, job_id: 36, pos_in_job: 1, op_type: 0),
  (op_id: 215, cut_id: 72, job_id: 36, pos_in_job: 2, op_type: 1),
  (op_id: 216, cut_id: 72, job_id: 36, pos_in_job: 3, op_type: 2),
  (op_id: 217, cut_id: 73, job_id: 37, pos_in_job: 1, op_type: 0),
  (op_id: 218, cut_id: 73, job_id: 37, pos_in_job: 2, op_type: 1),
  (op_id: 219, cut_id: 73, job_id: 37, pos_in_job: 3, op_type: 2),
  (op_id: 220, cut_id: 74, job_id: 38, pos_in_job: 1, op_type: 0),
  (op_id: 221, cut_id: 74, job_id: 38, pos_in_job: 2, op_type: 1),
  (op_id: 222, cut_id: 74, job_id: 38, pos_in_job: 3, op_type: 2),
  (op_id: 223, cut_id: 75, job_id: 38, pos_in_job: 4, op_type: 0),
  (op_id: 224, cut_id: 75, job_id: 38, pos_in_job: 5, op_type: 1),
  (op_id: 225, cut_id: 75, job_id: 38, pos_in_job: 6, op_type: 2),
  (op_id: 226, cut_id: 76, job_id: 38, pos_in_job: 7, op_type: 0),
  (op_id: 227, cut_id: 76, job_id: 38, pos_in_job: 8, op_type: 1),
  (op_id: 228, cut_id: 76, job_id: 38, pos_in_job: 9, op_type: 2),
  (op_id: 229, cut_id: 77, job_id: 39, pos_in_job: 1, op_type: 0),
  (op_id: 230, cut_id: 77, job_id: 39, pos_in_job: 2, op_type: 1),
  (op_id: 231, cut_id: 77, job_id: 39, pos_in_job: 3, op_type: 2),
  (op_id: 232, cut_id: 78, job_id: 40, pos_in_job: 1, op_type: 0),
  (op_id: 233, cut_id: 78, job_id: 40, pos_in_job: 2, op_type: 1),
  (op_id: 234, cut_id: 78, job_id: 40, pos_in_job: 3, op_type: 2),
  (op_id: 235, cut_id: 79, job_id: 40, pos_in_job: 4, op_type: 0),
  (op_id: 236, cut_id: 79, job_id: 40, pos_in_job: 5, op_type: 1),
  (op_id: 237, cut_id: 79, job_id: 40, pos_in_job: 6, op_type: 2),
  (op_id: 238, cut_id: 80, job_id: 41, pos_in_job: 1, op_type: 0),
  (op_id: 239, cut_id: 80, job_id: 41, pos_in_job: 2, op_type: 1),
  (op_id: 240, cut_id: 80, job_id: 41, pos_in_job: 3, op_type: 2),
  (op_id: 241, cut_id: 81, job_id: 42, pos_in_job: 1, op_type: 0),
  (op_id: 242, cut_id: 81, job_id: 42, pos_in_job: 2, op_type: 1),
  (op_id: 243, cut_id: 81, job_id: 42, pos_in_job: 3, op_type: 2),
  (op_id: 244, cut_id: 82, job_id: 42, pos_in_job: 4, op_type: 0),
  (op_id: 245, cut_id: 82, job_id: 42, pos_in_job: 5, op_type: 1),
  (op_id: 246, cut_id: 82, job_id: 42, pos_in_job: 6, op_type: 2),
  (op_id: 247, cut_id: 83, job_id: 43, pos_in_job: 1, op_type: 0),
  (op_id: 248, cut_id: 83, job_id: 43, pos_in_job: 2, op_type: 1),
  (op_id: 249, cut_id: 83, job_id: 43, pos_in_job: 3, op_type: 2),
  (op_id: 250, cut_id: 84, job_id: 43, pos_in_job: 4, op_type: 0),
  (op_id: 251, cut_id: 84, job_id: 43, pos_in_job: 5, op_type: 1),
  (op_id: 252, cut_id: 84, job_id: 43, pos_in_job: 6, op_type: 2),
  (op_id: 253, cut_id: 85, job_id: 44, pos_in_job: 1, op_type: 0),
  (op_id: 254, cut_id: 85, job_id: 44, pos_in_job: 2, op_type: 1),
  (op_id: 255, cut_id: 85, job_id: 44, pos_in_job: 3, op_type: 2),
  (op_id: 256, cut_id: 86, job_id: 45, pos_in_job: 1, op_type: 0),
  (op_id: 257, cut_id: 86, job_id: 45, pos_in_job: 2, op_type: 1),
  (op_id: 258, cut_id: 86, job_id: 45, pos_in_job: 3, op_type: 2),
  (op_id: 259, cut_id: 87, job_id: 45, pos_in_job: 4, op_type: 0),
  (op_id: 260, cut_id: 87, job_id: 45, pos_in_job: 5, op_type: 1),
  (op_id: 261, cut_id: 87, job_id: 45, pos_in_job: 6, op_type: 2),
  (op_id: 262, cut_id: 88, job_id: 45, pos_in_job: 7, op_type: 0),
  (op_id: 263, cut_id: 88, job_id: 45, pos_in_job: 8, op_type: 1),
  (op_id: 264, cut_id: 88, job_id: 45, pos_in_job: 9, op_type: 2),
  (op_id: 265, cut_id: 89, job_id: 45, pos_in_job: 10, op_type: 0),
  (op_id: 266, cut_id: 89, job_id: 45, pos_in_job: 11, op_type: 1),
  (op_id: 267, cut_id: 89, job_id: 45, pos_in_job: 12, op_type: 2),
  (op_id: 268, cut_id: 90, job_id: 46, pos_in_job: 1, op_type: 0),
  (op_id: 269, cut_id: 90, job_id: 46, pos_in_job: 2, op_type: 1),
  (op_id: 270, cut_id: 90, job_id: 46, pos_in_job: 3, op_type: 2),
  (op_id: 271, cut_id: 91, job_id: 46, pos_in_job: 4, op_type: 0),
  (op_id: 272, cut_id: 91, job_id: 46, pos_in_job: 5, op_type: 1),
  (op_id: 273, cut_id: 91, job_id: 46, pos_in_job: 6, op_type: 2),
  (op_id: 274, cut_id: 92, job_id: 47, pos_in_job: 1, op_type: 0),
  (op_id: 275, cut_id: 92, job_id: 47, pos_in_job: 2, op_type: 1),
  (op_id: 276, cut_id: 92, job_id: 47, pos_in_job: 3, op_type: 2),
  (op_id: 277, cut_id: 93, job_id: 47, pos_in_job: 4, op_type: 0),
  (op_id: 278, cut_id: 93, job_id: 47, pos_in_job: 5, op_type: 1),
  (op_id: 279, cut_id: 93, job_id: 47, pos_in_job: 6, op_type: 2),
  (op_id: 280, cut_id: 94, job_id: 47, pos_in_job: 7, op_type: 0),
  (op_id: 281, cut_id: 94, job_id: 47, pos_in_job: 8, op_type: 1),
  (op_id: 282, cut_id: 94, job_id: 47, pos_in_job: 9, op_type: 2),
  (op_id: 283, cut_id: 95, job_id: 47, pos_in_job: 10, op_type: 0),
  (op_id: 284, cut_id: 95, job_id: 47, pos_in_job: 11, op_type: 1),
  (op_id: 285, cut_id: 95, job_id: 47, pos_in_job: 12, op_type: 2),
  (op_id: 286, cut_id: 96, job_id: 47, pos_in_job: 13, op_type: 0),
  (op_id: 287, cut_id: 96, job_id: 47, pos_in_job: 14, op_type: 1),
  (op_id: 288, cut_id: 96, job_id: 47, pos_in_job: 15, op_type: 2),
  (op_id: 289, cut_id: 97, job_id: 48, pos_in_job: 1, op_type: 0),
  (op_id: 290, cut_id: 97, job_id: 48, pos_in_job: 2, op_type: 1),
  (op_id: 291, cut_id: 97, job_id: 48, pos_in_job: 3, op_type: 2),
  (op_id: 292, cut_id: 98, job_id: 49, pos_in_job: 1, op_type: 0),
  (op_id: 293, cut_id: 98, job_id: 49, pos_in_job: 2, op_type: 1),
  (op_id: 294, cut_id: 98, job_id: 49, pos_in_job: 3, op_type: 2),
  (op_id: 295, cut_id: 99, job_id: 49, pos_in_job: 4, op_type: 0),
  (op_id: 296, cut_id: 99, job_id: 49, pos_in_job: 5, op_type: 1),
  (op_id: 297, cut_id: 99, job_id: 49, pos_in_job: 6, op_type: 2),
  (op_id: 298, cut_id: 100, job_id: 50, pos_in_job: 1, op_type: 0),
  (op_id: 299, cut_id: 100, job_id: 50, pos_in_job: 2, op_type: 1),
  (op_id: 300, cut_id: 100, job_id: 50, pos_in_job: 3, op_type: 2)
];

% --- setup_times
% fields: ('op_id', 'time')
setup_times = [
  (op_id: 1, time: 4),
  (op_id: 3, time: 4),
  (op_id: 4, time: 4),
  (op_id: 6, time: 4),
  (op_id: 7, time: 4),
  (op_id: 9, time: 4),
  (op_id: 10, time: 4),
  (op_id: 12, time: 4),
  (op_id: 13, time: 4),
  (op_id: 15, time: 4),
  (op_id: 16, time: 8),
  (op_id: 18, time: 8),
  (op_id: 19, time: 8),
  (op_id: 21, time: 8),
  (op_id: 22, time: 8),
  (op_id: 24, time: 8),
  (op_id: 25, time: 4),
  (op_id: 27, time: 4),
  (op_id: 28, time: 8),
  (op_id: 30, time: 8),
  (op_id: 31, time: 8),
  (op_id: 33, time: 8),
  (op_id: 34, time: 4),
  (op_id: 36, time: 4),
  (op_id: 37, time: 4),
  (op_id: 39, time: 4),
  (op_id: 40, time: 8),
  (op_id: 42, time: 8),
  (op_id: 43, time: 8),
  (op_id: 45, time: 8),
  (op_id: 46, time: 8),
  (op_id: 48, time: 8),
  (op_id: 49, time: 8),
  (op_id: 51, time: 8),
  (op_id: 52, time: 8),
  (op_id: 54, time: 8),
  (op_id: 55, time: 4),
  (op_id: 57, time: 4),
  (op_id: 58, time: 4),
  (op_id: 60, time: 4),
  (op_id: 61, time: 4),
  (op_id: 63, time: 4),
  (op_id: 64, time: 8),
  (op_id: 66, time: 8),
  (op_id: 67, time: 8),
  (op_id: 69, time: 8),
  (op_id: 70, time: 8),
  (op_id: 72, time: 8),
  (op_id: 73, time: 8),
  (op_id: 75, time: 8),
  (op_id: 76, time: 4),
  (op_id: 78, time: 4),
  (op_id: 79, time: 8),
  (op_id: 81, time: 8),
  (op_id: 82, time: 8),
  (op_id: 84, time: 8),
  (op_id: 85, time: 4),
  (op_id: 87, time: 4),
  (op_id: 88, time: 4),
  (op_id: 90, time: 4),
  (op_id: 91, time: 8),
  (op_id: 93, time: 8),
  (op_id: 94, time: 8),
  (op_id: 96, time: 8),
  (op_id: 97, time: 4),
  (op_id: 99, time: 4),
  (op_id: 100, time: 8),
  (op_id: 102, time: 8),
  (op_id: 103, time: 8),
  (op_id: 105, time: 8),
  (op_id: 106, time: 4),
  (op_id: 108, time: 4),
  (op_id: 109, time: 4),
  (op_id: 111, time: 4),
  (op_id: 112, time: 8),
  (op_id: 114, time: 8),
  (op_id: 115, time: 8),
  (op_id: 117, time: 8),
  (op_id: 118, time: 8),
  (op_id: 120, time: 8),
  (op_id: 121, time: 8),
  (op_id: 123, time: 8),
  (op_id: 124, time: 4),
  (op_id: 126, time: 4),
  (op_id: 127, time: 4),
  (op_id: 129, time: 4),
  (op_id: 130, time: 8),
  (op_id: 132, time: 8),
  (op_id: 133, time: 8),
  (op_id: 135, time: 8),
  (op_id: 136, time: 4),
  (op_id: 138, time: 4),
  (op_id: 139, time: 4),
  (op_id: 141, time: 4),
  (op_id: 142, time: 8),
  (op_id: 144, time: 8),
  (op_id: 145, time: 4),
  (op_id: 147, time: 4),
  (op_id: 148, time: 8),
  (op_id: 150, time: 8),
  (op_id: 151, time: 8),
  (op_id: 153, time: 8),
  (op_id: 154, time: 8),
  (op_id: 156, time: 8),
  (op_id: 157, time: 8),
  (op_id: 159, time: 8),
  (op_id: 160, time: 8),
  (op_id: 162, time: 8),
  (op_id: 163, time: 8),
  (op_id: 165, time: 8),
  (op_id: 166, time: 8),
  (op_id: 168, time: 8),
  (op_id: 169, time: 4),
  (op_id: 171, time: 4),
  (op_id: 172, time: 4),
  (op_id: 174, time: 4),
  (op_id: 175, time: 4),
  (op_id: 177, time: 4),
  (op_id: 178, time: 4),
  (op_id: 180, time: 4),
  (op_id: 181, time: 4),
  (op_id: 183, time: 4),
  (op_id: 184, time: 8),
  (op_id: 186, time: 8),
  (op_id: 187, time: 8),
  (op_id: 189, time: 8),
  (op_id: 190, time: 8),
  (op_id: 192, time: 8),
  (op_id: 193, time: 8),
  (op_id: 195, time: 8),
  (op_id: 196, time: 4),
  (op_id: 198, time: 4),
  (op_id: 199, time: 8),
  (op_id: 201, time: 8),
  (op_id: 202, time: 8),
  (op_id: 204, time: 8),
  (op_id: 205, time: 8),
  (op_id: 207, time: 8),
  (op_id: 208, time: 8),
  (op_id: 210, time: 8),
  (op_id: 211, time: 4),
  (op_id: 213, time: 4),
  (op_id: 214, time: 8),
  (op_id: 216, time: 8),
  (op_id: 217, time: 8),
  (op_id: 219, time: 8),
  (op_id: 220, time: 8),
  (op_id: 222, time: 8),
  (op_id: 223, time: 8),
  (op_id: 225, time: 8),
  (op_id: 226, time: 4),
  (op_id: 228, time: 4),
  (op_id: 229, time: 8),
  (op_id: 231, time: 8),
  (op_id: 232, time: 8),
  (op_id: 234, time: 8),
  (op_id: 235, time: 8),
  (op_id: 237, time: 8),
  (op_id: 238, time: 8),
  (op_id: 240, time: 8),
  (op_id: 241, time: 4),
  (op_id: 243, time: 4),
  (op_id: 244, time: 4),
  (op_id: 246, time: 4),
  (op_id: 247, time: 8),
  (op_id: 249, time: 8),
  (op_id: 250, time: 8),
  (op_id: 252, time: 8),
  (op_id: 253, time: 4),
  (op_id: 255, time: 4),
  (op_id: 256, time: 8),
  (op_id: 258, time: 8),
  (op_id: 259, time: 4),
  (op_id: 261, time: 4),
  (op_id: 262, time: 4),
  (op_id: 264, time: 4),
  (op_id: 265, time: 4),
  (op_id: 267, time: 4),
  (op_id: 268, time: 8),
  (op_id: 270, time: 8),
  (op_id: 271, time: 4),
  (op_id: 273, time: 4),
  (op_id: 274, time: 4),
  (op_id: 276, time: 4),
  (op_id: 277, time: 4),
  (op_id: 279, time: 4),
  (op_id: 280, time: 4),
  (op_id: 282, time: 4),
  (op_id: 283, time: 4),
  (op_id: 285, time: 4),
  (op_id: 286, time: 4),
  (op_id: 288, time: 4),
  (op_id: 289, time: 8),
  (op_id: 291, time: 8),
  (op_id: 292, time: 4),
  (op_id: 294, time: 4),
  (op_id: 295, time: 4),
  (op_id: 297, time: 4),
  (op_id: 298, time: 8),
  (op_id: 300, time: 8)
];

% --- transport_times
% fields: ('op_id_from', 'op_id_to', 'time')
transport_times = [
  (op_id_from: 3, op_id_to: 4, time: 2),
  (op_id_from: 6, op_id_to: 7, time: 2),
  (op_id_from: 12, op_id_to: 13, time: 2),
  (op_id_from: 18, op_id_to: 19, time: 10),
  (op_id_from: 21, op_id_to: 22, time: 5),
  (op_id_from: 30, op_id_to: 31, time: 10),
  (op_id_from: 36, op_id_to: 37, time: 5),
  (op_id_from: 42, op_id_to: 43, time: 10),
  (op_id_from: 48, op_id_to: 49, time: 10),
  (op_id_from: 57, op_id_to: 58, time: 2),
  (op_id_from: 60, op_id_to: 61, time: 2),
  (op_id_from: 69, op_id_to: 70, time: 10),
  (op_id_from: 81, op_id_to: 82, time: 10),
  (op_id_from: 84, op_id_to: 85, time: 5),
  (op_id_from: 87, op_id_to: 88, time: 2),
  (op_id_from: 96, op_id_to: 97, time: 10),
  (op_id_from: 102, op_id_to: 103, time: 10),
  (op_id_from: 108, op_id_to: 109, time: 2),
  (op_id_from: 114, op_id_to: 115, time: 10),
  (op_id_from: 120, op_id_to: 121, time: 10),
  (op_id_from: 123, op_id_to: 124, time: 5),
  (op_id_from: 126, op_id_to: 127, time: 5),
  (op_id_from: 132, op_id_to: 133, time: 10),
  (op_id_from: 144, op_id_to: 145, time: 10),
  (op_id_from: 150, op_id_to: 151, time: 10),
  (op_id_from: 156, op_id_to: 157, time: 10),
  (op_id_from: 162, op_id_to: 163, time: 10),
  (op_id_from: 165, op_id_to: 166, time: 10),
  (op_id_from: 171, op_id_to: 172, time: 5),
  (op_id_from: 177, op_id_to: 178, time: 2),
  (op_id_from: 180, op_id_to: 181, time: 2),
  (op_id_from: 186, op_id_to: 187, time: 10),
  (op_id_from: 192, op_id_to: 193, time: 10),
  (op_id_from: 201, op_id_to: 202, time: 10),
  (op_id_from: 204, op_id_to: 205, time: 10),
  (op_id_from: 210, op_id_to: 211, time: 10),
  (op_id_from: 222, op_id_to: 223, time: 10),
  (op_id_from: 225, op_id_to: 226, time: 5),
  (op_id_from: 234, op_id_to: 235, time: 10),
  (op_id_from: 243, op_id_to: 244, time: 2),
  (op_id_from: 249, op_id_to: 250, time: 10),
  (op_id_from: 258, op_id_to: 259, time: 5),
  (op_id_from: 261, op_id_to: 262, time: 5),
  (op_id_from: 264, op_id_to: 265, time: 2),
  (op_id_from: 270, op_id_to: 271, time: 5),
  (op_id_from: 276, op_id_to: 277, time: 5),
  (op_id_from: 279, op_id_to: 280, time: 5),
  (op_id_from: 282, op_id_to: 283, time: 5),
  (op_id_from: 285, op_id_to: 286, time: 5),
  (op_id_from: 294, op_id_to: 295, time: 5)
];

% --- workers_machines
% fields: ('worker_id', 'machine_id')
workers_machines = [
  (worker_id: 1, machine_id: 1),
  (worker_id: 1, machine_id: 2),
  (worker_id: 1, machine_id: 3)
];
