days = 42;
roads = 5;
centers = 1;
worksheets = 3;
activities = 9;
perterb = array2d(ROAD0,DAY,[0, 0, 0, 0, 0, 0, 0, 0, 0, 0, 0, 0, 0, 0, 0, 0, 0, 0, 0, 0, 0, 0, 0, 0, 0, 0, 0, 0, 0, 0, 0, 0, 0, 0, 0, 0, 0, 0, 0, 0, 0, 0, 39, 39, 39, 39, 39, 39, 39, 39, 39, 39, 39, 39, 39, 39, 39, 39, 39, 39, 39, 39, 39, 39, 39, 39, 39, 39, 39, 39, 39, 39, 39, 39, 39, 39, 39, 39, 39, 39, 39, 39, 39, 39, 31, 31, 31, 31, 31, 31, 31, 31, 31, 31, 31, 31, 31, 31, 31, 31, 31, 31, 31, 31, 31, 31, 31, 31, 31, 31, 31, 31, 31, 31, 31, 31, 31, 31, 31, 31, 31, 31, 31, 31, 31, 31, 24, 24, 24, 24, 24, 24, 24, 24, 24, 24, 24, 24, 24, 24, 24, 24, 24, 24, 24, 24, 24, 24, 24, 24, 24, 24, 24, 24, 24, 24, 24, 24, 24, 24, 24, 24, 24, 24, 24, 24, 24, 24, 23, 23, 23, 23, 23, 23, 23, 23, 23, 23, 23, 23, 23, 23, 23, 23, 23, 23, 23, 23, 23, 23, 23, 23, 23, 23, 23, 23, 23, 23, 23, 23, 23, 23, 23, 23, 23, 23, 23, 23, 23, 23, 25, 25, 25, 25, 25, 25, 25, 25, 25, 25, 25, 25, 25, 25, 25, 25, 25, 25, 25, 25, 25, 25, 25, 25, 25, 25, 25, 25, 25, 25, 25, 25, 25, 25, 25, 25, 25, 25, 25, 25, 25, 25]);
c_id = array1d(CENTER,[0]);
available_workers = array1d(CENTER,[117]);
w_id = array1d(WORKSHEET,[0, 1, 2]);
work_center = array1d(WORKSHEET,[0, 0, 0]);
mandatory = array1d(WORKSHEET,[0, 0, 0]);
importance = array1d(WORKSHEET,[94, 55, 15]);
est = array1d(WORKSHEET,[0, 0, 0]);
lst = array1d(WORKSHEET,[39, 39, 39]);
duration = array1d(WORKSHEET,[3, 3, 3]);
road = array2d(WORKSHEET,ACTIVITY,[0, 3, 3, -1, -1, -1, -1, -1, -1, 1, 2, 1, -1, -1, -1, -1, -1, -1, 2, 1, 0, -1, -1, -1, -1, -1, -1]);
workers = array2d(WORKSHEET,ACTIVITY,[8, 8, 17, 0, 0, 0, 0, 0, 0, 19, 13, 20, 0, 0, 0, 0, 0, 0, 6, 7, 16, 0, 0, 0, 0, 0, 0]);
blocked_max = 0;
blocked_max_amount = [];
blocked_roads = [];
precedences = 1;
preceeds = [1];
succeeds = [2];
