n_nodes = 180;
M = 100;
n_domains = 10;
domain_link_weights = [|0,17,24,73,19,18,19,17,37,33|17,0,10,59,15,74,6,50,82,31|24,10,0,57,96,85,94,27,16,43|73,59,57,0,21,94,23,74,22,46|19,15,96,21,0,99,19,96,34,70|18,74,85,94,99,0,53,57,82,54|19,6,94,23,19,53,0,88,39,77|17,50,27,74,96,57,88,0,44,85|37,82,16,22,34,82,39,44,0,48|33,31,43,46,70,54,77,85,48,0|];
num_node_links = 430;
node_links = [|15,9|9,15|15,10|10,15|15,27|27,15|15,31|31,15|15,37|37,15|15,54|54,15|15,58|58,15|15,72|72,15|15,91|91,15|15,92|92,15|15,103|103,15|15,112|112,15|15,126|126,15|15,127|127,15|15,167|167,15|15,172|172,15|15,175|175,15|55,21|21,55|55,42|42,55|55,45|45,55|55,65|65,55|55,66|66,55|55,75|75,55|55,81|81,55|55,102|102,55|55,116|116,55|55,135|135,55|55,145|145,55|55,153|153,55|55,165|165,55|55,174|174,55|69,3|3,69|69,17|17,69|69,23|23,69|69,33|33,69|69,36|36,69|69,56|56,69|69,70|70,69|69,83|83,69|69,100|100,69|69,105|105,69|69,117|117,69|69,129|129,69|69,131|131,69|69,138|138,69|69,140|140,69|69,155|155,69|69,162|162,69|90,6|6,90|90,12|12,90|90,30|30,90|90,46|46,90|90,47|47,90|90,48|48,90|90,74|74,90|90,79|79,90|90,87|87,90|90,93|93,90|90,96|96,90|90,104|104,90|90,106|106,90|90,107|107,90|90,110|110,90|90,121|121,90|90,136|136,90|90,142|142,90|90,143|143,90|90,166|166,90|90,176|176,90|90,177|177,90|90,178|178,90|109,4|4,109|109,11|11,109|109,22|22,109|109,26|26,109|109,43|43,109|109,67|67,109|109,73|73,109|109,88|88,109|109,94|94,109|109,119|119,109|109,124|124,109|109,154|154,109|144,5|5,144|144,8|8,144|144,18|18,144|144,24|24,144|144,25|25,144|144,39|39,144|144,51|51,144|144,57|57,144|144,61|61,144|144,80|80,144|144,82|82,144|144,114|114,144|144,134|134,144|144,146|146,144|144,163|163,144|147,1|1,147|147,16|16,147|147,29|29,147|147,32|32,147|147,34|34,147|147,53|53,147|147,64|64,147|147,76|76,147|147,77|77,147|147,85|85,147|147,108|108,147|147,118|118,147|147,130|130,147|147,141|141,147|147,152|152,147|147,156|156,147|147,157|157,147|147,158|158,147|147,159|159,147|147,161|161,147|164,35|35,164|164,44|44,164|164,49|49,164|164,50|50,164|164,59|59,164|164,95|95,164|164,101|101,164|164,111|111,164|164,113|113,164|164,120|120,164|164,128|128,164|164,137|137,164|164,149|149,164|164,151|151,164|164,169|169,164|164,180|180,164|168,7|7,168|168,14|14,168|168,19|19,168|168,41|41,168|168,78|78,168|168,89|89,168|168,97|97,168|168,98|98,168|168,122|122,168|168,123|123,168|168,125|125,168|168,133|133,168|168,139|139,168|168,160|160,168|168,173|173,168|179,2|2,179|179,13|13,179|179,20|20,179|179,28|28,179|179,38|38,179|179,40|40,179|179,52|52,179|179,60|60,179|179,62|62,179|179,63|63,179|179,68|68,179|179,71|71,179|179,84|84,179|179,86|86,179|179,99|99,179|179,115|115,179|179,132|132,179|179,148|148,179|179,150|150,179|179,170|170,179|179,171|171,179|15,55|15,69|15,90|15,109|15,144|15,147|15,164|15,168|15,179|55,15|55,69|55,90|55,109|55,144|55,147|55,164|55,168|55,179|69,15|69,55|69,90|69,109|69,144|69,147|69,164|69,168|69,179|90,15|90,55|90,69|90,109|90,144|90,147|90,164|90,168|90,179|109,15|109,55|109,69|109,90|109,144|109,147|109,164|109,168|109,179|144,15|144,55|144,69|144,90|144,109|144,147|144,164|144,168|144,179|147,15|147,55|147,69|147,90|147,109|147,144|147,164|147,168|147,179|164,15|164,55|164,69|164,90|164,109|164,144|164,147|164,168|164,179|168,15|168,55|168,69|168,90|168,109|168,144|168,147|168,164|168,179|179,15|179,55|179,69|179,90|179,109|179,144|179,147|179,164|179,168|];
nodes = [|1,10,0,0,0,0,1,4|2,2,0,0,0,0,1,6|3,1,0,0,0,0,1,7|4,10,0,0,0,0,1,5|5,1,0,0,0,0,1,3|6,1,0,0,0,0,1,8|7,3,0,0,0,0,1,1|8,5,0,0,0,0,1,3|9,1,0,0,0,0,1,2|10,3,0,0,0,0,1,2|11,1,0,0,0,0,1,5|12,1,0,0,0,0,1,8|13,10,0,0,0,0,1,6|14,10,0,0,0,0,1,1|15,9,0,0,0,0,1,2|16,1,0,0,0,0,1,4|17,4,0,0,0,0,1,7|18,1,0,0,0,0,1,3|19,5,0,0,0,0,1,1|20,5,0,0,0,0,1,6|21,3,0,0,0,0,1,9|22,1,0,0,0,0,1,5|23,3,0,0,0,0,1,7|24,10,0,0,0,0,1,3|25,2,0,0,0,0,1,3|26,3,0,0,0,0,1,5|27,1,0,0,0,0,1,2|28,4,0,0,0,0,1,6|29,1,0,0,0,0,1,4|30,1,0,0,0,0,1,8|31,4,0,0,0,0,1,2|32,4,0,0,0,0,1,4|33,2,0,0,0,0,1,7|34,5,0,0,0,0,1,4|35,2,0,0,0,0,1,10|36,1,0,0,0,0,1,7|37,1,0,0,0,0,1,2|38,2,0,0,0,0,1,6|39,2,0,0,0,0,1,3|40,1,0,0,0,0,1,6|41,3,0,0,0,0,1,1|42,10,0,0,0,0,1,9|43,2,0,0,0,0,1,5|44,2,0,0,0,0,1,10|45,4,0,0,0,0,1,9|46,1,0,0,0,0,1,8|47,2,0,0,0,0,1,8|48,5,0,0,0,0,1,8|49,4,0,0,0,0,1,10|50,3,0,0,0,0,1,10|51,5,0,0,0,0,1,3|52,3,0,0,0,0,1,6|53,5,0,0,0,0,1,4|54,1,0,0,0,0,1,2|55,9,0,0,0,0,1,9|56,2,0,0,0,0,1,7|57,3,0,0,0,0,1,3|58,1,0,0,0,0,1,2|59,4,0,0,0,0,1,10|60,1,0,0,0,0,1,6|61,5,0,0,0,0,1,3|62,2,0,0,0,0,1,6|63,3,0,0,0,0,1,6|64,5,0,0,0,0,1,4|65,1,0,0,0,0,1,9|66,5,0,0,0,0,1,9|67,3,0,0,0,0,1,5|68,2,0,0,0,0,1,6|69,9,0,0,0,0,1,7|70,3,0,0,0,0,1,7|71,3,0,0,0,0,1,6|72,3,0,0,0,0,1,2|73,4,0,0,0,0,1,5|74,5,0,0,0,0,1,8|75,4,0,0,0,0,1,9|76,2,0,0,0,0,1,4|77,5,0,0,0,0,1,4|78,4,0,0,0,0,1,1|79,10,0,0,0,0,1,8|80,4,0,0,0,0,1,3|81,1,0,0,0,0,1,9|82,5,0,0,0,0,1,3|83,3,0,0,0,0,1,7|84,2,0,0,0,0,1,6|85,2,0,0,0,0,1,4|86,3,0,0,0,0,1,6|87,4,0,0,0,0,1,8|88,2,0,0,0,0,1,5|89,5,0,0,0,0,1,1|90,9,0,0,0,0,1,8|91,4,0,0,0,0,1,2|92,10,0,0,0,0,1,2|93,2,0,0,0,0,1,8|94,1,0,0,0,0,1,5|95,5,0,0,0,0,1,10|96,4,0,0,0,0,1,8|97,1,0,0,0,0,1,1|98,3,0,0,0,0,1,1|99,2,0,0,0,0,1,6|100,10,0,0,0,0,1,7|101,4,0,0,0,0,1,10|102,5,0,0,0,0,1,9|103,1,0,0,0,0,1,2|104,4,0,0,0,0,1,8|105,3,0,0,0,0,1,7|106,4,0,0,0,0,1,8|107,4,0,0,0,0,1,8|108,1,0,0,0,0,1,4|109,9,0,0,0,0,1,5|110,3,0,0,0,0,1,8|111,2,0,0,0,0,1,10|112,4,0,0,0,0,1,2|113,10,0,0,0,0,1,10|114,1,0,0,0,0,1,3|115,2,0,0,0,0,1,6|116,1,0,0,0,0,1,9|117,5,0,0,0,0,1,7|118,1,0,0,0,0,1,4|119,1,0,0,0,0,1,5|120,3,0,0,0,0,1,10|121,2,0,0,0,0,1,8|122,5,0,0,0,0,1,1|123,3,0,0,0,0,1,1|124,4,0,0,0,0,1,5|125,4,0,0,0,0,1,1|126,1,0,0,0,0,1,2|127,1,0,0,0,0,1,2|128,3,0,0,0,0,1,10|129,2,0,0,0,0,1,7|130,3,0,0,0,0,1,4|131,5,0,0,0,0,1,7|132,4,0,0,0,0,1,6|133,4,0,0,0,0,1,1|134,2,0,0,0,0,1,3|135,2,0,0,0,0,1,9|136,3,0,0,0,0,1,8|137,3,0,0,0,0,1,10|138,1,0,0,0,0,1,7|139,4,0,0,0,0,1,1|140,5,0,0,0,0,1,7|141,1,0,0,0,0,1,4|142,3,0,0,0,0,1,8|143,4,0,0,0,0,1,8|144,9,0,0,0,0,1,3|145,4,0,0,0,0,1,9|146,5,0,0,0,0,1,3|147,9,0,0,0,0,1,4|148,4,0,0,0,0,1,6|149,3,0,0,0,0,1,10|150,5,0,0,0,0,1,6|151,2,0,0,0,0,1,10|152,3,0,0,0,0,1,4|153,4,0,0,0,0,1,9|154,5,0,0,0,0,1,5|155,3,0,0,0,0,1,7|156,4,0,0,0,0,1,4|157,2,0,0,0,0,1,4|158,2,0,0,0,0,1,4|159,4,0,0,0,0,1,4|160,4,0,0,0,0,1,1|161,2,0,0,0,0,1,4|162,4,0,0,0,0,1,7|163,2,0,0,0,0,1,3|164,9,0,0,0,0,1,10|165,2,0,0,0,0,1,9|166,2,0,0,0,0,1,8|167,4,0,0,0,0,1,2|168,9,0,0,0,0,1,1|169,2,0,0,0,0,1,10|170,5,0,0,0,0,1,6|171,3,0,0,0,0,1,6|172,3,0,0,0,0,1,2|173,1,0,0,0,0,1,1|174,2,0,0,0,0,1,9|175,2,0,0,0,0,1,2|176,1,0,0,0,0,1,8|177,2,0,0,0,0,1,8|178,5,0,0,0,0,1,8|179,9,0,0,0,0,1,6|180,4,0,0,0,0,1,10|];
start_domain = 8;
target_domain = 7;
vnflist_size = 8;
vnflist = [10,4,3,1,1,1,4,10];
vnf_arcs = [|1,2|2,3|3,4|3,5|3,6|3,7|7,8|];
proximity_to_source = [0,1,0,0,0,0,0,0];
proximity_to_destination = [0,0,0,0,0,0,1,0];
n_domain_constraints = 2;
domain_constraints = [|2,3,1,1|9,3,1,1|];
