n_nodes = 600;
M = 100;
n_domains = 28;
domain_link_weights = [|0,34,22,34,56,48,50,17,99,1,10,37,99,1,97,16,85,67,64,13,8,69,90,58,62,38,13,100|34,0,49,35,24,98,24,44,82,11,46,51,72,21,34,72,100,15,75,54,38,75,22,73,77,6,84,19|22,49,0,94,67,60,78,20,49,90,47,11,33,28,100,80,76,4,26,43,55,53,99,56,3,68,51,76|34,35,94,0,64,33,55,18,85,19,65,50,72,18,39,52,59,97,84,52,34,65,46,50,56,83,91,32|56,24,67,64,0,12,3,98,10,25,5,62,59,88,98,9,37,50,77,68,34,55,76,4,60,28,40,19|48,98,60,33,12,0,20,38,13,37,88,24,59,6,7,12,43,22,65,52,62,77,75,87,79,41,23,56|50,24,78,55,3,20,0,94,9,68,23,14,10,73,43,60,11,97,61,27,98,77,59,74,28,26,78,43|17,44,20,18,98,38,94,0,12,34,54,24,82,18,34,43,19,88,2,23,22,86,23,70,25,92,77,65|99,82,49,85,10,13,9,12,0,24,60,91,88,33,21,3,64,52,33,1,84,3,22,98,30,24,43,100|1,11,90,19,25,37,68,34,24,0,29,59,58,51,89,18,25,17,28,68,13,63,14,42,59,4,9,14|10,46,47,65,5,88,23,54,60,29,0,7,65,67,12,83,56,13,93,33,44,47,68,86,28,84,71,4|37,51,11,50,62,24,14,24,91,59,7,0,21,89,53,1,47,97,42,5,21,50,67,50,50,90,48,37|99,72,33,72,59,59,10,82,88,58,65,21,0,48,16,41,40,36,59,31,46,29,74,50,35,36,78,21|1,21,28,18,88,6,73,18,33,51,67,89,48,0,47,74,59,76,21,1,64,90,34,60,64,13,39,34|97,34,100,39,98,7,43,34,21,89,12,53,16,47,0,33,1,57,72,7,73,18,98,83,41,64,47,44|16,72,80,52,9,12,60,43,3,18,83,1,41,74,33,0,85,14,32,28,26,12,36,56,63,64,21,16|85,100,76,59,37,43,11,19,64,25,56,47,40,59,1,85,0,43,100,39,25,52,20,54,92,53,56,34|67,15,4,97,50,22,97,88,52,17,13,97,36,76,57,14,43,0,57,29,5,94,76,92,80,100,54,36|64,75,26,84,77,65,61,2,33,28,93,42,59,21,72,32,100,57,0,58,71,9,80,72,44,13,58,65|13,54,43,52,68,52,27,23,1,68,33,5,31,1,7,28,39,29,58,0,67,68,18,20,65,43,30,95|8,38,55,34,34,62,98,22,84,13,44,21,46,64,73,26,25,5,71,67,0,48,21,8,44,96,31,6|69,75,53,65,55,77,77,86,3,63,47,50,29,90,18,12,52,94,9,68,48,0,4,13,28,6,75,8|90,22,99,46,76,75,59,23,22,14,68,67,74,34,98,36,20,76,80,18,21,4,0,51,31,67,55,91|58,73,56,50,4,87,74,70,98,42,86,50,50,60,83,56,54,92,72,20,8,13,51,0,7,97,24,35|62,77,3,56,60,79,28,25,30,59,28,50,35,64,41,63,92,80,44,65,44,28,31,7,0,23,60,44|38,6,68,83,28,41,26,92,24,4,84,90,36,13,64,64,53,100,13,43,96,6,67,97,23,0,23,3|13,84,51,91,40,23,78,77,43,9,71,48,78,39,47,21,56,54,58,30,31,75,55,24,60,23,0,11|100,19,76,32,19,56,43,65,100,14,4,37,21,34,44,16,34,36,65,95,6,8,91,35,44,3,11,0|];
num_node_links = 1900;
node_links = [|24,1|1,24|24,13|13,24|24,48|48,24|24,69|69,24|24,98|98,24|24,100|100,24|24,106|106,24|24,147|147,24|24,171|171,24|24,236|236,24|24,261|261,24|24,274|274,24|24,298|298,24|24,317|317,24|24,369|369,24|24,386|386,24|24,390|390,24|24,397|397,24|24,476|476,24|24,503|503,24|24,515|515,24|24,547|547,24|24,573|573,24|46,44|44,46|46,45|45,46|46,155|155,46|46,196|196,46|46,275|275,46|46,280|280,46|46,283|283,46|46,293|293,46|46,316|316,46|46,356|356,46|46,424|424,46|46,439|439,46|68,16|16,68|68,27|27,68|68,55|55,68|68,102|102,68|68,107|107,68|68,111|111,68|68,120|120,68|68,185|185,68|68,209|209,68|68,235|235,68|68,320|320,68|68,373|373,68|68,381|381,68|68,401|401,68|68,417|417,68|68,436|436,68|68,454|454,68|68,482|482,68|68,502|502,68|68,520|520,68|68,553|553,68|71,33|33,71|71,58|58,71|71,81|81,71|71,115|115,71|71,132|132,71|71,133|133,71|71,138|138,71|71,158|158,71|71,169|169,71|71,182|182,71|71,207|207,71|71,211|211,71|71,270|270,71|71,325|325,71|71,374|374,71|71,425|425,71|71,481|481,71|71,495|495,71|134,7|7,134|134,19|19,134|134,50|50,134|134,63|63,134|134,67|67,134|134,70|70,134|134,87|87,134|134,136|136,134|134,240|240,134|134,246|246,134|134,266|266,134|134,285|285,134|134,327|327,134|134,349|349,134|134,412|412,134|134,415|415,134|134,432|432,134|134,433|433,134|134,443|443,134|134,507|507,134|134,511|511,134|134,526|526,134|164,6|6,164|164,17|17,164|164,213|213,164|164,217|217,164|164,229|229,164|164,237|237,164|164,243|243,164|164,250|250,164|164,276|276,164|164,284|284,164|164,292|292,164|164,304|304,164|164,314|314,164|164,322|322,164|164,385|385,164|164,484|484,164|164,545|545,164|164,562|562,164|165,22|22,165|165,53|53,165|165,61|61,165|165,85|85,165|165,112|112,165|165,116|116,165|165,126|126,165|165,131|131,165|165,139|139,165|165,175|175,165|165,181|181,165|165,192|192,165|165,199|199,165|165,245|245,165|165,249|249,165|165,300|300,165|165,308|308,165|165,337|337,165|165,382|382,165|165,475|475,165|165,497|497,165|165,501|501,165|165,551|551,165|165,592|592,165|194,20|20,194|194,78|78,194|194,121|121,194|194,125|125,194|194,177|177,194|194,193|193,194|194,201|201,194|194,267|267,194|194,271|271,194|194,392|392,194|194,429|429,194|194,449|449,194|194,489|489,194|194,533|533,194|194,537|537,194|194,563|563,194|225,4|4,225|225,23|23,225|225,76|76,225|225,84|84,225|225,109|109,225|225,118|118,225|225,130|130,225|225,149|149,225|225,159|159,225|225,176|176,225|225,264|264,225|225,281|281,225|225,306|306,225|225,346|346,225|225,363|363,225|225,408|408,225|225,450|450,225|225,486|486,225|225,487|487,225|225,500|500,225|225,517|517,225|225,530|530,225|225,548|548,225|225,566|566,225|225,571|571,225|286,3|3,286|286,37|37,286|286,82|82,286|286,114|114,286|286,117|117,286|286,186|186,286|286,252|252,286|286,351|351,286|286,362|362,286|286,365|365,286|286,387|387,286|286,396|396,286|286,400|400,286|286,464|464,286|286,467|467,286|286,491|491,286|286,498|498,286|286,523|523,286|286,528|528,286|286,531|531,286|286,541|541,286|291,39|39,291|291,51|51,291|291,83|83,291|291,173|173,291|291,228|228,291|291,232|232,291|291,254|254,291|291,272|272,291|291,299|299,291|291,329|329,291|291,367|367,291|291,391|391,291|291,395|395,291|291,406|406,291|291,416|416,291|291,538|538,291|291,540|540,291|291,584|584,291|291,600|600,291|326,77|77,326|326,101|101,326|326,162|162,326|326,174|174,326|326,215|215,326|326,222|222,326|326,231|231,326|326,238|238,326|326,282|282,326|326,344|344,326|326,360|360,326|326,473|473,326|326,496|496,326|326,535|535,326|326,552|552,326|326,561|561,326|326,567|567,326|326,577|577,326|326,581|581,326|340,8|8,340|340,28|28,340|340,35|35,340|340,42|42,340|340,65|65,340|340,99|99,340|340,104|104,340|340,135|135,340|340,137|137,340|340,183|183,340|340,311|311,340|340,345|345,340|340,357|357,340|340,358|358,340|340,407|407,340|340,448|448,340|340,485|485,340|340,509|509,340|340,518|518,340|340,550|550,340|340,568|568,340|340,591|591,340|340,594|594,340|353,172|172,353|353,204|204,353|353,208|208,353|353,212|212,353|353,216|216,353|353,296|296,353|353,297|297,353|353,328|328,353|353,342|342,353|353,383|383,353|353,384|384,353|353,426|426,353|353,427|427,353|353,461|461,353|353,465|465,353|353,470|470,353|353,474|474,353|353,549|549,353|353,576|576,353|389,32|32,389|389,47|47,389|389,64|64,389|389,92|92,389|389,124|124,389|389,129|129,389|389,166|166,389|389,197|197,389|389,205|205,389|389,206|206,389|389,219|219,389|389,262|262,389|389,279|279,389|389,307|307,389|389,330|330,389|389,336|336,389|389,375|375,389|389,394|394,389|389,413|413,389|389,431|431,389|389,437|437,389|389,452|452,389|389,505|505,389|389,578|578,389|428,11|11,428|428,36|36,428|428,54|54,428|428,56|56,428|428,59|59,428|428,74|74,428|428,140|140,428|428,161|161,428|428,218|218,428|428,226|226,428|428,290|290,428|428,295|295,428|428,376|376,428|428,398|398,428|428,410|410,428|428,421|421,428|428,451|451,428|428,472|472,428|428,543|543,428|428,554|554,428|428,560|560,428|428,586|586,428|447,12|12,447|447,26|26,447|447,41|41,447|447,43|43,447|447,75|75,447|447,95|95,447|447,152|152,447|447,179|179,447|447,214|214,447|447,239|239,447|447,251|251,447|447,253|253,447|447,294|294,447|447,332|332,447|447,404|404,447|447,419|419,447|447,441|441,447|447,460|460,447|447,468|468,447|447,490|490,447|447,542|542,447|447,580|580,447|457,31|31,457|457,79|79,457|457,110|110,457|457,143|143,457|457,163|163,457|457,167|167,457|457,191|191,457|457,305|305,457|457,315|315,457|457,339|339,457|457,355|355,457|457,434|434,457|457,506|506,457|457,514|514,457|457,525|525,457|457,534|534,457|457,546|546,457|457,555|555,457|457,579|579,457|457,587|587,457|457,593|593,457|457,595|595,457|471,21|21,471|471,49|49,471|471,141|141,471|471,145|145,471|471,156|156,471|471,256|256,471|471,258|258,471|471,287|287,471|471,289|289,471|471,301|301,471|471,309|309,471|471,430|430,471|471,469|469,471|471,478|478,471|471,532|532,471|471,564|564,471|471,572|572,471|471,574|574,471|471,590|590,471|477,2|2,477|477,5|5,477|477,10|10,477|477,15|15,477|477,18|18,477|477,29|29,477|477,73|73,477|477,127|127,477|477,142|142,477|477,198|198,477|477,210|210,477|477,223|223,477|477,244|244,477|477,248|248,477|477,269|269,477|477,303|303,477|477,312|312,477|477,341|341,477|477,350|350,477|477,372|372,477|477,414|414,477|477,435|435,477|477,446|446,477|477,456|456,477|477,458|458,477|477,463|463,477|492,34|34,492|492,66|66,492|492,72|72,492|492,97|97,492|492,234|234,492|492,241|241,492|492,242|242,492|492,302|302,492|492,319|319,492|492,321|321,492|492,359|359,492|492,364|364,492|492,380|380,492|492,420|420,492|492,422|422,492|492,455|455,492|492,462|462,492|492,480|480,492|492,556|556,492|492,557|557,492|492,558|558,492|494,25|25,494|494,52|52,494|494,86|86,494|494,89|89,494|494,151|151,494|494,178|178,494|494,224|224,494|494,277|277,494|494,366|366,494|494,402|402,494|494,403|403,494|494,438|438,494|494,529|529,494|494,570|570,494|499,38|38,499|499,57|57,499|499,60|60,499|499,62|62,499|499,113|113,499|499,119|119,499|499,154|154,499|499,255|255,499|499,257|257,499|499,310|310,499|499,343|343,499|499,371|371,499|499,405|405,499|499,409|409,499|499,411|411,499|499,445|445,499|499,513|513,499|499,585|585,499|508,90|90,508|508,91|91,508|508,103|103,508|508,108|108,508|508,123|123,508|508,128|128,508|508,160|160,508|508,220|220,508|508,230|230,508|508,263|263,508|508,268|268,508|508,323|323,508|508,324|324,508|508,335|335,508|508,459|459,508|508,539|539,508|508,575|575,508|508,582|582,508|510,9|9,510|510,93|93,510|510,146|146,510|510,153|153,510|510,184|184,510|510,188|188,510|510,202|202,510|510,273|273,510|510,333|333,510|510,361|361,510|510,442|442,510|510,479|479,510|510,493|493,510|510,504|504,510|510,521|521,510|510,527|527,510|519,14|14,519|519,94|94,519|519,96|96,519|519,122|122,519|519,168|168,519|519,180|180,519|519,187|187,519|519,221|221,519|519,227|227,519|519,247|247,519|519,260|260,519|519,278|278,519|519,313|313,519|519,318|318,519|519,331|331,519|519,338|338,519|519,347|347,519|519,352|352,519|519,377|377,519|519,378|378,519|519,379|379,519|519,393|393,519|519,399|399,519|519,418|418,519|519,444|444,519|519,466|466,519|519,483|483,519|519,488|488,519|519,512|512,519|519,524|524,519|519,544|544,519|519,565|565,519|519,597|597,519|519,599|599,519|522,30|30,522|522,40|40,522|522,80|80,522|522,105|105,522|522,157|157,522|522,170|170,522|522,189|189,522|522,190|190,522|522,195|195,522|522,200|200,522|522,203|203,522|522,233|233,522|522,265|265,522|522,334|334,522|522,354|354,522|522,370|370,522|522,440|440,522|522,516|516,522|522,536|536,522|522,588|588,522|522,589|589,522|583,88|88,583|583,144|144,583|583,148|148,583|583,150|150,583|583,259|259,583|583,288|288,583|583,348|348,583|583,368|368,583|583,388|388,583|583,423|423,583|583,453|453,583|583,559|559,583|583,569|569,583|583,596|596,583|583,598|598,583|24,46|24,68|24,71|24,134|24,164|24,165|24,194|24,225|24,286|24,291|24,326|24,340|24,353|24,389|24,428|24,447|24,457|24,471|24,477|24,492|24,494|24,499|24,508|24,510|24,519|24,522|24,583|46,24|46,68|46,71|46,134|46,164|46,165|46,194|46,225|46,286|46,291|46,326|46,340|46,353|46,389|46,428|46,447|46,457|46,471|46,477|46,492|46,494|46,499|46,508|46,510|46,519|46,522|46,583|68,24|68,46|68,71|68,134|68,164|68,165|68,194|68,225|68,286|68,291|68,326|68,340|68,353|68,389|68,428|68,447|68,457|68,471|68,477|68,492|68,494|68,499|68,508|68,510|68,519|68,522|68,583|71,24|71,46|71,68|71,134|71,164|71,165|71,194|71,225|71,286|71,291|71,326|71,340|71,353|71,389|71,428|71,447|71,457|71,471|71,477|71,492|71,494|71,499|71,508|71,510|71,519|71,522|71,583|134,24|134,46|134,68|134,71|134,164|134,165|134,194|134,225|134,286|134,291|134,326|134,340|134,353|134,389|134,428|134,447|134,457|134,471|134,477|134,492|134,494|134,499|134,508|134,510|134,519|134,522|134,583|164,24|164,46|164,68|164,71|164,134|164,165|164,194|164,225|164,286|164,291|164,326|164,340|164,353|164,389|164,428|164,447|164,457|164,471|164,477|164,492|164,494|164,499|164,508|164,510|164,519|164,522|164,583|165,24|165,46|165,68|165,71|165,134|165,164|165,194|165,225|165,286|165,291|165,326|165,340|165,353|165,389|165,428|165,447|165,457|165,471|165,477|165,492|165,494|165,499|165,508|165,510|165,519|165,522|165,583|194,24|194,46|194,68|194,71|194,134|194,164|194,165|194,225|194,286|194,291|194,326|194,340|194,353|194,389|194,428|194,447|194,457|194,471|194,477|194,492|194,494|194,499|194,508|194,510|194,519|194,522|194,583|225,24|225,46|225,68|225,71|225,134|225,164|225,165|225,194|225,286|225,291|225,326|225,340|225,353|225,389|225,428|225,447|225,457|225,471|225,477|225,492|225,494|225,499|225,508|225,510|225,519|225,522|225,583|286,24|286,46|286,68|286,71|286,134|286,164|286,165|286,194|286,225|286,291|286,326|286,340|286,353|286,389|286,428|286,447|286,457|286,471|286,477|286,492|286,494|286,499|286,508|286,510|286,519|286,522|286,583|291,24|291,46|291,68|291,71|291,134|291,164|291,165|291,194|291,225|291,286|291,326|291,340|291,353|291,389|291,428|291,447|291,457|291,471|291,477|291,492|291,494|291,499|291,508|291,510|291,519|291,522|291,583|326,24|326,46|326,68|326,71|326,134|326,164|326,165|326,194|326,225|326,286|326,291|326,340|326,353|326,389|326,428|326,447|326,457|326,471|326,477|326,492|326,494|326,499|326,508|326,510|326,519|326,522|326,583|340,24|340,46|340,68|340,71|340,134|340,164|340,165|340,194|340,225|340,286|340,291|340,326|340,353|340,389|340,428|340,447|340,457|340,471|340,477|340,492|340,494|340,499|340,508|340,510|340,519|340,522|340,583|353,24|353,46|353,68|353,71|353,134|353,164|353,165|353,194|353,225|353,286|353,291|353,326|353,340|353,389|353,428|353,447|353,457|353,471|353,477|353,492|353,494|353,499|353,508|353,510|353,519|353,522|353,583|389,24|389,46|389,68|389,71|389,134|389,164|389,165|389,194|389,225|389,286|389,291|389,326|389,340|389,353|389,428|389,447|389,457|389,471|389,477|389,492|389,494|389,499|389,508|389,510|389,519|389,522|389,583|428,24|428,46|428,68|428,71|428,134|428,164|428,165|428,194|428,225|428,286|428,291|428,326|428,340|428,353|428,389|428,447|428,457|428,471|428,477|428,492|428,494|428,499|428,508|428,510|428,519|428,522|428,583|447,24|447,46|447,68|447,71|447,134|447,164|447,165|447,194|447,225|447,286|447,291|447,326|447,340|447,353|447,389|447,428|447,457|447,471|447,477|447,492|447,494|447,499|447,508|447,510|447,519|447,522|447,583|457,24|457,46|457,68|457,71|457,134|457,164|457,165|457,194|457,225|457,286|457,291|457,326|457,340|457,353|457,389|457,428|457,447|457,471|457,477|457,492|457,494|457,499|457,508|457,510|457,519|457,522|457,583|471,24|471,46|471,68|471,71|471,134|471,164|471,165|471,194|471,225|471,286|471,291|471,326|471,340|471,353|471,389|471,428|471,447|471,457|471,477|471,492|471,494|471,499|471,508|471,510|471,519|471,522|471,583|477,24|477,46|477,68|477,71|477,134|477,164|477,165|477,194|477,225|477,286|477,291|477,326|477,340|477,353|477,389|477,428|477,447|477,457|477,471|477,492|477,494|477,499|477,508|477,510|477,519|477,522|477,583|492,24|492,46|492,68|492,71|492,134|492,164|492,165|492,194|492,225|492,286|492,291|492,326|492,340|492,353|492,389|492,428|492,447|492,457|492,471|492,477|492,494|492,499|492,508|492,510|492,519|492,522|492,583|494,24|494,46|494,68|494,71|494,134|494,164|494,165|494,194|494,225|494,286|494,291|494,326|494,340|494,353|494,389|494,428|494,447|494,457|494,471|494,477|494,492|494,499|494,508|494,510|494,519|494,522|494,583|499,24|499,46|499,68|499,71|499,134|499,164|499,165|499,194|499,225|499,286|499,291|499,326|499,340|499,353|499,389|499,428|499,447|499,457|499,471|499,477|499,492|499,494|499,508|499,510|499,519|499,522|499,583|508,24|508,46|508,68|508,71|508,134|508,164|508,165|508,194|508,225|508,286|508,291|508,326|508,340|508,353|508,389|508,428|508,447|508,457|508,471|508,477|508,492|508,494|508,499|508,510|508,519|508,522|508,583|510,24|510,46|510,68|510,71|510,134|510,164|510,165|510,194|510,225|510,286|510,291|510,326|510,340|510,353|510,389|510,428|510,447|510,457|510,471|510,477|510,492|510,494|510,499|510,508|510,519|510,522|510,583|519,24|519,46|519,68|519,71|519,134|519,164|519,165|519,194|519,225|519,286|519,291|519,326|519,340|519,353|519,389|519,428|519,447|519,457|519,471|519,477|519,492|519,494|519,499|519,508|519,510|519,522|519,583|522,24|522,46|522,68|522,71|522,134|522,164|522,165|522,194|522,225|522,286|522,291|522,326|522,340|522,353|522,389|522,428|522,447|522,457|522,471|522,477|522,492|522,494|522,499|522,508|522,510|522,519|522,583|583,24|583,46|583,68|583,71|583,134|583,164|583,165|583,194|583,225|583,286|583,291|583,326|583,340|583,353|583,389|583,428|583,447|583,457|583,471|583,477|583,492|583,494|583,499|583,508|583,510|583,519|583,522|];
nodes = [|1,4,0,0,0,0,1,8|2,5,0,0,0,0,1,6|3,1,0,0,0,0,1,19|4,2,0,0,0,0,1,10|5,4,0,0,0,0,1,6|6,3,0,0,0,0,1,13|7,3,0,0,0,0,1,25|8,3,0,0,0,0,1,26|9,3,0,0,0,0,1,17|10,3,0,0,0,0,1,6|11,4,0,0,0,0,1,24|12,2,0,0,0,0,1,22|13,2,0,0,0,0,1,8|14,4,0,0,0,0,1,5|15,4,0,0,0,0,1,6|16,1,0,0,0,0,1,21|17,5,0,0,0,0,1,13|18,2,0,0,0,0,1,6|19,3,0,0,0,0,1,25|20,1,0,0,0,0,1,27|21,4,0,0,0,0,1,20|22,5,0,0,0,0,1,4|23,5,0,0,0,0,1,10|24,9,0,0,0,0,1,8|25,4,0,0,0,0,1,14|26,3,0,0,0,0,1,22|27,2,0,0,0,0,1,21|28,4,0,0,0,0,1,26|29,3,0,0,0,0,1,6|30,4,0,0,0,0,1,3|31,2,0,0,0,0,1,15|32,10,0,0,0,0,1,23|33,10,0,0,0,0,1,11|34,3,0,0,0,0,1,28|35,2,0,0,0,0,1,26|36,5,0,0,0,0,1,24|37,1,0,0,0,0,1,19|38,2,0,0,0,0,1,2|39,5,0,0,0,0,1,16|40,1,0,0,0,0,1,3|41,3,0,0,0,0,1,22|42,4,0,0,0,0,1,26|43,5,0,0,0,0,1,22|44,10,0,0,0,0,1,1|45,5,0,0,0,0,1,1|46,9,0,0,0,0,1,1|47,3,0,0,0,0,1,23|48,4,0,0,0,0,1,8|49,1,0,0,0,0,1,20|50,2,0,0,0,0,1,25|51,3,0,0,0,0,1,16|52,3,0,0,0,0,1,14|53,4,0,0,0,0,1,4|54,3,0,0,0,0,1,24|55,4,0,0,0,0,1,21|56,5,0,0,0,0,1,24|57,1,0,0,0,0,1,2|58,3,0,0,0,0,1,11|59,3,0,0,0,0,1,24|60,3,0,0,0,0,1,2|61,2,0,0,0,0,1,4|62,4,0,0,0,0,1,2|63,3,0,0,0,0,1,25|64,3,0,0,0,0,1,23|65,3,0,0,0,0,1,26|66,5,0,0,0,0,1,28|67,2,0,0,0,0,1,25|68,9,0,0,0,0,1,21|69,3,0,0,0,0,1,8|70,1,0,0,0,0,1,25|71,9,0,0,0,0,1,11|72,3,0,0,0,0,1,28|73,2,0,0,0,0,1,6|74,4,0,0,0,0,1,24|75,4,0,0,0,0,1,22|76,2,0,0,0,0,1,10|77,2,0,0,0,0,1,18|78,5,0,0,0,0,1,27|79,3,0,0,0,0,1,15|80,5,0,0,0,0,1,3|81,5,0,0,0,0,1,11|82,1,0,0,0,0,1,19|83,2,0,0,0,0,1,16|84,10,0,0,0,0,1,10|85,5,0,0,0,0,1,4|86,10,0,0,0,0,1,14|87,2,0,0,0,0,1,25|88,10,0,0,0,0,1,7|89,5,0,0,0,0,1,14|90,2,0,0,0,0,1,12|91,1,0,0,0,0,1,12|92,2,0,0,0,0,1,23|93,10,0,0,0,0,1,17|94,2,0,0,0,0,1,5|95,1,0,0,0,0,1,22|96,5,0,0,0,0,1,5|97,4,0,0,0,0,1,28|98,3,0,0,0,0,1,8|99,4,0,0,0,0,1,26|100,10,0,0,0,0,1,8|101,10,0,0,0,0,1,18|102,5,0,0,0,0,1,21|103,10,0,0,0,0,1,12|104,3,0,0,0,0,1,26|105,1,0,0,0,0,1,3|106,5,0,0,0,0,1,8|107,4,0,0,0,0,1,21|108,2,0,0,0,0,1,12|109,4,0,0,0,0,1,10|110,1,0,0,0,0,1,15|111,1,0,0,0,0,1,21|112,1,0,0,0,0,1,4|113,5,0,0,0,0,1,2|114,1,0,0,0,0,1,19|115,4,0,0,0,0,1,11|116,5,0,0,0,0,1,4|117,4,0,0,0,0,1,19|118,4,0,0,0,0,1,10|119,1,0,0,0,0,1,2|120,2,0,0,0,0,1,21|121,2,0,0,0,0,1,27|122,5,0,0,0,0,1,5|123,4,0,0,0,0,1,12|124,2,0,0,0,0,1,23|125,5,0,0,0,0,1,27|126,4,0,0,0,0,1,4|127,2,0,0,0,0,1,6|128,3,0,0,0,0,1,12|129,1,0,0,0,0,1,23|130,4,0,0,0,0,1,10|131,3,0,0,0,0,1,4|132,4,0,0,0,0,1,11|133,3,0,0,0,0,1,11|134,9,0,0,0,0,1,25|135,4,0,0,0,0,1,26|136,1,0,0,0,0,1,25|137,1,0,0,0,0,1,26|138,2,0,0,0,0,1,11|139,5,0,0,0,0,1,4|140,3,0,0,0,0,1,24|141,1,0,0,0,0,1,20|142,5,0,0,0,0,1,6|143,4,0,0,0,0,1,15|144,5,0,0,0,0,1,7|145,2,0,0,0,0,1,20|146,5,0,0,0,0,1,17|147,4,0,0,0,0,1,8|148,1,0,0,0,0,1,7|149,4,0,0,0,0,1,10|150,2,0,0,0,0,1,7|151,1,0,0,0,0,1,14|152,2,0,0,0,0,1,22|153,3,0,0,0,0,1,17|154,2,0,0,0,0,1,2|155,2,0,0,0,0,1,1|156,2,0,0,0,0,1,20|157,2,0,0,0,0,1,3|158,5,0,0,0,0,1,11|159,1,0,0,0,0,1,10|160,1,0,0,0,0,1,12|161,1,0,0,0,0,1,24|162,3,0,0,0,0,1,18|163,2,0,0,0,0,1,15|164,9,0,0,0,0,1,13|165,9,0,0,0,0,1,4|166,5,0,0,0,0,1,23|167,1,0,0,0,0,1,15|168,1,0,0,0,0,1,5|169,2,0,0,0,0,1,11|170,5,0,0,0,0,1,3|171,3,0,0,0,0,1,8|172,5,0,0,0,0,1,9|173,5,0,0,0,0,1,16|174,3,0,0,0,0,1,18|175,3,0,0,0,0,1,4|176,1,0,0,0,0,1,10|177,1,0,0,0,0,1,27|178,3,0,0,0,0,1,14|179,1,0,0,0,0,1,22|180,10,0,0,0,0,1,5|181,5,0,0,0,0,1,4|182,3,0,0,0,0,1,11|183,1,0,0,0,0,1,26|184,2,0,0,0,0,1,17|185,4,0,0,0,0,1,21|186,2,0,0,0,0,1,19|187,1,0,0,0,0,1,5|188,4,0,0,0,0,1,17|189,1,0,0,0,0,1,3|190,10,0,0,0,0,1,3|191,4,0,0,0,0,1,15|192,4,0,0,0,0,1,4|193,10,0,0,0,0,1,27|194,9,0,0,0,0,1,27|195,1,0,0,0,0,1,3|196,1,0,0,0,0,1,1|197,2,0,0,0,0,1,23|198,4,0,0,0,0,1,6|199,3,0,0,0,0,1,4|200,1,0,0,0,0,1,3|201,5,0,0,0,0,1,27|202,3,0,0,0,0,1,17|203,1,0,0,0,0,1,3|204,4,0,0,0,0,1,9|205,2,0,0,0,0,1,23|206,2,0,0,0,0,1,23|207,3,0,0,0,0,1,11|208,3,0,0,0,0,1,9|209,3,0,0,0,0,1,21|210,5,0,0,0,0,1,6|211,2,0,0,0,0,1,11|212,2,0,0,0,0,1,9|213,3,0,0,0,0,1,13|214,1,0,0,0,0,1,22|215,3,0,0,0,0,1,18|216,3,0,0,0,0,1,9|217,3,0,0,0,0,1,13|218,5,0,0,0,0,1,24|219,3,0,0,0,0,1,23|220,2,0,0,0,0,1,12|221,1,0,0,0,0,1,5|222,4,0,0,0,0,1,18|223,3,0,0,0,0,1,6|224,5,0,0,0,0,1,14|225,9,0,0,0,0,1,10|226,3,0,0,0,0,1,24|227,5,0,0,0,0,1,5|228,1,0,0,0,0,1,16|229,4,0,0,0,0,1,13|230,2,0,0,0,0,1,12|231,3,0,0,0,0,1,18|232,3,0,0,0,0,1,16|233,2,0,0,0,0,1,3|234,5,0,0,0,0,1,28|235,1,0,0,0,0,1,21|236,5,0,0,0,0,1,8|237,5,0,0,0,0,1,13|238,5,0,0,0,0,1,18|239,4,0,0,0,0,1,22|240,1,0,0,0,0,1,25|241,2,0,0,0,0,1,28|242,3,0,0,0,0,1,28|243,1,0,0,0,0,1,13|244,1,0,0,0,0,1,6|245,4,0,0,0,0,1,4|246,3,0,0,0,0,1,25|247,3,0,0,0,0,1,5|248,5,0,0,0,0,1,6|249,1,0,0,0,0,1,4|250,4,0,0,0,0,1,13|251,4,0,0,0,0,1,22|252,2,0,0,0,0,1,19|253,5,0,0,0,0,1,22|254,2,0,0,0,0,1,16|255,1,0,0,0,0,1,2|256,1,0,0,0,0,1,20|257,5,0,0,0,0,1,2|258,5,0,0,0,0,1,20|259,4,0,0,0,0,1,7|260,3,0,0,0,0,1,5|261,5,0,0,0,0,1,8|262,4,0,0,0,0,1,23|263,3,0,0,0,0,1,12|264,1,0,0,0,0,1,10|265,4,0,0,0,0,1,3|266,1,0,0,0,0,1,25|267,5,0,0,0,0,1,27|268,3,0,0,0,0,1,12|269,3,0,0,0,0,1,6|270,4,0,0,0,0,1,11|271,3,0,0,0,0,1,27|272,4,0,0,0,0,1,16|273,1,0,0,0,0,1,17|274,2,0,0,0,0,1,8|275,4,0,0,0,0,1,1|276,3,0,0,0,0,1,13|277,1,0,0,0,0,1,14|278,5,0,0,0,0,1,5|279,1,0,0,0,0,1,23|280,3,0,0,0,0,1,1|281,1,0,0,0,0,1,10|282,4,0,0,0,0,1,18|283,1,0,0,0,0,1,1|284,2,0,0,0,0,1,13|285,1,0,0,0,0,1,25|286,9,0,0,0,0,1,19|287,3,0,0,0,0,1,20|288,4,0,0,0,0,1,7|289,4,0,0,0,0,1,20|290,10,0,0,0,0,1,24|291,9,0,0,0,0,1,16|292,5,0,0,0,0,1,13|293,4,0,0,0,0,1,1|294,4,0,0,0,0,1,22|295,4,0,0,0,0,1,24|296,3,0,0,0,0,1,9|297,2,0,0,0,0,1,9|298,1,0,0,0,0,1,8|299,1,0,0,0,0,1,16|300,10,0,0,0,0,1,4|301,2,0,0,0,0,1,20|302,10,0,0,0,0,1,28|303,4,0,0,0,0,1,6|304,1,0,0,0,0,1,13|305,1,0,0,0,0,1,15|306,2,0,0,0,0,1,10|307,2,0,0,0,0,1,23|308,4,0,0,0,0,1,4|309,3,0,0,0,0,1,20|310,4,0,0,0,0,1,2|311,10,0,0,0,0,1,26|312,10,0,0,0,0,1,6|313,2,0,0,0,0,1,5|314,10,0,0,0,0,1,13|315,4,0,0,0,0,1,15|316,3,0,0,0,0,1,1|317,1,0,0,0,0,1,8|318,2,0,0,0,0,1,5|319,1,0,0,0,0,1,28|320,3,0,0,0,0,1,21|321,5,0,0,0,0,1,28|322,4,0,0,0,0,1,13|323,4,0,0,0,0,1,12|324,1,0,0,0,0,1,12|325,5,0,0,0,0,1,11|326,9,0,0,0,0,1,18|327,10,0,0,0,0,1,25|328,3,0,0,0,0,1,9|329,5,0,0,0,0,1,16|330,4,0,0,0,0,1,23|331,2,0,0,0,0,1,5|332,4,0,0,0,0,1,22|333,2,0,0,0,0,1,17|334,2,0,0,0,0,1,3|335,1,0,0,0,0,1,12|336,3,0,0,0,0,1,23|337,4,0,0,0,0,1,4|338,4,0,0,0,0,1,5|339,3,0,0,0,0,1,15|340,9,0,0,0,0,1,26|341,5,0,0,0,0,1,6|342,4,0,0,0,0,1,9|343,5,0,0,0,0,1,2|344,2,0,0,0,0,1,18|345,2,0,0,0,0,1,26|346,3,0,0,0,0,1,10|347,5,0,0,0,0,1,5|348,3,0,0,0,0,1,7|349,3,0,0,0,0,1,25|350,3,0,0,0,0,1,6|351,3,0,0,0,0,1,19|352,4,0,0,0,0,1,5|353,9,0,0,0,0,1,9|354,5,0,0,0,0,1,3|355,1,0,0,0,0,1,15|356,2,0,0,0,0,1,1|357,1,0,0,0,0,1,26|358,2,0,0,0,0,1,26|359,2,0,0,0,0,1,28|360,3,0,0,0,0,1,18|361,2,0,0,0,0,1,17|362,1,0,0,0,0,1,19|363,5,0,0,0,0,1,10|364,1,0,0,0,0,1,28|365,4,0,0,0,0,1,19|366,5,0,0,0,0,1,14|367,2,0,0,0,0,1,16|368,1,0,0,0,0,1,7|369,2,0,0,0,0,1,8|370,1,0,0,0,0,1,3|371,3,0,0,0,0,1,2|372,2,0,0,0,0,1,6|373,3,0,0,0,0,1,21|374,2,0,0,0,0,1,11|375,5,0,0,0,0,1,23|376,2,0,0,0,0,1,24|377,2,0,0,0,0,1,5|378,5,0,0,0,0,1,5|379,3,0,0,0,0,1,5|380,2,0,0,0,0,1,28|381,3,0,0,0,0,1,21|382,3,0,0,0,0,1,4|383,3,0,0,0,0,1,9|384,2,0,0,0,0,1,9|385,2,0,0,0,0,1,13|386,4,0,0,0,0,1,8|387,4,0,0,0,0,1,19|388,5,0,0,0,0,1,7|389,9,0,0,0,0,1,23|390,2,0,0,0,0,1,8|391,2,0,0,0,0,1,16|392,3,0,0,0,0,1,27|393,5,0,0,0,0,1,5|394,4,0,0,0,0,1,23|395,5,0,0,0,0,1,16|396,4,0,0,0,0,1,19|397,1,0,0,0,0,1,8|398,1,0,0,0,0,1,24|399,5,0,0,0,0,1,5|400,1,0,0,0,0,1,19|401,2,0,0,0,0,1,21|402,5,0,0,0,0,1,14|403,4,0,0,0,0,1,14|404,2,0,0,0,0,1,22|405,5,0,0,0,0,1,2|406,3,0,0,0,0,1,16|407,5,0,0,0,0,1,26|408,3,0,0,0,0,1,10|409,5,0,0,0,0,1,2|410,4,0,0,0,0,1,24|411,10,0,0,0,0,1,2|412,2,0,0,0,0,1,25|413,5,0,0,0,0,1,23|414,5,0,0,0,0,1,6|415,5,0,0,0,0,1,25|416,10,0,0,0,0,1,16|417,2,0,0,0,0,1,21|418,5,0,0,0,0,1,5|419,5,0,0,0,0,1,22|420,3,0,0,0,0,1,28|421,3,0,0,0,0,1,24|422,3,0,0,0,0,1,28|423,3,0,0,0,0,1,7|424,5,0,0,0,0,1,1|425,1,0,0,0,0,1,11|426,1,0,0,0,0,1,9|427,4,0,0,0,0,1,9|428,9,0,0,0,0,1,24|429,2,0,0,0,0,1,27|430,3,0,0,0,0,1,20|431,4,0,0,0,0,1,23|432,4,0,0,0,0,1,25|433,3,0,0,0,0,1,25|434,5,0,0,0,0,1,15|435,4,0,0,0,0,1,6|436,5,0,0,0,0,1,21|437,5,0,0,0,0,1,23|438,3,0,0,0,0,1,14|439,4,0,0,0,0,1,1|440,1,0,0,0,0,1,3|441,10,0,0,0,0,1,22|442,4,0,0,0,0,1,17|443,1,0,0,0,0,1,25|444,2,0,0,0,0,1,5|445,1,0,0,0,0,1,2|446,4,0,0,0,0,1,6|447,9,0,0,0,0,1,22|448,4,0,0,0,0,1,26|449,5,0,0,0,0,1,27|450,1,0,0,0,0,1,10|451,4,0,0,0,0,1,24|452,3,0,0,0,0,1,23|453,3,0,0,0,0,1,7|454,5,0,0,0,0,1,21|455,3,0,0,0,0,1,28|456,5,0,0,0,0,1,6|457,9,0,0,0,0,1,15|458,1,0,0,0,0,1,6|459,4,0,0,0,0,1,12|460,4,0,0,0,0,1,22|461,2,0,0,0,0,1,9|462,3,0,0,0,0,1,28|463,2,0,0,0,0,1,6|464,5,0,0,0,0,1,19|465,4,0,0,0,0,1,9|466,1,0,0,0,0,1,5|467,3,0,0,0,0,1,19|468,2,0,0,0,0,1,22|469,2,0,0,0,0,1,20|470,10,0,0,0,0,1,9|471,9,0,0,0,0,1,20|472,3,0,0,0,0,1,24|473,4,0,0,0,0,1,18|474,1,0,0,0,0,1,9|475,3,0,0,0,0,1,4|476,5,0,0,0,0,1,8|477,9,0,0,0,0,1,6|478,10,0,0,0,0,1,20|479,3,0,0,0,0,1,17|480,4,0,0,0,0,1,28|481,5,0,0,0,0,1,11|482,10,0,0,0,0,1,21|483,3,0,0,0,0,1,5|484,2,0,0,0,0,1,13|485,4,0,0,0,0,1,26|486,3,0,0,0,0,1,10|487,3,0,0,0,0,1,10|488,5,0,0,0,0,1,5|489,2,0,0,0,0,1,27|490,4,0,0,0,0,1,22|491,4,0,0,0,0,1,19|492,9,0,0,0,0,1,28|493,4,0,0,0,0,1,17|494,9,0,0,0,0,1,14|495,5,0,0,0,0,1,11|496,4,0,0,0,0,1,18|497,3,0,0,0,0,1,4|498,5,0,0,0,0,1,19|499,9,0,0,0,0,1,2|500,3,0,0,0,0,1,10|501,5,0,0,0,0,1,4|502,4,0,0,0,0,1,21|503,5,0,0,0,0,1,8|504,1,0,0,0,0,1,17|505,3,0,0,0,0,1,23|506,2,0,0,0,0,1,15|507,2,0,0,0,0,1,25|508,9,0,0,0,0,1,12|509,1,0,0,0,0,1,26|510,9,0,0,0,0,1,17|511,3,0,0,0,0,1,25|512,2,0,0,0,0,1,5|513,4,0,0,0,0,1,2|514,5,0,0,0,0,1,15|515,3,0,0,0,0,1,8|516,2,0,0,0,0,1,3|517,3,0,0,0,0,1,10|518,3,0,0,0,0,1,26|519,9,0,0,0,0,1,5|520,1,0,0,0,0,1,21|521,3,0,0,0,0,1,17|522,9,0,0,0,0,1,3|523,3,0,0,0,0,1,19|524,1,0,0,0,0,1,5|525,2,0,0,0,0,1,15|526,1,0,0,0,0,1,25|527,5,0,0,0,0,1,17|528,1,0,0,0,0,1,19|529,1,0,0,0,0,1,14|530,4,0,0,0,0,1,10|531,10,0,0,0,0,1,19|532,4,0,0,0,0,1,20|533,1,0,0,0,0,1,27|534,1,0,0,0,0,1,15|535,2,0,0,0,0,1,18|536,5,0,0,0,0,1,3|537,4,0,0,0,0,1,27|538,5,0,0,0,0,1,16|539,4,0,0,0,0,1,12|540,2,0,0,0,0,1,16|541,5,0,0,0,0,1,19|542,3,0,0,0,0,1,22|543,4,0,0,0,0,1,24|544,4,0,0,0,0,1,5|545,2,0,0,0,0,1,13|546,3,0,0,0,0,1,15|547,5,0,0,0,0,1,8|548,4,0,0,0,0,1,10|549,2,0,0,0,0,1,9|550,4,0,0,0,0,1,26|551,3,0,0,0,0,1,4|552,2,0,0,0,0,1,18|553,5,0,0,0,0,1,21|554,3,0,0,0,0,1,24|555,10,0,0,0,0,1,15|556,3,0,0,0,0,1,28|557,1,0,0,0,0,1,28|558,2,0,0,0,0,1,28|559,1,0,0,0,0,1,7|560,2,0,0,0,0,1,24|561,4,0,0,0,0,1,18|562,1,0,0,0,0,1,13|563,3,0,0,0,0,1,27|564,2,0,0,0,0,1,20|565,2,0,0,0,0,1,5|566,3,0,0,0,0,1,10|567,2,0,0,0,0,1,18|568,3,0,0,0,0,1,26|569,4,0,0,0,0,1,7|570,3,0,0,0,0,1,14|571,2,0,0,0,0,1,10|572,3,0,0,0,0,1,20|573,3,0,0,0,0,1,8|574,1,0,0,0,0,1,20|575,4,0,0,0,0,1,12|576,1,0,0,0,0,1,9|577,4,0,0,0,0,1,18|578,4,0,0,0,0,1,23|579,1,0,0,0,0,1,15|580,2,0,0,0,0,1,22|581,5,0,0,0,0,1,18|582,1,0,0,0,0,1,12|583,9,0,0,0,0,1,7|584,4,0,0,0,0,1,16|585,2,0,0,0,0,1,2|586,1,0,0,0,0,1,24|587,3,0,0,0,0,1,15|588,5,0,0,0,0,1,3|589,3,0,0,0,0,1,3|590,4,0,0,0,0,1,20|591,5,0,0,0,0,1,26|592,1,0,0,0,0,1,4|593,4,0,0,0,0,1,15|594,2,0,0,0,0,1,26|595,3,0,0,0,0,1,15|596,1,0,0,0,0,1,7|597,1,0,0,0,0,1,5|598,1,0,0,0,0,1,7|599,4,0,0,0,0,1,5|600,1,0,0,0,0,1,16|];
start_domain = 4;
target_domain = 7;
vnflist_size = 5;
vnflist = [10,2,5,2,10];
vnf_arcs = [|1,2|2,3|3,4|4,5|];
proximity_to_source = [0,1,0,0,0];
proximity_to_destination = [0,0,0,1,0];
n_domain_constraints = 3;
domain_constraints = [|10,3,1,1|11,1,1,1|11,3,1,1|];
