Warehouses = 70;
Stores = 172;

Capacity = [85, 87, 88, 85, 89, 85, 86, 85, 93, 88, 88, 86, 87, 86, 81, 87, 78, 84, 87, 82, 82, 87, 82, 87, 82, 83, 83, 88, 88, 90, 79, 84, 92, 81, 91, 87, 86, 80, 89, 81, 90, 86, 84, 85, 86, 85, 88, 90, 85, 89, 81, 87, 83, 87, 85, 86, 90, 87, 82, 86, 86, 82, 91, 83, 86, 85, 87, 86, 86, 81];
FixedCost = [1106, 1386, 980, 1120, 1302, 1078, 882, 1344, 1092, 798, 1008, 1274, 854, 1414, 1302, 784, 686, 1246, 1414, 1274, 1246, 868, 1120, 1246, 1120, 1106, 854, 896, 868, 1148, 770, 938, 1428, 826, 1120, 868, 1414, 1400, 994, 1302, 1092, 882, 1344, 938, 1442, 896, 896, 1568, 1036, 1316, 994, 1246, 1190, 1246, 1246, 1036, 1008, 1316, 1428, 1204, 1400, 896, 924, 1148, 1162, 1260, 1190, 1428, 1260, 1274];
Goods = [14, 11, 11, 12, 11, 10, 12, 12, 14, 11, 12, 13, 15, 13, 13, 11, 15, 13, 10, 13, 13, 10, 12, 15, 11, 12, 14, 14, 11, 11, 11, 11, 14, 11, 8, 12, 12, 12, 13, 15, 13, 8, 11, 14, 13, 13, 14, 12, 11, 16, 11, 13, 13, 15, 14, 15, 12, 12, 14, 15, 13, 15, 13, 12, 11, 12, 15, 15, 13, 11, 13, 14, 14, 15, 13, 11, 16, 14, 11, 14, 15, 15, 11, 11, 13, 12, 12, 10, 13, 13, 8, 15, 16, 12, 13, 14, 10, 13, 11, 15, 8, 13, 13, 14, 13, 12, 16, 13, 14, 12, 13, 14, 10, 10, 13, 10, 13, 11, 11, 12, 11, 13, 14, 12, 12, 11, 15, 13, 15, 13, 11, 11, 15, 10, 14, 13, 14, 10, 11, 12, 10, 14, 14, 14, 11, 15, 12, 13, 15, 12, 11, 12, 12, 10, 18, 10, 11, 14, 10, 12, 15, 14, 18, 10, 14, 6, 10, 12, 14, 8, 15, 13];
SupplyCost = [|64, 30, 17, 30, 22, 28, 26, 24, 14, 16, 22, 17, 28, 24, 28, 23, 26, 9, 29, 32, 35, 36, 21, 23, 20, 27, 33, 17, 30, 51, 40, 17, 47, 58, 33, 24, 17, 39, 5, 19, 29, 11, 16, 38, 13, 35, 6, 7, 36, 34, 26, 14, 9, 45, 42, 18, 35, 20, 42, 27, 21, 18, 28, 45, 21, 21, 33, 34, 31, 33
              |41, 27, 5, 13, 4, 7, 12, 32, 8, 18, 9, 20, 24, 14, 18, 11, 4, 26, 12, 10, 13, 57, 3, 35, 9, 27, 11, 33, 9, 31, 32, 9, 30, 40, 19, 16, 19, 17, 23, 26, 10, 16, 19, 18, 10, 36, 21, 15, 15, 14, 30, 29, 21, 31, 22, 13, 23, 5, 35, 39, 27, 5, 6, 27, 1, 1, 14, 19, 10, 23
              |60, 16, 19, 23, 26, 26, 33, 39, 17, 28, 17, 5, 14, 16, 17, 30, 25, 24, 23, 33, 35, 38, 24, 38, 16, 13, 33, 11, 33, 43, 27, 24, 37, 49, 23, 14, 5, 40, 20, 4, 24, 9, 5, 41, 20, 20, 9, 14, 38, 37, 11, 29, 23, 33, 46, 28, 24, 19, 27, 42, 6, 18, 30, 36, 23, 22, 28, 25, 27, 42
              |73, 29, 29, 37, 34, 38, 39, 36, 26, 30, 30, 19, 28, 30, 31, 37, 36, 21, 36, 44, 46, 24, 33, 33, 28, 25, 44, 6, 42, 57, 40, 31, 51, 64, 37, 28, 19, 51, 18, 16, 37, 18, 19, 51, 26, 31, 12, 19, 48, 47, 21, 25, 23, 48, 55, 32, 38, 30, 40, 37, 18, 28, 40, 51, 33, 32, 41, 39, 40, 47
              |36, 19, 17, 1, 18, 9, 26, 47, 18, 32, 9, 19, 16, 8, 9, 25, 11, 37, 2, 16, 16, 62, 18, 49, 11, 20, 16, 35, 19, 20, 19, 23, 16, 27, 5, 10, 19, 21, 34, 24, 5, 21, 19, 26, 23, 28, 27, 24, 21, 22, 26, 41, 33, 16, 30, 28, 9, 12, 23, 53, 24, 15, 16, 14, 16, 14, 5, 5, 8, 37
              |55, 8, 33, 24, 38, 32, 47, 61, 33, 47, 25, 21, 11, 21, 16, 45, 33, 47, 25, 39, 39, 55, 37, 61, 26, 11, 39, 30, 42, 34, 8, 40, 25, 36, 18, 18, 22, 45, 43, 20, 28, 28, 23, 50, 38, 7, 32, 34, 45, 46, 14, 52, 45, 18, 54, 45, 15, 30, 5, 65, 18, 31, 38, 27, 35, 33, 28, 20, 31, 58
              |34, 20, 21, 6, 22, 12, 29, 51, 23, 36, 13, 22, 18, 12, 11, 29, 15, 42, 6, 18, 17, 65, 22, 53, 16, 22, 17, 38, 22, 16, 17, 27, 12, 23, 5, 13, 23, 22, 38, 27, 9, 25, 23, 28, 27, 28, 31, 28, 23, 25, 28, 45, 38, 13, 31, 32, 8, 16, 22, 57, 27, 19, 19, 9, 20, 18, 6, 4, 10, 40
              |45, 41, 16, 27, 10, 19, 2, 24, 17, 13, 24, 32, 38, 28, 33, 4, 17, 25, 26, 15, 19, 62, 11, 29, 22, 40, 17, 42, 11, 41, 46, 10, 43, 50, 33, 30, 31, 19, 25, 37, 23, 25, 30, 14, 14, 50, 29, 21, 15, 12, 43, 25, 20, 44, 17, 8, 37, 19, 49, 31, 39, 17, 13, 38, 13, 15, 26, 33, 22, 9
              |47, 11, 15, 10, 20, 16, 28, 43, 15, 29, 7, 8, 8, 4, 4, 27, 16, 31, 10, 23, 24, 51, 19, 44, 8, 11, 23, 24, 25, 30, 18, 22, 24, 36, 10, 1, 9, 30, 27, 13, 13, 13, 9, 33, 20, 20, 18, 18, 29, 29, 15, 36, 28, 21, 37, 27, 11, 12, 20, 48, 13, 13, 21, 23, 17, 15, 16, 12, 16, 40
              |34, 36, 16, 18, 10, 10, 11, 36, 18, 23, 18, 30, 33, 22, 26, 12, 10, 34, 17, 3, 6, 67, 11, 40, 19, 36, 4, 44, 2, 29, 38, 15, 31, 38, 24, 25, 30, 7, 32, 36, 14, 27, 29, 8, 19, 45, 32, 25, 4, 4, 40, 35, 29, 34, 12, 18, 28, 15, 42, 44, 37, 16, 4, 26, 11, 12, 15, 24, 11, 20
              |40, 58, 35, 41, 28, 33, 22, 38, 37, 33, 40, 51, 55, 44, 48, 24, 32, 45, 40, 25, 26, 82, 30, 44, 40, 58, 26, 62, 22, 46, 60, 30, 51, 54, 47, 47, 50, 21, 45, 57, 37, 45, 49, 15, 35, 67, 49, 42, 20, 19, 62, 44, 40, 55, 12, 29, 51, 36, 64, 45, 58, 36, 26, 46, 31, 33, 37, 46, 34, 16
              |72, 21, 33, 35, 39, 39, 46, 49, 30, 39, 30, 17, 21, 28, 27, 44, 38, 33, 35, 46, 48, 31, 38, 47, 29, 17, 47, 8, 46, 53, 31, 37, 46, 58, 33, 25, 18, 53, 29, 12, 37, 22, 18, 55, 33, 18, 20, 26, 51, 51, 11, 38, 34, 40, 59, 41, 32, 32, 30, 50, 11, 32, 43, 46, 37, 36, 40, 35, 40, 55
              |34, 23, 15, 4, 15, 5, 22, 44, 17, 29, 9, 21, 20, 10, 13, 22, 8, 36, 4, 12, 11, 63, 15, 47, 11, 24, 11, 37, 15, 20, 23, 20, 19, 28, 10, 13, 21, 17, 33, 27, 2, 22, 21, 22, 21, 32, 28, 24, 17, 18, 29, 40, 32, 20, 26, 25, 14, 11, 27, 51, 27, 14, 12, 15, 13, 11, 2, 9, 3, 33
              |49, 19, 40, 27, 44, 35, 52, 70, 41, 55, 31, 31, 21, 27, 23, 51, 37, 57, 28, 42, 41, 68, 43, 71, 34, 23, 41, 43, 46, 28, 9, 47, 18, 27, 21, 26, 32, 46, 53, 32, 31, 38, 33, 52, 46, 20, 43, 44, 47, 48, 27, 62, 54, 12, 55, 52, 17, 36, 8, 75, 30, 38, 42, 23, 41, 39, 30, 21, 34, 63
              |16, 37, 32, 21, 29, 21, 33, 58, 35, 44, 27, 39, 35, 28, 28, 34, 23, 53, 21, 20, 16, 81, 30, 62, 30, 39, 18, 55, 24, 9, 32, 35, 17, 17, 23, 30, 39, 17, 51, 44, 20, 40, 39, 25, 38, 45, 46, 41, 21, 23, 45, 56, 48, 23, 25, 39, 25, 28, 36, 65, 44, 31, 23, 13, 29, 28, 16, 21, 18, 41
              |27, 29, 35, 20, 35, 25, 41, 64, 37, 49, 27, 35, 28, 26, 23, 41, 27, 56, 21, 28, 25, 78, 35, 67, 30, 32, 27, 51, 33, 6, 21, 40, 4, 9, 17, 26, 36, 29, 52, 39, 22, 39, 36, 36, 41, 36, 45, 43, 31, 34, 38, 59, 52, 11, 38, 45, 17, 30, 25, 71, 39, 33, 30, 5, 33, 31, 18, 16, 22, 51
              |56, 8, 34, 24, 39, 32, 47, 60, 33, 47, 25, 20, 11, 21, 17, 45, 33, 47, 25, 40, 40, 54, 37, 60, 27, 10, 40, 29, 42, 35, 9, 40, 26, 37, 19, 19, 21, 46, 42, 19, 28, 28, 22, 50, 38, 6, 32, 34, 45, 46, 13, 51, 45, 19, 54, 45, 16, 30, 6, 65, 17, 32, 39, 28, 35, 34, 29, 21, 32, 58
              |85, 32, 50, 50, 57, 55, 64, 66, 48, 57, 46, 34, 34, 43, 41, 62, 55, 50, 50, 63, 64, 34, 55, 63, 46, 30, 63, 25, 63, 65, 40, 55, 56, 68, 46, 41, 35, 70, 47, 28, 52, 40, 35, 72, 51, 25, 37, 44, 68, 68, 25, 54, 51, 50, 76, 58, 44, 49, 37, 66, 27, 49, 60, 58, 54, 53, 55, 48, 56, 73
              |27, 27, 31, 16, 31, 21, 38, 60, 33, 46, 24, 33, 26, 22, 21, 38, 24, 52, 17, 25, 22, 75, 31, 63, 26, 30, 24, 48, 29, 6, 20, 37, 4, 12, 15, 23, 33, 26, 49, 37, 18, 36, 33, 33, 38, 34, 42, 39, 28, 30, 36, 56, 48, 11, 35, 41, 15, 27, 24, 67, 36, 30, 27, 1, 29, 28, 14, 13, 18, 48
              |25, 34, 41, 26, 41, 31, 47, 70, 43, 56, 33, 42, 34, 32, 30, 47, 34, 62, 27, 34, 31, 84, 41, 73, 36, 38, 32, 57, 38, 8, 25, 46, 9, 3, 24, 33, 42, 34, 59, 45, 28, 45, 42, 41, 47, 40, 52, 49, 36, 39, 44, 66, 58, 15, 42, 51, 23, 37, 28, 77, 45, 40, 36, 11, 39, 38, 24, 22, 28, 56
              |33, 44, 22, 26, 16, 18, 13, 37, 25, 26, 26, 38, 41, 30, 34, 15, 18, 38, 25, 10, 11, 73, 17, 42, 26, 44, 11, 51, 9, 33, 45, 20, 37, 41, 32, 33, 37, 7, 37, 44, 22, 34, 37, 0, 25, 53, 38, 31, 5, 4, 48, 39, 33, 41, 4, 21, 36, 23, 49, 45, 45, 23, 12, 32, 18, 19, 22, 31, 19, 17
              |43, 46, 21, 30, 15, 22, 7, 27, 23, 18, 28, 37, 43, 32, 37, 9, 20, 30, 29, 16, 19, 67, 16, 32, 27, 45, 17, 48, 12, 42, 50, 16, 45, 51, 36, 35, 36, 17, 30, 43, 26, 31, 36, 11, 20, 55, 34, 27, 14, 11, 48, 30, 26, 47, 13, 14, 40, 23, 53, 35, 44, 22, 15, 40, 18, 20, 28, 36, 24, 7
              |61, 16, 20, 24, 26, 27, 33, 39, 18, 28, 18, 6, 15, 17, 18, 31, 26, 24, 24, 34, 36, 37, 25, 38, 17, 13, 34, 10, 34, 44, 28, 25, 38, 50, 24, 15, 6, 41, 20, 4, 25, 9, 6, 42, 21, 20, 9, 14, 39, 38, 11, 29, 23, 34, 47, 28, 25, 20, 28, 42, 6, 19, 30, 37, 24, 23, 29, 26, 28, 43
              |46, 7, 23, 12, 27, 20, 36, 52, 23, 38, 14, 15, 6, 10, 5, 34, 21, 40, 13, 28, 28, 56, 26, 53, 16, 10, 27, 29, 30, 26, 9, 30, 18, 31, 7, 8, 16, 33, 36, 17, 16, 21, 16, 38, 28, 16, 26, 26, 33, 34, 16, 44, 37, 14, 42, 35, 5, 19, 12, 57, 17, 21, 27, 19, 24, 22, 17, 9, 19, 47
              |33, 37, 17, 20, 11, 12, 11, 36, 20, 24, 20, 32, 34, 23, 27, 13, 11, 35, 19, 4, 6, 69, 12, 41, 20, 38, 5, 45, 3, 29, 39, 16, 32, 38, 26, 26, 31, 6, 33, 37, 16, 28, 31, 6, 20, 46, 33, 26, 3, 2, 42, 36, 30, 35, 11, 18, 30, 17, 43, 44, 39, 17, 6, 27, 13, 13, 16, 25, 13, 19
              |68, 18, 29, 31, 36, 35, 42, 46, 27, 36, 27, 14, 18, 25, 24, 40, 34, 30, 32, 42, 44, 32, 34, 44, 25, 15, 43, 7, 43, 50, 30, 34, 43, 55, 30, 22, 14, 50, 27, 8, 33, 18, 15, 51, 30, 18, 17, 23, 48, 47, 9, 35, 31, 38, 56, 37, 29, 29, 29, 48, 8, 28, 39, 43, 33, 32, 37, 32, 37, 52
              |56, 27, 9, 23, 14, 20, 19, 25, 6, 12, 16, 15, 24, 18, 22, 17, 18, 13, 22, 24, 27, 43, 13, 26, 13, 25, 25, 22, 22, 43, 36, 10, 40, 51, 26, 19, 14, 31, 10, 19, 21, 7, 13, 30, 6, 34, 9, 1, 28, 26, 26, 17, 10, 39, 34, 13, 29, 13, 38, 30, 21, 10, 20, 38, 13, 13, 26, 28, 23, 28
              |31, 31, 15, 13, 12, 6, 16, 40, 18, 26, 15, 27, 28, 18, 21, 16, 7, 36, 12, 3, 3, 67, 12, 44, 16, 32, 2, 42, 7, 23, 32, 17, 25, 32, 19, 21, 27, 9, 34, 33, 9, 25, 27, 13, 20, 40, 31, 25, 8, 9, 37, 38, 31, 28, 17, 21, 23, 13, 36, 47, 34, 15, 6, 21, 11, 11, 9, 18, 6, 26
              |37, 31, 10, 15, 5, 7, 10, 34, 13, 20, 14, 25, 28, 17, 22, 10, 5, 30, 14, 5, 9, 62, 6, 38, 13, 31, 6, 39, 4, 29, 35, 11, 30, 38, 21, 20, 24, 12, 28, 31, 11, 21, 24, 13, 14, 40, 26, 20, 9, 9, 35, 32, 25, 32, 17, 15, 25, 10, 38, 41, 32, 11, 1, 26, 6, 7, 13, 21, 9, 21
              |32, 21, 24, 9, 26, 16, 33, 54, 26, 39, 16, 25, 19, 15, 13, 32, 18, 45, 10, 21, 19, 68, 25, 57, 19, 23, 20, 41, 25, 13, 16, 30, 9, 20, 7, 16, 25, 24, 42, 29, 12, 28, 26, 31, 31, 29, 34, 32, 25, 27, 29, 49, 41, 10, 34, 35, 9, 20, 21, 60, 29, 23, 22, 6, 23, 21, 9, 5, 13, 43
              |49, 43, 18, 30, 13, 23, 5, 21, 19, 11, 26, 34, 40, 30, 35, 6, 20, 24, 29, 19, 22, 61, 14, 26, 25, 42, 20, 42, 14, 45, 49, 11, 46, 54, 36, 33, 33, 22, 24, 39, 26, 27, 32, 17, 15, 52, 29, 22, 18, 16, 45, 23, 19, 48, 20, 8, 40, 21, 52, 28, 40, 20, 16, 42, 16, 18, 29, 36, 25, 7
              |45, 9, 20, 10, 24, 17, 33, 49, 20, 35, 11, 13, 6, 7, 2, 31, 18, 37, 11, 25, 25, 55, 23, 50, 13, 10, 25, 28, 28, 26, 12, 27, 19, 32, 6, 5, 14, 31, 33, 16, 14, 19, 14, 36, 25, 18, 24, 24, 31, 31, 16, 42, 34, 16, 39, 32, 6, 16, 15, 54, 16, 18, 24, 19, 21, 19, 15, 8, 17, 44
              |41, 36, 12, 21, 6, 13, 4, 29, 14, 16, 18, 28, 33, 22, 27, 5, 11, 27, 20, 9, 13, 62, 7, 33, 17, 36, 11, 40, 5, 35, 40, 9, 36, 44, 27, 25, 28, 14, 26, 34, 17, 23, 27, 11, 13, 45, 27, 20, 10, 8, 39, 28, 22, 38, 16, 11, 31, 14, 44, 36, 35, 13, 6, 32, 9, 10, 19, 27, 15, 15
              |39, 27, 7, 12, 5, 5, 13, 34, 10, 20, 9, 21, 24, 13, 18, 12, 2, 28, 11, 8, 11, 59, 5, 37, 9, 27, 9, 35, 8, 29, 31, 11, 29, 38, 18, 16, 20, 16, 26, 27, 8, 17, 20, 17, 13, 36, 23, 17, 13, 13, 31, 31, 23, 30, 21, 15, 22, 6, 35, 41, 28, 7, 5, 25, 4, 3, 12, 18, 8, 24
              |37, 48, 25, 31, 18, 23, 13, 34, 27, 25, 30, 41, 45, 34, 38, 15, 22, 37, 30, 16, 17, 74, 20, 39, 30, 48, 16, 53, 13, 39, 51, 21, 43, 48, 37, 37, 40, 13, 37, 47, 27, 36, 40, 6, 25, 57, 40, 33, 11, 9, 52, 37, 32, 46, 6, 20, 41, 26, 54, 41, 48, 26, 16, 38, 21, 23, 28, 36, 24, 12
              |62, 24, 16, 26, 22, 26, 27, 30, 13, 20, 19, 12, 22, 20, 23, 25, 24, 15, 26, 31, 34, 36, 21, 29, 16, 21, 32, 13, 30, 47, 35, 19, 42, 54, 28, 19, 11, 38, 11, 13, 26, 6, 10, 38, 14, 29, 0, 7, 36, 34, 20, 20, 14, 40, 43, 21, 30, 18, 36, 33, 15, 16, 27, 41, 20, 20, 30, 30, 28, 36
              |31, 45, 24, 27, 18, 19, 15, 39, 27, 28, 28, 39, 42, 31, 35, 17, 19, 40, 26, 11, 12, 75, 19, 44, 28, 45, 12, 53, 10, 32, 46, 22, 37, 41, 33, 34, 39, 7, 39, 45, 23, 35, 38, 2, 26, 54, 40, 33, 6, 6, 50, 41, 35, 41, 3, 23, 37, 24, 50, 47, 46, 25, 14, 32, 20, 21, 23, 32, 20, 18
              |73, 35, 27, 38, 32, 38, 35, 28, 24, 24, 31, 23, 33, 32, 35, 33, 36, 13, 38, 42, 45, 26, 31, 24, 29, 32, 43, 15, 40, 60, 46, 27, 55, 67, 40, 32, 23, 49, 11, 22, 38, 19, 22, 48, 23, 38, 13, 17, 46, 44, 29, 17, 16, 52, 52, 28, 42, 30, 47, 28, 24, 27, 38, 53, 31, 31, 42, 42, 40, 41
              |39, 46, 22, 29, 16, 21, 9, 31, 24, 22, 28, 38, 43, 32, 36, 12, 20, 34, 28, 14, 16, 71, 17, 37, 27, 45, 15, 50, 10, 39, 49, 18, 42, 47, 35, 34, 37, 13, 34, 44, 25, 33, 37, 6, 22, 55, 37, 30, 10, 8, 49, 34, 29, 45, 9, 17, 39, 24, 52, 39, 45, 23, 14, 37, 18, 20, 26, 35, 22, 11
              |50, 25, 4, 18, 10, 15, 16, 28, 1, 14, 11, 14, 22, 14, 19, 14, 12, 18, 17, 19, 22, 48, 9, 30, 8, 24, 20, 25, 18, 38, 33, 8, 35, 46, 22, 15, 13, 26, 15, 19, 16, 8, 13, 26, 5, 33, 12, 6, 24, 22, 25, 22, 14, 34, 30, 12, 25, 7, 35, 34, 21, 4, 15, 33, 8, 8, 20, 23, 17, 26
              |74, 21, 37, 37, 44, 43, 51, 55, 35, 45, 34, 21, 22, 31, 29, 49, 42, 39, 38, 50, 51, 33, 42, 53, 33, 18, 50, 14, 51, 54, 31, 43, 46, 58, 35, 28, 22, 57, 35, 16, 40, 27, 23, 59, 39, 16, 25, 32, 55, 55, 12, 44, 40, 40, 64, 46, 33, 36, 28, 56, 14, 36, 47, 47, 41, 40, 43, 37, 43, 61
              |46, 19, 7, 11, 13, 11, 21, 36, 7, 22, 4, 11, 16, 6, 11, 19, 10, 25, 10, 18, 20, 51, 11, 38, 1, 18, 18, 25, 18, 32, 25, 14, 28, 39, 14, 8, 10, 25, 22, 17, 10, 9, 10, 27, 12, 27, 16, 12, 23, 23, 21, 29, 22, 27, 31, 19, 17, 4, 28, 42, 18, 5, 15, 26, 9, 8, 15, 16, 13, 32
              |33, 23, 16, 4, 17, 6, 24, 45, 19, 31, 10, 22, 20, 11, 13, 23, 9, 38, 4, 12, 12, 64, 16, 48, 13, 24, 12, 38, 16, 19, 23, 22, 17, 27, 9, 14, 22, 17, 35, 27, 4, 23, 22, 22, 23, 32, 29, 25, 17, 19, 30, 41, 33, 19, 26, 26, 13, 12, 27, 52, 28, 15, 13, 14, 14, 13, 1, 9, 4, 34
              |40, 57, 33, 39, 27, 31, 20, 37, 35, 31, 39, 50, 54, 43, 47, 22, 31, 43, 38, 24, 25, 81, 28, 43, 38, 57, 24, 61, 21, 45, 59, 29, 50, 53, 45, 45, 49, 20, 44, 55, 35, 44, 48, 14, 33, 66, 48, 40, 19, 17, 60, 42, 39, 54, 11, 27, 49, 35, 63, 45, 57, 35, 25, 45, 30, 31, 36, 45, 32, 15
              |34, 20, 18, 3, 19, 9, 26, 48, 20, 33, 10, 21, 18, 10, 11, 26, 11, 39, 4, 16, 15, 64, 18, 50, 13, 22, 15, 37, 19, 18, 20, 24, 15, 26, 6, 12, 21, 20, 36, 26, 5, 23, 21, 26, 24, 29, 29, 26, 21, 22, 28, 42, 35, 16, 29, 29, 10, 13, 24, 54, 26, 16, 16, 12, 17, 15, 4, 5, 7, 37
              |41, 24, 6, 9, 8, 5, 16, 36, 9, 21, 6, 17, 21, 10, 15, 15, 3, 28, 9, 11, 13, 57, 7, 38, 6, 24, 12, 32, 12, 28, 28, 12, 27, 37, 15, 13, 17, 18, 25, 23, 6, 15, 17, 21, 13, 33, 21, 16, 17, 16, 28, 31, 23, 27, 25, 17, 19, 3, 31, 42, 24, 5, 8, 23, 5, 3, 11, 16, 8, 27
              |21, 33, 26, 16, 24, 15, 29, 53, 29, 39, 22, 34, 31, 23, 24, 29, 18, 48, 16, 15, 12, 76, 24, 57, 24, 35, 14, 50, 19, 11, 30, 30, 17, 20, 19, 25, 34, 14, 45, 39, 15, 35, 34, 21, 32, 42, 41, 36, 17, 19, 41, 50, 43, 22, 23, 34, 22, 23, 34, 60, 40, 26, 18, 12, 23, 22, 11, 17, 13, 37
              |32, 37, 17, 19, 12, 11, 13, 38, 20, 25, 20, 32, 34, 23, 27, 14, 11, 36, 18, 4, 5, 69, 13, 42, 20, 37, 4, 46, 4, 28, 39, 17, 31, 37, 25, 26, 31, 5, 34, 38, 15, 28, 31, 7, 21, 46, 34, 27, 2, 3, 42, 37, 31, 34, 11, 20, 29, 17, 43, 45, 39, 18, 6, 26, 13, 14, 16, 24, 12, 21
              |38, 38, 14, 21, 8, 13, 6, 31, 17, 19, 20, 30, 34, 24, 28, 8, 12, 30, 20, 8, 11, 65, 9, 36, 19, 37, 9, 43, 3, 34, 41, 12, 36, 42, 27, 26, 30, 11, 29, 36, 17, 26, 29, 8, 16, 47, 30, 23, 8, 5, 41, 31, 25, 38, 13, 14, 32, 16, 45, 39, 37, 16, 6, 31, 11, 12, 19, 27, 15, 15
              |62, 25, 16, 26, 22, 26, 27, 29, 13, 19, 19, 13, 23, 20, 23, 25, 24, 14, 26, 31, 34, 36, 21, 28, 17, 22, 32, 14, 30, 47, 36, 18, 43, 55, 29, 20, 12, 38, 10, 14, 26, 7, 11, 38, 14, 30, 1, 7, 36, 34, 21, 19, 13, 40, 42, 21, 30, 18, 37, 32, 16, 16, 27, 41, 20, 20, 30, 30, 28, 35
              |69, 36, 23, 36, 27, 34, 29, 22, 20, 17, 29, 23, 34, 30, 34, 27, 32, 6, 36, 37, 41, 32, 26, 19, 26, 33, 39, 19, 35, 57, 46, 22, 53, 65, 39, 30, 22, 44, 5, 24, 35, 17, 22, 42, 18, 40, 12, 13, 41, 39, 31, 11, 10, 51, 46, 22, 41, 26, 47, 23, 26, 24, 33, 51, 27, 27, 39, 40, 37, 35
              |40, 17, 13, 3, 16, 9, 24, 43, 14, 28, 4, 15, 14, 4, 7, 23, 9, 33, 3, 16, 17, 58, 15, 45, 7, 18, 16, 31, 19, 24, 20, 20, 21, 32, 7, 7, 15, 23, 30, 20, 5, 17, 15, 27, 19, 26, 23, 20, 22, 22, 23, 37, 29, 20, 31, 25, 11, 9, 24, 49, 21, 11, 15, 18, 13, 11, 8, 8, 9, 35
              |61, 31, 15, 28, 19, 26, 22, 22, 12, 12, 21, 18, 28, 23, 27, 20, 23, 8, 28, 29, 33, 39, 18, 22, 18, 28, 30, 21, 27, 49, 41, 14, 46, 57, 32, 24, 17, 36, 4, 21, 27, 11, 16, 34, 10, 37, 8, 6, 33, 31, 28, 13, 6, 44, 39, 15, 34, 18, 42, 26, 23, 16, 25, 43, 18, 19, 31, 33, 29, 29
              |41, 25, 6, 10, 7, 5, 15, 35, 9, 20, 7, 18, 21, 11, 16, 14, 3, 27, 9, 11, 13, 57, 6, 38, 6, 24, 11, 32, 11, 29, 29, 11, 28, 37, 16, 13, 17, 18, 25, 24, 7, 15, 17, 20, 12, 34, 21, 16, 16, 16, 28, 30, 23, 28, 24, 16, 20, 3, 32, 41, 25, 5, 8, 24, 4, 2, 11, 16, 8, 26
              |72, 25, 29, 35, 35, 37, 41, 40, 26, 33, 29, 17, 25, 28, 29, 39, 36, 25, 35, 44, 46, 26, 34, 38, 27, 22, 44, 1, 43, 55, 37, 32, 49, 61, 35, 26, 17, 51, 21, 13, 36, 18, 17, 51, 28, 26, 14, 21, 49, 48, 17, 29, 26, 44, 56, 35, 35, 30, 36, 42, 14, 28, 40, 48, 33, 33, 40, 37, 39, 50
              |28, 31, 19, 13, 16, 8, 20, 45, 22, 31, 16, 29, 29, 19, 21, 21, 10, 40, 12, 7, 4, 70, 16, 48, 18, 32, 5, 45, 11, 19, 31, 22, 22, 28, 18, 21, 29, 9, 37, 35, 10, 28, 29, 15, 24, 40, 34, 29, 10, 12, 38, 42, 35, 25, 18, 25, 22, 16, 35, 52, 35, 18, 10, 17, 15, 15, 8, 17, 6, 29
              |71, 31, 25, 35, 30, 35, 35, 30, 22, 24, 28, 19, 29, 29, 31, 32, 33, 15, 35, 40, 43, 27, 29, 28, 26, 27, 41, 11, 38, 56, 42, 26, 51, 63, 37, 28, 19, 47, 12, 18, 35, 16, 18, 46, 22, 34, 9, 15, 44, 43, 24, 19, 17, 48, 51, 27, 38, 27, 42, 31, 20, 25, 36, 50, 29, 29, 39, 38, 37, 42
              |35, 27, 39, 24, 40, 30, 48, 69, 40, 54, 30, 36, 27, 28, 24, 47, 33, 59, 25, 35, 33, 77, 40, 71, 33, 30, 34, 50, 39, 14, 16, 45, 7, 13, 19, 28, 36, 37, 55, 38, 27, 41, 37, 44, 45, 31, 47, 45, 39, 41, 36, 63, 55, 7, 46, 50, 17, 34, 19, 75, 38, 37, 37, 12, 38, 36, 24, 18, 28, 58
              |19, 40, 28, 22, 24, 18, 26, 51, 31, 38, 27, 39, 38, 29, 31, 27, 20, 48, 22, 14, 10, 80, 25, 55, 28, 42, 12, 55, 17, 19, 38, 30, 26, 27, 26, 31, 39, 8, 46, 45, 20, 38, 39, 15, 33, 49, 44, 38, 12, 15, 47, 50, 43, 31, 16, 33, 30, 26, 43, 58, 46, 28, 18, 21, 24, 24, 17, 25, 16, 32
              |27, 26, 26, 12, 26, 16, 32, 55, 28, 41, 19, 29, 24, 19, 18, 32, 19, 48, 13, 19, 17, 72, 26, 58, 22, 28, 18, 45, 24, 9, 21, 31, 9, 17, 12, 20, 30, 21, 44, 34, 13, 32, 30, 28, 33, 34, 38, 35, 23, 25, 34, 51, 43, 13, 30, 36, 14, 22, 25, 62, 34, 25, 22, 4, 24, 23, 9, 10, 13, 42
              |33, 39, 18, 21, 12, 13, 12, 37, 21, 24, 21, 33, 36, 25, 29, 13, 13, 36, 20, 5, 7, 70, 13, 41, 21, 39, 6, 47, 4, 30, 40, 17, 33, 39, 27, 28, 32, 6, 34, 39, 17, 29, 32, 5, 21, 48, 34, 27, 2, 1, 43, 37, 30, 36, 9, 19, 31, 18, 44, 44, 40, 19, 7, 28, 14, 15, 17, 26, 14, 19
              |27, 31, 19, 12, 16, 8, 21, 45, 22, 31, 16, 29, 28, 18, 21, 21, 10, 40, 12, 8, 5, 70, 17, 49, 18, 32, 6, 44, 12, 18, 30, 22, 21, 27, 17, 21, 29, 10, 38, 34, 9, 28, 28, 16, 25, 40, 34, 29, 11, 13, 37, 43, 35, 25, 19, 26, 21, 16, 34, 52, 35, 18, 11, 16, 16, 15, 7, 16, 6, 30
              |35, 18, 23, 8, 25, 15, 32, 53, 24, 38, 14, 22, 16, 12, 10, 32, 17, 43, 9, 21, 20, 65, 24, 55, 17, 20, 21, 38, 25, 16, 14, 29, 11, 22, 4, 13, 22, 25, 40, 26, 11, 26, 23, 31, 29, 26, 32, 30, 26, 28, 26, 47, 39, 10, 35, 34, 6, 18, 19, 59, 26, 21, 22, 9, 22, 20, 9, 2, 13, 43
              |48, 26, 1, 17, 7, 13, 14, 29, 2, 14, 10, 17, 23, 14, 19, 12, 10, 20, 16, 16, 19, 51, 5, 31, 8, 25, 17, 28, 15, 36, 33, 6, 34, 45, 22, 16, 16, 23, 17, 22, 14, 11, 15, 23, 5, 35, 16, 9, 20, 19, 28, 23, 16, 34, 27, 11, 25, 6, 36, 35, 24, 3, 12, 31, 5, 5, 18, 22, 15, 24
              |36, 27, 10, 10, 9, 2, 15, 38, 13, 23, 10, 22, 24, 13, 17, 15, 2, 32, 9, 6, 8, 62, 8, 41, 11, 28, 7, 37, 9, 25, 30, 14, 26, 34, 16, 16, 22, 13, 29, 28, 6, 20, 22, 16, 16, 36, 26, 20, 12, 12, 32, 34, 27, 27, 21, 19, 20, 8, 34, 45, 29, 10, 5, 21, 7, 6, 9, 16, 4, 26
              |41, 39, 15, 24, 9, 16, 3, 28, 17, 16, 22, 31, 36, 26, 30, 5, 14, 28, 23, 11, 14, 64, 10, 33, 21, 39, 13, 43, 7, 37, 44, 11, 39, 46, 30, 28, 30, 14, 27, 37, 20, 26, 30, 10, 15, 48, 30, 22, 11, 8, 42, 29, 23, 41, 14, 11, 34, 17, 47, 36, 38, 16, 9, 34, 12, 13, 22, 30, 18, 12
              |47, 9, 18, 10, 23, 17, 31, 47, 18, 32, 9, 10, 6, 5, 2, 30, 17, 34, 11, 25, 25, 53, 22, 48, 11, 9, 25, 26, 27, 28, 15, 25, 22, 34, 8, 3, 11, 31, 31, 14, 13, 16, 11, 35, 23, 18, 21, 21, 30, 31, 15, 39, 31, 18, 39, 30, 9, 14, 17, 52, 14, 16, 23, 21, 20, 18, 16, 10, 17, 42
              |51, 9, 33, 22, 37, 30, 46, 61, 33, 47, 24, 22, 12, 20, 15, 44, 31, 48, 23, 38, 37, 59, 36, 62, 26, 13, 37, 33, 40, 30, 4, 40, 21, 32, 16, 18, 23, 43, 44, 22, 26, 29, 24, 48, 38, 11, 34, 35, 43, 44, 17, 53, 46, 14, 51, 45, 12, 29, 2, 66, 21, 31, 37, 24, 34, 32, 26, 17, 29, 57
              |40, 32, 9, 17, 3, 9, 8, 31, 12, 17, 14, 25, 29, 18, 23, 8, 7, 27, 16, 8, 11, 61, 4, 35, 14, 32, 9, 38, 5, 32, 36, 9, 33, 41, 23, 21, 24, 14, 25, 30, 13, 20, 23, 13, 12, 41, 25, 18, 11, 9, 35, 29, 22, 34, 18, 12, 27, 10, 40, 38, 32, 10, 4, 29, 5, 6, 16, 23, 12, 19
              |53, 38, 13, 28, 11, 22, 9, 18, 13, 4, 22, 27, 35, 26, 31, 7, 19, 16, 27, 21, 24, 53, 12, 21, 20, 37, 22, 35, 17, 45, 45, 6, 45, 54, 33, 28, 26, 26, 16, 32, 25, 20, 25, 22, 8, 46, 21, 14, 22, 20, 38, 16, 11, 46, 26, 1, 37, 17, 48, 25, 34, 15, 17, 41, 13, 15, 28, 34, 24, 15
              |33, 39, 18, 21, 12, 13, 12, 37, 21, 24, 21, 33, 36, 25, 29, 13, 13, 36, 20, 5, 7, 70, 13, 41, 21, 39, 6, 47, 4, 30, 40, 17, 33, 39, 27, 28, 32, 6, 34, 39, 17, 29, 32, 5, 21, 48, 34, 27, 2, 1, 43, 37, 30, 36, 9, 19, 31, 18, 44, 44, 40, 19, 7, 28, 14, 15, 17, 26, 14, 19
              |20, 33, 29, 17, 27, 17, 32, 56, 31, 42, 24, 35, 31, 24, 24, 32, 20, 50, 17, 18, 15, 78, 27, 59, 26, 35, 17, 51, 22, 8, 28, 33, 14, 17, 19, 26, 35, 17, 47, 40, 17, 36, 35, 25, 35, 41, 42, 38, 20, 22, 41, 53, 45, 20, 26, 37, 21, 25, 33, 63, 40, 28, 21, 9, 26, 25, 12, 17, 15, 40
              |29, 39, 20, 21, 15, 13, 15, 40, 23, 28, 22, 34, 36, 25, 29, 17, 14, 39, 20, 6, 5, 72, 16, 45, 23, 40, 6, 49, 7, 27, 40, 20, 31, 36, 26, 28, 34, 2, 37, 40, 17, 31, 34, 6, 24, 48, 37, 30, 1, 4, 44, 40, 34, 35, 9, 22, 30, 20, 44, 48, 41, 21, 9, 26, 16, 17, 17, 25, 14, 22
              |37, 36, 13, 19, 7, 11, 8, 33, 16, 20, 18, 29, 33, 22, 26, 9, 10, 31, 18, 6, 9, 65, 9, 37, 18, 36, 7, 42, 1, 32, 39, 12, 34, 41, 25, 25, 28, 10, 29, 35, 15, 25, 28, 9, 16, 45, 29, 23, 7, 5, 40, 32, 25, 36, 13, 14, 30, 14, 43, 40, 36, 14, 4, 29, 9, 11, 17, 25, 13, 17
              |39, 32, 9, 16, 4, 8, 9, 33, 12, 19, 14, 25, 29, 18, 22, 9, 6, 28, 15, 6, 10, 61, 5, 36, 13, 32, 8, 38, 4, 31, 36, 10, 32, 40, 22, 21, 24, 13, 26, 31, 12, 21, 24, 13, 13, 41, 26, 19, 10, 9, 35, 30, 23, 33, 17, 13, 26, 10, 39, 40, 32, 10, 2, 27, 5, 6, 15, 22, 10, 20
              |16, 40, 31, 23, 27, 20, 30, 55, 34, 42, 28, 40, 38, 30, 31, 31, 22, 52, 23, 17, 13, 82, 28, 59, 30, 42, 16, 56, 21, 15, 37, 33, 23, 23, 26, 32, 40, 13, 49, 46, 21, 40, 40, 20, 36, 49, 46, 41, 16, 19, 48, 54, 47, 29, 20, 36, 29, 28, 41, 62, 46, 30, 21, 18, 27, 27, 17, 24, 18, 37
              |40, 17, 32, 17, 34, 25, 42, 61, 33, 47, 22, 26, 17, 19, 15, 41, 27, 50, 18, 31, 30, 67, 34, 63, 25, 20, 31, 40, 35, 19, 7, 38, 9, 21, 11, 19, 27, 35, 47, 29, 21, 32, 28, 41, 38, 22, 37, 37, 36, 38, 26, 55, 47, 3, 44, 43, 8, 27, 11, 67, 28, 30, 32, 13, 32, 30, 19, 11, 23, 53
              |34, 38, 50, 34, 51, 40, 57, 79, 51, 65, 41, 47, 38, 39, 35, 57, 43, 70, 35, 44, 41, 88, 50, 82, 44, 41, 43, 61, 48, 19, 27, 56, 17, 11, 30, 39, 48, 44, 67, 50, 37, 52, 48, 52, 56, 41, 58, 57, 47, 49, 47, 74, 66, 19, 53, 60, 28, 45, 29, 86, 49, 48, 46, 21, 48, 47, 34, 29, 38, 67
              |30, 23, 21, 7, 21, 11, 28, 50, 23, 36, 14, 25, 21, 14, 14, 28, 14, 43, 8, 16, 14, 68, 21, 53, 17, 25, 15, 41, 20, 14, 21, 27, 13, 22, 9, 16, 25, 19, 39, 30, 8, 27, 25, 25, 28, 32, 33, 30, 20, 22, 31, 46, 38, 15, 28, 31, 12, 17, 25, 57, 30, 20, 17, 9, 19, 18, 4, 7, 9, 38
              |49, 18, 8, 13, 14, 14, 22, 35, 7, 21, 6, 8, 15, 8, 12, 20, 13, 24, 13, 21, 23, 48, 13, 36, 4, 17, 21, 23, 21, 34, 26, 15, 30, 42, 16, 9, 8, 28, 20, 14, 13, 6, 7, 29, 12, 26, 13, 10, 26, 25, 19, 28, 20, 29, 34, 19, 19, 7, 28, 40, 16, 6, 17, 28, 11, 10, 17, 18, 16, 33
              |36, 31, 11, 14, 7, 6, 12, 35, 14, 21, 13, 25, 28, 17, 21, 12, 5, 31, 13, 4, 7, 63, 7, 39, 14, 31, 5, 39, 4, 28, 34, 13, 29, 37, 20, 20, 25, 11, 29, 31, 10, 22, 24, 13, 16, 40, 27, 21, 9, 8, 35, 33, 26, 31, 17, 16, 25, 10, 38, 42, 32, 11, 1, 25, 7, 7, 12, 20, 8, 22
              |50, 5, 28, 18, 33, 26, 41, 56, 28, 42, 19, 17, 7, 15, 10, 40, 27, 43, 19, 34, 34, 55, 32, 57, 21, 9, 33, 29, 36, 30, 6, 35, 21, 33, 13, 13, 18, 39, 39, 18, 22, 24, 19, 44, 33, 11, 29, 30, 39, 40, 14, 48, 41, 15, 48, 40, 9, 24, 7, 61, 16, 26, 33, 23, 30, 28, 23, 14, 25, 52
              |61, 36, 16, 30, 18, 27, 19, 17, 13, 7, 24, 23, 33, 26, 31, 17, 24, 6, 30, 28, 32, 42, 17, 17, 21, 33, 30, 26, 25, 50, 45, 12, 48, 59, 35, 27, 22, 35, 5, 26, 28, 15, 21, 32, 9, 42, 14, 9, 31, 29, 33, 9, 1, 47, 36, 11, 38, 20, 47, 22, 28, 17, 24, 45, 18, 19, 33, 36, 29, 25
              |25, 47, 29, 29, 23, 22, 21, 45, 32, 35, 31, 43, 45, 34, 37, 23, 23, 46, 28, 15, 13, 81, 25, 50, 32, 48, 14, 58, 15, 30, 47, 28, 36, 38, 34, 37, 43, 8, 45, 49, 25, 40, 42, 8, 32, 57, 45, 39, 9, 11, 53, 47, 41, 41, 6, 29, 38, 29, 51, 53, 50, 30, 18, 31, 25, 26, 24, 33, 22, 24
              |43, 33, 8, 19, 2, 12, 6, 28, 11, 14, 16, 25, 30, 20, 25, 5, 9, 25, 18, 10, 14, 59, 4, 32, 14, 33, 12, 37, 7, 35, 38, 6, 35, 44, 25, 22, 24, 16, 23, 30, 15, 19, 23, 15, 10, 42, 24, 17, 13, 11, 36, 26, 20, 37, 19, 9, 29, 11, 41, 35, 32, 10, 6, 31, 5, 7, 18, 25, 14, 17
              |39, 16, 16, 3, 19, 11, 27, 46, 17, 31, 7, 16, 13, 5, 6, 26, 12, 36, 4, 18, 18, 59, 18, 48, 10, 17, 18, 32, 21, 22, 17, 23, 18, 29, 4, 7, 16, 24, 33, 21, 7, 19, 16, 29, 22, 25, 25, 23, 24, 25, 22, 40, 32, 17, 32, 28, 8, 12, 21, 52, 21, 14, 18, 16, 16, 14, 8, 5, 10, 38
              |43, 26, 3, 13, 5, 8, 14, 32, 6, 17, 8, 18, 22, 12, 17, 12, 5, 25, 12, 12, 15, 55, 4, 35, 7, 25, 13, 31, 12, 32, 31, 9, 31, 40, 18, 15, 17, 19, 22, 23, 10, 14, 16, 20, 9, 34, 19, 13, 17, 16, 28, 28, 20, 31, 25, 14, 22, 3, 34, 39, 25, 3, 9, 27, 2, 1, 14, 19, 11, 25
              |36, 21, 13, 3, 15, 5, 22, 43, 16, 28, 7, 19, 18, 9, 11, 21, 7, 35, 2, 13, 13, 61, 14, 46, 9, 22, 12, 35, 16, 22, 23, 19, 20, 30, 9, 11, 19, 18, 32, 25, 1, 20, 19, 23, 20, 30, 26, 22, 18, 19, 27, 38, 30, 20, 27, 24, 13, 9, 27, 49, 25, 12, 12, 16, 12, 10, 4, 9, 4, 33
              |43, 46, 21, 30, 15, 22, 8, 28, 23, 19, 28, 38, 43, 32, 37, 10, 21, 31, 29, 16, 19, 68, 17, 33, 27, 46, 17, 49, 12, 41, 50, 16, 44, 50, 36, 35, 37, 17, 31, 43, 26, 32, 36, 10, 21, 55, 35, 28, 13, 11, 49, 31, 27, 47, 12, 15, 41, 24, 54, 35, 45, 23, 15, 40, 18, 20, 28, 36, 24, 7
              |22, 37, 24, 18, 21, 14, 23, 48, 27, 35, 23, 35, 34, 25, 27, 24, 16, 45, 18, 10, 7, 76, 21, 52, 24, 38, 9, 51, 14, 18, 35, 26, 24, 27, 23, 27, 35, 7, 43, 41, 16, 34, 35, 15, 29, 46, 40, 34, 10, 13, 43, 47, 40, 28, 16, 30, 26, 22, 39, 56, 41, 24, 14, 18, 21, 20, 13, 21, 12, 31
              |39, 26, 42, 27, 44, 34, 51, 72, 43, 57, 33, 37, 27, 30, 26, 50, 36, 61, 28, 39, 37, 77, 43, 73, 35, 30, 38, 50, 43, 19, 15, 48, 11, 16, 21, 29, 37, 41, 57, 39, 30, 43, 38, 48, 48, 30, 48, 47, 43, 45, 35, 65, 57, 9, 50, 53, 19, 37, 17, 77, 38, 40, 40, 16, 41, 39, 27, 21, 31, 62
              |44, 14, 13, 7, 17, 12, 26, 42, 14, 28, 4, 11, 11, 0, 5, 24, 12, 31, 7, 20, 21, 54, 16, 44, 6, 14, 20, 27, 22, 28, 19, 20, 23, 34, 8, 3, 11, 26, 28, 16, 9, 14, 11, 30, 19, 23, 20, 18, 25, 26, 19, 36, 28, 21, 34, 25, 11, 9, 22, 48, 17, 11, 18, 21, 14, 12, 12, 10, 13, 37
              |38, 34, 11, 18, 5, 10, 8, 32, 14, 18, 16, 27, 31, 20, 25, 8, 8, 29, 17, 6, 10, 63, 6, 36, 16, 34, 8, 40, 3, 32, 38, 10, 33, 41, 24, 23, 26, 12, 27, 33, 14, 22, 26, 11, 14, 43, 27, 20, 9, 7, 38, 30, 24, 35, 16, 13, 28, 12, 41, 39, 34, 12, 3, 29, 7, 8, 16, 24, 12, 18
              |57, 53, 27, 40, 23, 33, 16, 16, 28, 16, 36, 42, 50, 40, 45, 16, 30, 26, 39, 29, 32, 63, 24, 22, 34, 51, 30, 49, 24, 55, 59, 20, 56, 64, 46, 42, 41, 31, 28, 47, 36, 35, 40, 24, 23, 61, 36, 29, 27, 24, 53, 23, 23, 58, 26, 16, 50, 31, 62, 23, 48, 29, 26, 52, 26, 28, 39, 46, 35, 7
              |36, 18, 28, 13, 30, 20, 37, 58, 29, 43, 19, 25, 17, 16, 13, 37, 22, 48, 14, 26, 25, 67, 29, 60, 22, 21, 25, 40, 30, 15, 11, 34, 7, 20, 8, 16, 26, 30, 44, 28, 16, 30, 26, 36, 34, 25, 36, 34, 31, 32, 27, 52, 44, 5, 39, 39, 6, 23, 16, 64, 28, 26, 27, 9, 27, 25, 14, 7, 18, 48
              |41, 27, 5, 13, 4, 7, 12, 32, 8, 18, 9, 20, 24, 14, 18, 11, 4, 26, 12, 10, 13, 57, 3, 35, 9, 27, 11, 33, 9, 31, 32, 9, 30, 40, 19, 16, 19, 17, 23, 26, 10, 16, 19, 18, 10, 36, 21, 15, 15, 14, 30, 29, 21, 31, 22, 13, 23, 5, 35, 39, 27, 5, 6, 27, 1, 1, 14, 19, 10, 23
              |67, 14, 36, 32, 42, 38, 49, 57, 34, 46, 30, 19, 16, 26, 23, 48, 38, 42, 32, 46, 47, 42, 40, 56, 30, 12, 46, 19, 47, 47, 22, 42, 38, 50, 28, 23, 20, 53, 38, 15, 35, 27, 21, 56, 38, 7, 27, 32, 52, 52, 8, 47, 41, 32, 60, 46, 26, 33, 20, 60, 13, 34, 44, 40, 39, 37, 37, 30, 39, 60
              |36, 42, 19, 25, 13, 17, 9, 33, 22, 22, 24, 35, 39, 28, 33, 11, 16, 34, 24, 10, 12, 70, 14, 38, 24, 42, 11, 48, 7, 35, 45, 16, 38, 44, 31, 31, 35, 10, 33, 41, 21, 31, 34, 4, 21, 51, 35, 28, 7, 4, 46, 35, 29, 41, 8, 17, 35, 21, 49, 41, 42, 21, 10, 33, 16, 17, 22, 31, 18, 14
              |42, 45, 21, 29, 14, 21, 7, 28, 23, 19, 27, 37, 42, 31, 36, 9, 20, 31, 28, 15, 18, 68, 16, 34, 26, 45, 16, 48, 11, 40, 49, 16, 43, 49, 36, 34, 36, 16, 31, 43, 25, 31, 35, 9, 20, 54, 35, 27, 13, 10, 48, 31, 26, 46, 12, 15, 40, 23, 53, 36, 44, 22, 14, 39, 17, 19, 27, 35, 23, 8
              |54, 16, 13, 17, 19, 19, 26, 36, 11, 23, 11, 4, 14, 11, 13, 24, 18, 23, 17, 26, 28, 43, 18, 36, 9, 14, 27, 17, 26, 38, 26, 18, 33, 45, 19, 10, 3, 33, 19, 9, 18, 4, 2, 35, 15, 23, 9, 10, 31, 31, 15, 28, 20, 30, 39, 22, 21, 12, 28, 41, 11, 11, 23, 32, 16, 15, 22, 21, 21, 37
              |67, 30, 21, 32, 26, 32, 30, 27, 18, 20, 25, 18, 28, 26, 29, 28, 29, 11, 32, 36, 39, 31, 25, 25, 22, 27, 37, 14, 34, 53, 41, 22, 49, 61, 34, 26, 17, 43, 8, 18, 32, 13, 16, 42, 17, 34, 6, 11, 40, 38, 25, 16, 13, 46, 46, 23, 36, 24, 42, 29, 20, 21, 32, 47, 25, 25, 36, 36, 34, 37
              |52, 4, 29, 20, 34, 28, 42, 57, 29, 43, 21, 17, 7, 17, 12, 41, 29, 43, 21, 36, 36, 54, 33, 57, 22, 8, 35, 28, 38, 32, 8, 36, 23, 35, 15, 14, 18, 41, 39, 17, 24, 25, 19, 46, 34, 9, 29, 31, 41, 42, 13, 48, 41, 17, 50, 41, 12, 26, 7, 61, 16, 27, 34, 25, 31, 29, 25, 16, 27, 54
              |42, 12, 17, 6, 21, 14, 29, 47, 18, 32, 8, 14, 9, 4, 2, 28, 15, 36, 7, 22, 22, 57, 20, 48, 10, 13, 21, 29, 24, 25, 15, 24, 19, 31, 4, 4, 14, 28, 32, 18, 10, 18, 14, 32, 23, 21, 24, 22, 27, 28, 19, 40, 32, 16, 36, 29, 7, 13, 18, 52, 18, 15, 21, 18, 18, 16, 12, 6, 13, 40
              |52, 4, 28, 19, 33, 27, 41, 56, 28, 42, 20, 16, 6, 16, 11, 40, 28, 42, 20, 35, 35, 54, 32, 56, 21, 7, 34, 27, 37, 32, 8, 35, 23, 35, 14, 13, 17, 40, 38, 16, 23, 24, 18, 45, 33, 9, 28, 30, 40, 41, 12, 47, 40, 17, 49, 40, 11, 25, 8, 60, 15, 26, 34, 25, 30, 28, 24, 16, 26, 53
              |72, 21, 33, 35, 39, 39, 46, 49, 30, 39, 30, 17, 21, 28, 27, 44, 38, 33, 35, 46, 48, 31, 38, 47, 29, 17, 47, 8, 46, 53, 31, 37, 46, 58, 33, 25, 18, 53, 29, 12, 37, 22, 18, 55, 33, 18, 20, 26, 51, 51, 11, 38, 34, 40, 59, 41, 32, 32, 30, 50, 11, 32, 43, 46, 37, 36, 40, 35, 40, 55
              |59, 36, 15, 30, 17, 26, 17, 16, 13, 5, 23, 24, 33, 26, 31, 15, 23, 8, 29, 27, 30, 45, 16, 17, 21, 34, 28, 28, 24, 50, 45, 11, 48, 58, 34, 28, 23, 33, 8, 27, 28, 16, 22, 30, 8, 43, 15, 10, 30, 27, 34, 10, 3, 47, 34, 9, 38, 19, 47, 21, 29, 16, 23, 45, 17, 18, 32, 36, 28, 22
              |38, 15, 18, 4, 21, 12, 29, 48, 20, 34, 9, 17, 13, 7, 6, 28, 14, 38, 5, 20, 19, 60, 20, 50, 12, 17, 19, 33, 23, 21, 16, 25, 16, 27, 2, 8, 18, 25, 35, 22, 8, 21, 18, 30, 25, 24, 27, 25, 25, 26, 23, 42, 34, 14, 34, 30, 6, 14, 19, 54, 22, 17, 19, 14, 18, 16, 8, 3, 11, 40
              |57, 13, 18, 20, 24, 23, 31, 40, 16, 28, 15, 2, 11, 13, 14, 29, 22, 26, 20, 30, 32, 41, 23, 40, 13, 10, 31, 14, 31, 40, 24, 23, 34, 46, 20, 11, 2, 38, 22, 4, 21, 8, 3, 39, 20, 19, 11, 14, 36, 35, 10, 31, 24, 30, 44, 27, 21, 17, 25, 44, 6, 16, 27, 33, 21, 20, 25, 22, 25, 42
              |67, 18, 27, 30, 34, 34, 40, 44, 25, 34, 25, 12, 18, 23, 23, 38, 33, 28, 30, 41, 43, 32, 32, 42, 24, 15, 41, 6, 41, 49, 30, 32, 42, 55, 29, 21, 13, 48, 25, 7, 32, 16, 13, 49, 28, 19, 14, 21, 46, 45, 10, 33, 28, 38, 54, 35, 29, 27, 29, 46, 7, 26, 38, 42, 31, 30, 35, 31, 35, 50
              |67, 21, 25, 30, 31, 33, 38, 40, 22, 31, 24, 12, 20, 23, 24, 35, 31, 24, 30, 39, 41, 31, 30, 38, 23, 17, 40, 4, 39, 50, 32, 29, 44, 56, 30, 21, 12, 46, 21, 8, 31, 14, 12, 47, 25, 22, 11, 18, 44, 43, 13, 29, 25, 39, 52, 32, 30, 25, 32, 42, 9, 24, 36, 43, 29, 28, 35, 32, 34, 47
              |31, 22, 21, 7, 22, 12, 29, 51, 23, 36, 14, 24, 20, 13, 13, 28, 14, 43, 7, 17, 16, 67, 21, 53, 17, 24, 16, 40, 21, 14, 19, 27, 12, 22, 8, 15, 24, 21, 39, 29, 9, 26, 25, 27, 28, 31, 33, 29, 22, 23, 30, 46, 38, 14, 30, 32, 11, 17, 24, 57, 29, 20, 18, 8, 20, 18, 5, 6, 9, 39
              |49, 20, 41, 28, 45, 36, 53, 71, 42, 56, 32, 32, 22, 28, 24, 52, 38, 58, 29, 43, 42, 69, 44, 72, 35, 23, 42, 43, 47, 28, 9, 48, 19, 27, 22, 27, 33, 47, 54, 33, 32, 39, 34, 53, 47, 20, 44, 45, 48, 49, 28, 63, 55, 13, 56, 53, 18, 37, 8, 76, 31, 39, 43, 24, 42, 40, 31, 22, 35, 64
              |33, 31, 14, 13, 10, 6, 15, 39, 17, 25, 14, 27, 28, 18, 21, 15, 6, 35, 13, 2, 4, 66, 11, 43, 15, 32, 2, 41, 6, 25, 33, 16, 26, 34, 19, 21, 26, 9, 32, 33, 9, 24, 26, 13, 19, 40, 30, 24, 8, 9, 36, 37, 30, 29, 16, 20, 23, 12, 37, 46, 34, 14, 4, 22, 10, 10, 10, 19, 6, 25
              |36, 23, 11, 6, 12, 2, 19, 40, 14, 26, 7, 20, 21, 10, 14, 18, 4, 33, 5, 10, 11, 61, 11, 43, 9, 24, 10, 35, 13, 23, 26, 17, 22, 32, 12, 13, 20, 16, 30, 26, 2, 19, 19, 20, 18, 33, 25, 21, 16, 16, 29, 36, 28, 23, 24, 21, 16, 8, 29, 47, 26, 10, 9, 19, 9, 8, 6, 12, 3, 30
              |39, 16, 15, 2, 18, 10, 26, 45, 17, 30, 6, 16, 14, 5, 6, 25, 11, 35, 3, 17, 18, 59, 17, 47, 9, 17, 17, 32, 20, 22, 18, 22, 18, 30, 5, 7, 16, 23, 32, 21, 6, 18, 16, 28, 21, 25, 25, 22, 23, 24, 23, 39, 31, 17, 32, 27, 9, 11, 22, 51, 21, 13, 17, 16, 15, 13, 8, 6, 9, 37
              |26, 43, 25, 25, 20, 18, 19, 44, 28, 32, 27, 39, 40, 30, 33, 21, 19, 44, 24, 11, 9, 78, 21, 49, 28, 44, 10, 54, 12, 27, 43, 25, 33, 36, 30, 33, 39, 4, 42, 45, 21, 36, 38, 7, 29, 52, 42, 35, 6, 8, 49, 45, 38, 37, 7, 27, 34, 25, 47, 51, 46, 26, 14, 27, 21, 22, 20, 29, 18, 24
              |45, 23, 3, 12, 8, 9, 16, 33, 5, 18, 6, 15, 20, 10, 15, 15, 7, 24, 11, 15, 17, 53, 7, 35, 4, 22, 15, 28, 14, 32, 29, 10, 30, 40, 17, 12, 14, 22, 21, 21, 10, 11, 14, 23, 9, 32, 17, 12, 20, 19, 26, 28, 20, 30, 27, 15, 21, 1, 32, 39, 22, 1, 11, 27, 5, 4, 14, 18, 12, 27
              |60, 32, 14, 28, 18, 25, 21, 21, 12, 11, 21, 19, 29, 24, 28, 19, 23, 8, 28, 28, 32, 40, 17, 21, 18, 29, 30, 22, 26, 49, 41, 13, 46, 57, 32, 24, 18, 35, 4, 22, 27, 11, 17, 33, 9, 38, 9, 6, 32, 30, 29, 12, 5, 44, 37, 13, 35, 18, 43, 25, 24, 15, 24, 43, 18, 18, 31, 33, 28, 28
              |23, 33, 23, 15, 21, 12, 25, 49, 26, 36, 20, 32, 30, 22, 23, 25, 15, 45, 15, 11, 8, 74, 21, 53, 22, 34, 10, 48, 16, 15, 31, 27, 19, 24, 19, 24, 32, 11, 42, 38, 13, 32, 32, 18, 29, 42, 38, 33, 13, 16, 40, 47, 40, 24, 20, 30, 22, 20, 35, 57, 38, 23, 15, 14, 20, 19, 9, 17, 10, 34
              |33, 25, 14, 6, 14, 4, 21, 43, 17, 28, 10, 23, 22, 12, 15, 20, 6, 36, 6, 9, 9, 64, 14, 46, 12, 26, 9, 38, 13, 21, 26, 19, 20, 29, 12, 15, 22, 15, 33, 28, 3, 22, 22, 20, 21, 34, 28, 24, 15, 16, 31, 39, 31, 22, 23, 24, 16, 11, 30, 50, 29, 13, 10, 16, 12, 11, 3, 11, 1, 31
              |35, 23, 13, 4, 14, 4, 21, 43, 16, 28, 8, 20, 20, 10, 13, 21, 6, 35, 4, 11, 11, 62, 13, 45, 10, 24, 11, 36, 14, 21, 24, 19, 20, 30, 10, 13, 20, 17, 32, 26, 1, 20, 20, 21, 20, 32, 27, 22, 17, 17, 29, 38, 30, 21, 25, 24, 15, 9, 28, 49, 27, 12, 11, 16, 12, 10, 4, 10, 3, 32
              |46, 27, 1, 16, 5, 11, 13, 30, 4, 15, 10, 18, 24, 14, 19, 11, 8, 22, 15, 14, 17, 53, 4, 32, 8, 26, 15, 30, 13, 35, 33, 6, 33, 43, 21, 16, 17, 21, 19, 23, 13, 13, 16, 21, 6, 35, 17, 11, 18, 17, 29, 25, 17, 33, 25, 11, 25, 5, 36, 36, 25, 3, 10, 30, 3, 4, 17, 22, 14, 23
              |42, 14, 14, 5, 18, 11, 26, 44, 15, 29, 5, 13, 11, 2, 4, 25, 12, 33, 5, 19, 20, 56, 17, 46, 8, 15, 19, 29, 21, 25, 18, 21, 21, 32, 6, 4, 13, 25, 30, 18, 8, 16, 13, 29, 20, 23, 22, 20, 25, 25, 20, 37, 30, 19, 33, 26, 9, 10, 21, 50, 18, 12, 18, 19, 15, 13, 10, 8, 11, 37
              |46, 33, 8, 21, 4, 14, 6, 26, 9, 11, 16, 24, 30, 20, 25, 4, 11, 22, 20, 13, 17, 56, 4, 29, 14, 32, 15, 35, 10, 38, 39, 3, 38, 46, 26, 22, 23, 19, 20, 29, 17, 18, 22, 17, 7, 42, 21, 14, 16, 14, 35, 23, 16, 38, 22, 6, 30, 11, 42, 33, 31, 9, 9, 34, 6, 8, 21, 27, 17, 17
              |30, 57, 37, 38, 30, 31, 26, 47, 39, 39, 40, 52, 54, 43, 47, 28, 31, 51, 38, 23, 23, 87, 32, 53, 40, 57, 23, 65, 23, 38, 57, 34, 45, 46, 44, 46, 51, 17, 51, 58, 35, 48, 51, 14, 39, 66, 53, 46, 18, 18, 62, 51, 46, 50, 10, 34, 47, 37, 61, 55, 59, 38, 26, 40, 33, 34, 34, 42, 31, 25
              |29, 24, 25, 10, 25, 15, 32, 54, 27, 39, 17, 27, 22, 17, 16, 31, 17, 46, 11, 19, 17, 70, 25, 57, 20, 26, 18, 43, 23, 11, 20, 30, 9, 18, 10, 18, 28, 22, 43, 32, 12, 30, 28, 28, 31, 32, 36, 33, 23, 25, 32, 49, 42, 13, 31, 35, 12, 21, 24, 61, 32, 23, 21, 5, 23, 21, 8, 8, 12, 42
              |53, 0, 26, 18, 31, 26, 39, 52, 25, 39, 18, 13, 3, 14, 10, 38, 26, 39, 19, 33, 34, 51, 30, 53, 19, 4, 33, 24, 36, 33, 11, 33, 25, 37, 14, 11, 14, 40, 35, 13, 22, 20, 15, 44, 30, 9, 24, 26, 39, 39, 9, 44, 37, 20, 48, 37, 12, 22, 12, 57, 11, 24, 32, 26, 28, 26, 24, 16, 25, 50
              |17, 37, 30, 20, 27, 19, 30, 55, 33, 42, 26, 38, 35, 27, 28, 31, 21, 51, 20, 17, 13, 80, 27, 59, 28, 39, 16, 54, 21, 12, 33, 33, 19, 20, 23, 29, 38, 14, 48, 43, 19, 38, 38, 22, 35, 46, 45, 40, 17, 20, 45, 53, 46, 25, 22, 36, 26, 27, 38, 62, 44, 29, 21, 14, 26, 26, 15, 21, 16, 38
              |17, 42, 44, 30, 42, 33, 47, 71, 46, 57, 38, 48, 41, 37, 36, 48, 36, 65, 31, 33, 30, 90, 43, 75, 40, 45, 32, 63, 38, 9, 34, 48, 17, 7, 30, 38, 48, 31, 62, 52, 31, 50, 48, 38, 50, 49, 56, 53, 34, 37, 51, 68, 61, 24, 39, 52, 30, 40, 37, 78, 51, 43, 37, 16, 41, 40, 27, 28, 30, 55
              |48, 24, 2, 16, 9, 13, 16, 30, 1, 16, 9, 14, 21, 12, 17, 14, 10, 21, 15, 17, 20, 50, 7, 32, 6, 23, 18, 26, 16, 36, 31, 8, 33, 44, 20, 14, 14, 24, 17, 20, 14, 9, 13, 25, 6, 33, 14, 8, 22, 21, 26, 24, 16, 33, 29, 13, 23, 5, 34, 36, 21, 2, 13, 30, 6, 6, 18, 21, 15, 26
              |37, 37, 15, 21, 9, 12, 8, 33, 17, 20, 19, 30, 34, 23, 28, 9, 11, 31, 20, 6, 9, 66, 10, 37, 19, 37, 8, 43, 2, 32, 40, 13, 35, 41, 27, 26, 30, 10, 30, 36, 16, 26, 29, 8, 17, 46, 31, 24, 6, 4, 41, 33, 26, 37, 12, 15, 31, 16, 44, 40, 38, 16, 5, 30, 11, 12, 18, 26, 14, 16
              |41, 21, 8, 7, 11, 6, 19, 38, 10, 23, 3, 15, 17, 7, 11, 18, 6, 29, 6, 14, 15, 56, 10, 40, 4, 21, 14, 30, 15, 27, 25, 15, 25, 35, 12, 9, 15, 21, 26, 21, 5, 14, 15, 23, 14, 30, 20, 16, 19, 19, 25, 33, 25, 25, 28, 20, 16, 4, 28, 44, 22, 6, 11, 22, 8, 6, 10, 13, 8, 30
              |56, 31, 10, 25, 13, 21, 16, 22, 8, 8, 18, 19, 28, 21, 26, 14, 18, 12, 24, 24, 27, 45, 12, 23, 15, 29, 25, 25, 21, 45, 40, 8, 43, 53, 29, 22, 18, 30, 9, 23, 23, 11, 17, 28, 4, 38, 12, 5, 27, 25, 30, 15, 7, 42, 33, 9, 32, 14, 42, 27, 25, 11, 19, 40, 13, 14, 27, 30, 24, 24
              |51, 46, 20, 33, 16, 26, 9, 18, 21, 12, 29, 36, 43, 33, 38, 9, 23, 23, 32, 22, 25, 61, 17, 24, 27, 45, 23, 44, 17, 48, 52, 14, 49, 57, 39, 35, 35, 25, 24, 41, 29, 29, 34, 19, 17, 54, 30, 24, 21, 18, 47, 22, 19, 51, 22, 9, 43, 24, 55, 26, 42, 22, 19, 45, 19, 21, 32, 39, 28, 6
              |52, 25, 6, 19, 12, 17, 18, 28, 3, 14, 12, 14, 22, 15, 19, 16, 14, 17, 18, 21, 24, 46, 10, 29, 9, 23, 22, 23, 20, 40, 33, 9, 37, 48, 23, 16, 13, 28, 14, 18, 17, 6, 12, 28, 5, 33, 10, 4, 25, 24, 25, 21, 13, 36, 32, 13, 26, 9, 36, 33, 20, 6, 17, 34, 10, 10, 22, 24, 19, 27
              |60, 26, 14, 26, 19, 25, 24, 27, 11, 16, 18, 14, 24, 20, 23, 22, 22, 13, 25, 29, 32, 38, 18, 26, 16, 24, 30, 17, 27, 47, 36, 16, 43, 54, 28, 20, 13, 36, 9, 16, 25, 6, 12, 35, 11, 32, 4, 4, 33, 32, 23, 17, 11, 40, 40, 18, 30, 16, 38, 31, 18, 14, 25, 40, 18, 18, 29, 30, 27, 33
              |36, 41, 19, 24, 13, 16, 9, 34, 21, 22, 24, 35, 38, 27, 32, 11, 15, 34, 23, 9, 11, 69, 14, 38, 23, 41, 10, 47, 6, 34, 44, 16, 37, 43, 30, 30, 34, 9, 33, 40, 20, 30, 33, 4, 21, 50, 35, 28, 6, 3, 45, 35, 29, 40, 8, 17, 34, 20, 48, 41, 42, 20, 9, 32, 15, 16, 21, 30, 17, 15
              |53, 17, 11, 17, 18, 18, 25, 35, 9, 22, 10, 5, 14, 10, 13, 23, 17, 22, 16, 25, 27, 44, 16, 36, 8, 15, 25, 18, 25, 38, 26, 17, 33, 45, 19, 10, 4, 32, 18, 11, 17, 4, 4, 33, 14, 24, 9, 9, 30, 29, 17, 27, 20, 30, 38, 21, 21, 11, 28, 40, 12, 10, 21, 31, 15, 14, 21, 20, 20, 35
              |9, 44, 40, 29, 37, 29, 40, 65, 43, 52, 36, 47, 43, 36, 36, 41, 31, 61, 29, 27, 24, 90, 38, 69, 38, 47, 26, 63, 31, 12, 38, 43, 22, 16, 30, 38, 47, 23, 59, 52, 29, 48, 47, 30, 46, 52, 54, 50, 27, 30, 53, 64, 56, 28, 30, 47, 32, 37, 42, 73, 52, 39, 31, 18, 37, 36, 24, 28, 26, 47
              |58, 18, 15, 22, 22, 23, 28, 35, 13, 23, 15, 6, 16, 15, 17, 26, 22, 21, 21, 29, 32, 39, 20, 35, 13, 16, 30, 14, 29, 42, 29, 20, 37, 49, 23, 14, 5, 37, 16, 8, 22, 4, 4, 38, 16, 24, 6, 9, 35, 34, 15, 25, 19, 34, 42, 23, 24, 16, 30, 39, 10, 14, 26, 36, 19, 18, 26, 25, 25, 38
              |23, 30, 26, 14, 24, 14, 29, 53, 28, 39, 20, 32, 28, 21, 22, 29, 17, 47, 14, 16, 13, 75, 24, 57, 23, 33, 14, 48, 20, 10, 27, 30, 14, 19, 16, 23, 32, 16, 44, 37, 14, 33, 32, 23, 32, 39, 39, 35, 18, 21, 38, 50, 42, 19, 25, 34, 19, 22, 31, 60, 37, 25, 19, 9, 23, 22, 9, 14, 12, 38
              |37, 19, 14, 1, 16, 7, 24, 44, 16, 30, 7, 18, 16, 7, 9, 23, 9, 35, 0, 15, 15, 61, 16, 47, 9, 20, 14, 34, 18, 21, 21, 21, 19, 29, 7, 9, 18, 21, 32, 23, 3, 19, 18, 25, 21, 28, 26, 22, 20, 21, 25, 39, 31, 19, 29, 26, 11, 10, 24, 50, 24, 13, 14, 16, 14, 12, 5, 7, 6, 35
              |47, 37, 11, 25, 7, 17, 4, 23, 13, 9, 20, 27, 34, 24, 29, 2, 15, 21, 24, 16, 19, 57, 8, 27, 18, 36, 17, 37, 12, 41, 43, 5, 41, 50, 30, 26, 26, 21, 20, 32, 21, 21, 26, 17, 9, 46, 24, 16, 17, 15, 38, 22, 16, 42, 21, 4, 34, 15, 46, 30, 34, 13, 12, 37, 10, 12, 24, 31, 20, 13
              |47, 15, 35, 22, 39, 30, 47, 65, 36, 50, 26, 27, 16, 22, 17, 46, 32, 52, 23, 37, 36, 65, 38, 66, 28, 18, 37, 39, 41, 26, 4, 42, 16, 26, 16, 21, 27, 42, 48, 28, 26, 34, 28, 47, 41, 17, 38, 39, 42, 44, 23, 57, 49, 9, 51, 47, 12, 31, 5, 70, 26, 33, 37, 20, 36, 34, 25, 16, 29, 58
              |55, 28, 50, 37, 54, 45, 62, 79, 51, 65, 41, 40, 30, 37, 32, 61, 47, 66, 38, 52, 50, 74, 53, 80, 43, 31, 51, 50, 55, 35, 18, 57, 26, 32, 31, 36, 41, 55, 62, 40, 41, 48, 42, 62, 56, 25, 52, 53, 57, 58, 34, 71, 64, 21, 65, 62, 27, 46, 16, 84, 38, 48, 52, 31, 51, 49, 40, 31, 43, 73
              |47, 37, 11, 25, 7, 17, 4, 23, 13, 9, 20, 27, 34, 24, 29, 2, 15, 21, 24, 16, 19, 57, 8, 27, 18, 36, 17, 37, 12, 41, 43, 5, 41, 50, 30, 26, 26, 21, 20, 32, 21, 21, 26, 17, 9, 46, 24, 16, 17, 15, 38, 22, 16, 42, 21, 4, 34, 15, 46, 30, 34, 13, 12, 37, 10, 12, 24, 31, 20, 13
              |51, 42, 16, 30, 12, 22, 6, 19, 17, 8, 25, 31, 39, 29, 34, 6, 20, 20, 29, 20, 23, 58, 13, 23, 23, 41, 21, 40, 16, 45, 48, 9, 46, 54, 35, 31, 30, 24, 21, 36, 26, 24, 30, 19, 13, 50, 26, 19, 20, 17, 43, 20, 16, 47, 22, 5, 39, 20, 51, 26, 38, 18, 17, 42, 15, 17, 29, 36, 25, 10
              |45, 8, 22, 11, 26, 19, 35, 51, 22, 37, 13, 14, 6, 9, 4, 33, 20, 39, 12, 27, 27, 56, 25, 52, 15, 10, 27, 29, 30, 26, 10, 29, 19, 31, 7, 7, 15, 33, 35, 17, 15, 20, 16, 37, 27, 16, 25, 25, 32, 33, 16, 43, 36, 14, 41, 34, 5, 18, 13, 56, 16, 20, 26, 19, 23, 21, 16, 9, 19, 46
              |45, 13, 13, 8, 18, 13, 26, 42, 13, 28, 4, 10, 10, 1, 5, 25, 13, 31, 8, 21, 22, 53, 16, 43, 6, 13, 21, 26, 22, 28, 19, 20, 24, 35, 9, 2, 10, 27, 27, 15, 10, 13, 10, 30, 18, 22, 19, 17, 26, 26, 18, 35, 27, 21, 35, 25, 12, 9, 22, 47, 16, 11, 19, 22, 15, 13, 13, 11, 13, 37
              |33, 20, 27, 12, 28, 18, 36, 57, 29, 42, 18, 26, 19, 16, 14, 35, 21, 47, 13, 24, 22, 69, 28, 59, 21, 23, 23, 41, 28, 13, 14, 33, 6, 18, 8, 17, 26, 27, 44, 30, 15, 30, 27, 34, 33, 28, 36, 34, 28, 30, 29, 51, 43, 7, 36, 38, 8, 22, 18, 63, 29, 25, 25, 6, 26, 24, 12, 6, 16, 46
              |43, 14, 13, 6, 17, 11, 25, 43, 14, 28, 4, 12, 11, 1, 5, 24, 12, 32, 6, 19, 20, 55, 16, 44, 6, 15, 19, 28, 21, 27, 19, 20, 22, 34, 8, 4, 12, 26, 28, 17, 8, 14, 12, 29, 19, 24, 21, 18, 25, 25, 20, 36, 28, 20, 33, 25, 11, 9, 22, 48, 18, 11, 17, 20, 14, 12, 11, 9, 12, 37
              |23, 33, 23, 15, 21, 12, 25, 49, 26, 36, 20, 32, 30, 22, 23, 25, 15, 45, 15, 11, 8, 74, 21, 53, 22, 34, 10, 48, 16, 15, 31, 27, 19, 24, 19, 24, 32, 11, 42, 38, 13, 32, 32, 18, 29, 42, 38, 33, 13, 16, 40, 47, 40, 24, 20, 30, 22, 20, 35, 57, 38, 23, 15, 14, 20, 19, 9, 17, 10, 34
              |41, 47, 23, 31, 16, 23, 9, 30, 25, 21, 29, 39, 44, 33, 38, 12, 21, 33, 30, 16, 18, 70, 18, 35, 28, 47, 17, 50, 12, 41, 50, 18, 44, 50, 37, 36, 38, 16, 33, 45, 27, 33, 38, 9, 22, 56, 37, 30, 13, 10, 50, 33, 29, 47, 10, 17, 41, 25, 54, 37, 46, 24, 16, 39, 19, 21, 28, 36, 24, 8
              |48, 33, 7, 22, 6, 16, 9, 24, 8, 9, 16, 22, 29, 20, 25, 6, 13, 19, 21, 16, 20, 53, 6, 27, 14, 31, 17, 32, 13, 40, 39, 0, 39, 48, 27, 22, 21, 22, 17, 27, 18, 16, 21, 20, 4, 41, 19, 12, 19, 17, 34, 21, 14, 39, 25, 5, 31, 11, 42, 30, 29, 9, 12, 35, 7, 9, 22, 28, 18, 18
              |34, 31, 13, 13, 9, 5, 14, 38, 16, 24, 14, 26, 28, 17, 21, 14, 5, 34, 12, 3, 5, 65, 10, 42, 14, 31, 3, 41, 6, 25, 33, 15, 27, 34, 19, 20, 25, 10, 31, 32, 9, 23, 25, 13, 18, 40, 29, 23, 8, 9, 36, 36, 29, 29, 17, 19, 23, 11, 36, 45, 33, 13, 4, 22, 9, 9, 10, 18, 6, 24
              |58, 23, 47, 35, 51, 43, 60, 75, 47, 61, 38, 35, 25, 34, 29, 58, 45, 61, 36, 51, 50, 67, 50, 75, 40, 25, 50, 43, 54, 38, 16, 54, 28, 36, 29, 32, 36, 55, 57, 34, 39, 43, 37, 61, 52, 19, 46, 49, 56, 57, 28, 66, 59, 22, 64, 59, 25, 43, 12, 79, 32, 45, 50, 33, 48, 46, 39, 30, 42, 71
              |28, 27, 20, 9, 19, 9, 25, 48, 23, 34, 15, 27, 25, 16, 17, 25, 12, 42, 9, 12, 10, 69, 19, 52, 17, 29, 11, 43, 16, 15, 25, 25, 16, 24, 13, 18, 27, 15, 39, 32, 8, 28, 27, 21, 26, 36, 34, 30, 16, 18, 34, 45, 37, 19, 24, 29, 16, 17, 29, 55, 33, 19, 14, 11, 18, 16, 4, 11, 6, 35
              |47, 30, 4, 19, 5, 13, 11, 26, 5, 12, 13, 20, 26, 17, 22, 9, 11, 20, 18, 15, 19, 53, 4, 29, 11, 28, 16, 31, 13, 37, 36, 3, 36, 46, 24, 19, 19, 22, 17, 25, 16, 13, 18, 21, 4, 38, 17, 10, 19, 17, 31, 22, 15, 36, 25, 8, 28, 8, 39, 33, 27, 6, 11, 33, 5, 6, 20, 25, 16, 21
              |32, 24, 16, 6, 16, 6, 23, 45, 19, 31, 11, 23, 22, 12, 14, 22, 9, 38, 5, 11, 10, 65, 16, 48, 13, 26, 10, 39, 15, 18, 24, 21, 18, 27, 11, 15, 23, 16, 35, 29, 4, 24, 23, 21, 23, 33, 30, 25, 16, 17, 31, 41, 33, 20, 25, 26, 15, 13, 28, 52, 29, 15, 12, 14, 14, 13, 1, 10, 3, 33
              |43, 11, 19, 8, 23, 16, 31, 49, 20, 34, 10, 14, 9, 6, 2, 30, 17, 37, 9, 23, 23, 57, 22, 50, 12, 13, 23, 30, 26, 24, 13, 26, 18, 30, 4, 6, 15, 29, 34, 18, 12, 19, 15, 34, 25, 20, 25, 24, 29, 30, 18, 42, 34, 15, 37, 31, 5, 15, 16, 54, 18, 17, 22, 17, 20, 18, 13, 6, 15, 42
              |37, 40, 17, 24, 11, 16, 7, 32, 20, 20, 22, 33, 37, 26, 31, 9, 14, 32, 23, 9, 12, 67, 12, 37, 22, 40, 10, 46, 5, 35, 43, 14, 37, 43, 30, 29, 33, 11, 31, 39, 20, 28, 32, 6, 19, 49, 33, 26, 7, 4, 44, 33, 27, 40, 10, 15, 34, 18, 47, 39, 40, 18, 9, 33, 13, 15, 21, 29, 17, 14
              |21, 43, 28, 25, 23, 19, 23, 48, 31, 36, 28, 41, 41, 31, 34, 25, 21, 47, 24, 13, 10, 80, 24, 53, 29, 45, 12, 56, 15, 24, 42, 28, 30, 32, 30, 34, 40, 6, 45, 47, 22, 39, 40, 11, 32, 52, 44, 38, 9, 12, 50, 48, 42, 35, 11, 31, 33, 27, 46, 56, 47, 28, 17, 25, 24, 24, 20, 28, 18, 28
              |56, 6, 23, 20, 29, 26, 37, 48, 22, 35, 17, 8, 5, 14, 11, 35, 25, 34, 20, 33, 34, 45, 28, 48, 17, 2, 33, 18, 35, 37, 17, 30, 30, 42, 17, 11, 9, 40, 30, 7, 22, 16, 10, 43, 27, 11, 19, 22, 39, 39, 5, 39, 32, 25, 47, 34, 16, 21, 17, 52, 6, 21, 31, 30, 26, 24, 25, 19, 26, 48
              |41, 14, 29, 15, 32, 23, 40, 59, 30, 44, 20, 23, 14, 17, 12, 39, 25, 48, 16, 30, 29, 65, 31, 60, 22, 18, 29, 38, 33, 20, 6, 36, 11, 23, 9, 16, 24, 34, 44, 26, 19, 29, 25, 40, 35, 20, 35, 34, 35, 36, 24, 52, 44, 5, 43, 41, 5, 25, 11, 64, 25, 27, 30, 13, 29, 27, 18, 9, 21, 51
              |14, 51, 38, 33, 33, 29, 33, 57, 41, 46, 37, 50, 49, 40, 42, 34, 30, 57, 33, 23, 20, 90, 34, 62, 39, 53, 22, 65, 25, 25, 48, 38, 34, 32, 37, 42, 50, 16, 55, 56, 31, 48, 49, 20, 42, 60, 54, 48, 19, 22, 58, 58, 52, 40, 18, 41, 40, 36, 52, 65, 56, 38, 27, 29, 34, 34, 28, 35, 27, 36
              |44, 10, 19, 8, 23, 16, 31, 48, 20, 34, 10, 13, 8, 6, 1, 30, 17, 37, 9, 24, 24, 56, 22, 50, 12, 12, 24, 29, 26, 25, 13, 26, 19, 31, 5, 5, 14, 30, 33, 17, 12, 18, 14, 34, 25, 19, 24, 23, 29, 30, 17, 41, 34, 16, 38, 31, 6, 15, 16, 54, 17, 17, 23, 18, 20, 18, 14, 7, 16, 43
              |30, 28, 17, 9, 15, 5, 21, 44, 19, 30, 13, 26, 25, 15, 18, 21, 8, 38, 9, 8, 7, 67, 15, 47, 15, 29, 7, 41, 12, 19, 28, 21, 20, 28, 14, 18, 25, 12, 35, 31, 6, 25, 25, 18, 22, 37, 31, 26, 13, 14, 34, 41, 33, 23, 21, 25, 18, 13, 32, 51, 32, 16, 10, 16, 14, 13, 4, 13, 3, 31
              |47, 8, 19, 11, 24, 18, 32, 48, 19, 33, 10, 11, 5, 6, 2, 31, 18, 35, 11, 26, 26, 53, 23, 48, 12, 9, 25, 26, 28, 28, 14, 26, 22, 34, 8, 4, 11, 32, 31, 14, 14, 17, 12, 36, 24, 17, 22, 22, 31, 32, 15, 40, 32, 18, 40, 31, 8, 15, 16, 53, 14, 17, 24, 21, 21, 19, 16, 10, 18, 43
              |59, 12, 21, 22, 28, 26, 35, 43, 19, 31, 17, 5, 11, 15, 15, 33, 26, 28, 22, 34, 35, 40, 26, 42, 17, 9, 34, 13, 34, 41, 23, 27, 35, 47, 21, 13, 6, 41, 24, 1, 24, 12, 6, 43, 23, 16, 13, 17, 39, 39, 7, 33, 27, 30, 47, 31, 21, 20, 24, 46, 2, 20, 31, 35, 25, 23, 27, 23, 28, 45
              |48, 13, 12, 11, 18, 15, 26, 40, 12, 26, 6, 7, 10, 4, 7, 24, 14, 28, 11, 22, 24, 50, 17, 41, 6, 13, 22, 23, 23, 32, 21, 19, 27, 38, 12, 4, 7, 29, 24, 13, 12, 10, 7, 32, 17, 22, 16, 15, 28, 28, 16, 33, 25, 24, 36, 24, 14, 9, 23, 45, 13, 10, 20, 25, 15, 13, 16, 14, 16, 37
              |65, 18, 24, 28, 31, 31, 37, 42, 22, 31, 23, 10, 17, 21, 21, 35, 30, 26, 28, 38, 40, 34, 29, 40, 21, 14, 39, 6, 38, 48, 29, 29, 41, 53, 27, 19, 10, 45, 22, 5, 29, 13, 10, 47, 25, 20, 12, 18, 43, 43, 10, 31, 26, 37, 51, 32, 28, 24, 29, 44, 6, 23, 35, 41, 28, 27, 33, 29, 33, 47
              |21, 32, 28, 16, 26, 17, 31, 55, 30, 41, 23, 34, 30, 23, 23, 31, 19, 49, 16, 17, 14, 77, 26, 59, 25, 34, 16, 50, 22, 9, 28, 32, 14, 17, 18, 25, 34, 17, 47, 39, 16, 35, 34, 24, 34, 40, 41, 37, 20, 22, 40, 52, 45, 19, 26, 36, 20, 24, 32, 62, 39, 27, 21, 9, 25, 24, 11, 16, 14, 40|];

Incompatibilities = 2944;
IncompatiblePairs = [| 1, 4 | 1, 7 | 1, 14 | 1, 15 | 1, 19 | 1, 26 | 1, 33 | 1, 35 | 1, 46 | 1, 49 | 1, 50 | 1, 52 | 1, 58 | 1, 69 | 1, 73 | 1, 84 | 1, 89 | 1, 90 | 1, 91 | 1, 98 | 1, 99 | 1, 103 | 1, 117 | 1, 125 | 1, 134 | 1, 141 | 1, 143 | 1, 146 | 1, 169 | 2, 6 | 2, 19 | 2, 21 | 2, 22 | 2, 23 | 2, 28 | 2, 32 | 2, 33 | 2, 34 | 2, 37 | 2, 45 | 2, 50 | 2, 52 | 2, 54 | 2, 56 | 2, 57 | 2, 58 | 2, 64 | 2, 74 | 2, 75 | 2, 82 | 2, 85 | 2, 99 | 2, 100 | 2, 102 | 2, 107 | 2, 108 | 2, 115 | 2, 119 | 2, 121 | 2, 134 | 2, 136 | 2, 137 | 2, 145 | 2, 148 | 2, 149 | 2, 150 | 2, 153 | 2, 160 | 2, 165 | 3, 16 | 3, 19 | 3, 20 | 3, 22 | 3, 28 | 3, 33 | 3, 34 | 3, 35 | 3, 42 | 3, 43 | 3, 44 | 3, 53 | 3, 55 | 3, 57 | 3, 59 | 3, 63 | 3, 65 | 3, 66 | 3, 69 | 3, 77 | 3, 81 | 3, 88 | 3, 89 | 3, 97 | 3, 99 | 3, 117 | 3, 119 | 3, 120 | 3, 122 | 3, 124 | 3, 135 | 3, 137 | 3, 141 | 3, 147 | 3, 152 | 3, 155 | 3, 162 | 3, 164 | 4, 10 | 4, 23 | 4, 24 | 4, 30 | 4, 36 | 4, 41 | 4, 46 | 4, 47 | 4, 55 | 4, 58 | 4, 62 | 4, 65 | 4, 67 | 4, 76 | 4, 77 | 4, 79 | 4, 81 | 4, 84 | 4, 85 | 4, 89 | 4, 91 | 4, 94 | 4, 100 | 4, 101 | 4, 102 | 4, 109 | 4, 110 | 4, 112 | 4, 114 | 4, 118 | 4, 121 | 4, 126 | 4, 129 | 4, 134 | 4, 141 | 4, 147 | 4, 149 | 4, 164 | 5, 17 | 5, 18 | 5, 23 | 5, 24 | 5, 34 | 5, 35 | 5, 36 | 5, 41 | 5, 51 | 5, 60 | 5, 62 | 5, 64 | 5, 67 | 5, 74 | 5, 75 | 5, 91 | 5, 94 | 5, 100 | 5, 105 | 5, 109 | 5, 114 | 5, 129 | 5, 131 | 5, 144 | 5, 146 | 5, 148 | 5, 157 | 5, 164 | 5, 167 | 5, 171 | 6, 14 | 6, 16 | 6, 21 | 6, 26 | 6, 31 | 6, 39 | 6, 42 | 6, 52 | 6, 53 | 6, 73 | 6, 74 | 6, 79 | 6, 81 | 6, 82 | 6, 83 | 6, 87 | 6, 88 | 6, 104 | 6, 113 | 6, 120 | 6, 125 | 6, 126 | 6, 133 | 6, 143 | 6, 147 | 6, 150 | 6, 151 | 6, 161 | 6, 162 | 6, 165 | 6, 169 | 7, 8 | 7, 11 | 7, 14 | 7, 15 | 7, 17 | 7, 18 | 7, 27 | 7, 33 | 7, 34 | 7, 56 | 7, 57 | 7, 58 | 7, 61 | 7, 66 | 7, 75 | 7, 79 | 7, 90 | 7, 92 | 7, 95 | 7, 99 | 7, 101 | 7, 103 | 7, 114 | 7, 118 | 7, 123 | 7, 130 | 7, 137 | 7, 139 | 7, 142 | 7, 146 | 7, 152 | 7, 156 | 7, 159 | 7, 163 | 7, 164 | 7, 170 | 7, 171 | 8, 23 | 8, 24 | 8, 31 | 8, 36 | 8, 38 | 8, 41 | 8, 44 | 8, 45 | 8, 51 | 8, 55 | 8, 57 | 8, 59 | 8, 74 | 8, 81 | 8, 89 | 8, 91 | 8, 99 | 8, 100 | 8, 103 | 8, 109 | 8, 110 | 8, 118 | 8, 121 | 8, 127 | 8, 131 | 8, 140 | 8, 141 | 8, 143 | 8, 144 | 8, 147 | 8, 151 | 8, 154 | 8, 157 | 8, 158 | 8, 162 | 8, 170 | 9, 10 | 9, 26 | 9, 32 | 9, 33 | 9, 34 | 9, 67 | 9, 74 | 9, 83 | 9, 85 | 9, 86 | 9, 88 | 9, 90 | 9, 106 | 9, 107 | 9, 110 | 9, 115 | 9, 117 | 9, 125 | 9, 129 | 9, 133 | 9, 135 | 9, 141 | 9, 143 | 9, 160 | 9, 165 | 9, 166 | 9, 167 | 10, 15 | 10, 17 | 10, 20 | 10, 29 | 10, 34 | 10, 35 | 10, 48 | 10, 68 | 10, 69 | 10, 75 | 10, 77 | 10, 79 | 10, 80 | 10, 91 | 10, 94 | 10, 100 | 10, 101 | 10, 102 | 10, 120 | 10, 122 | 10, 147 | 10, 154 | 10, 157 | 10, 158 | 10, 162 | 10, 164 | 10, 172 | 11, 32 | 11, 40 | 11, 54 | 11, 58 | 11, 61 | 11, 62 | 11, 67 | 11, 80 | 11, 81 | 11, 86 | 11, 89 | 11, 91 | 11, 103 | 11, 109 | 11, 110 | 11, 111 | 11, 114 | 11, 127 | 11, 131 | 11, 140 | 11, 143 | 11, 146 | 11, 159 | 11, 164 | 12, 14 | 12, 32 | 12, 34 | 12, 36 | 12, 45 | 12, 53 | 12, 66 | 12, 76 | 12, 83 | 12, 85 | 12, 86 | 12, 89 | 12, 91 | 12, 101 | 12, 115 | 12, 117 | 12, 123 | 12, 125 | 12, 126 | 12, 128 | 12, 130 | 12, 132 | 12, 136 | 12, 148 | 12, 150 | 12, 154 | 12, 161 | 12, 166 | 12, 169 | 13, 14 | 13, 15 | 13, 27 | 13, 29 | 13, 33 | 13, 37 | 13, 41 | 13, 45 | 13, 50 | 13, 56 | 13, 57 | 13, 58 | 13, 59 | 13, 60 | 13, 65 | 13, 70 | 13, 76 | 13, 85 | 13, 109 | 13, 123 | 13, 125 | 13, 130 | 13, 135 | 13, 136 | 13, 145 | 13, 152 | 13, 157 | 13, 158 | 13, 162 | 13, 163 | 13, 167 | 13, 170 | 13, 172 | 14, 16 | 14, 18 | 14, 24 | 14, 30 | 14, 33 | 14, 36 | 14, 40 | 14, 61 | 14, 68 | 14, 74 | 14, 76 | 14, 79 | 14, 87 | 14, 89 | 14, 122 | 14, 154 | 14, 159 | 14, 167 | 14, 171 | 15, 17 | 15, 23 | 15, 26 | 15, 27 | 15, 30 | 15, 32 | 15, 36 | 15, 37 | 15, 40 | 15, 47 | 15, 55 | 15, 60 | 15, 63 | 15, 64 | 15, 68 | 15, 75 | 15, 82 | 15, 91 | 15, 94 | 15, 95 | 15, 97 | 15, 99 | 15, 101 | 15, 102 | 15, 113 | 15, 114 | 15, 121 | 15, 131 | 15, 141 | 15, 148 | 15, 149 | 15, 153 | 15, 155 | 15, 158 | 15, 162 | 15, 167 | 15, 170 | 15, 171 | 16, 26 | 16, 28 | 16, 34 | 16, 37 | 16, 42 | 16, 52 | 16, 53 | 16, 58 | 16, 60 | 16, 64 | 16, 69 | 16, 75 | 16, 86 | 16, 99 | 16, 102 | 16, 106 | 16, 110 | 16, 113 | 16, 115 | 16, 129 | 16, 130 | 16, 141 | 16, 143 | 16, 163 | 16, 165 | 16, 171 | 17, 23 | 17, 25 | 17, 26 | 17, 28 | 17, 36 | 17, 39 | 17, 42 | 17, 45 | 17, 47 | 17, 52 | 17, 53 | 17, 54 | 17, 60 | 17, 64 | 17, 68 | 17, 82 | 17, 89 | 17, 107 | 17, 113 | 17, 115 | 17, 117 | 17, 121 | 17, 123 | 17, 129 | 17, 134 | 17, 137 | 17, 141 | 17, 144 | 17, 145 | 17, 159 | 18, 20 | 18, 22 | 18, 23 | 18, 25 | 18, 29 | 18, 37 | 18, 39 | 18, 47 | 18, 57 | 18, 60 | 18, 62 | 18, 63 | 18, 69 | 18, 76 | 18, 78 | 18, 85 | 18, 91 | 18, 92 | 18, 93 | 18, 123 | 18, 125 | 18, 126 | 18, 132 | 18, 134 | 18, 137 | 18, 141 | 18, 150 | 18, 171 | 19, 26 | 19, 27 | 19, 31 | 19, 32 | 19, 36 | 19, 41 | 19, 45 | 19, 46 | 19, 48 | 19, 54 | 19, 59 | 19, 61 | 19, 64 | 19, 65 | 19, 67 | 19, 68 | 19, 76 | 19, 77 | 19, 87 | 19, 89 | 19, 92 | 19, 96 | 19, 97 | 19, 100 | 19, 103 | 19, 108 | 19, 110 | 19, 111 | 19, 113 | 19, 126 | 19, 143 | 19, 150 | 19, 151 | 19, 154 | 19, 156 | 19, 157 | 19, 159 | 19, 167 | 20, 23 | 20, 24 | 20, 40 | 20, 43 | 20, 44 | 20, 58 | 20, 62 | 20, 63 | 20, 64 | 20, 70 | 20, 73 | 20, 74 | 20, 76 | 20, 79 | 20, 80 | 20, 81 | 20, 87 | 20, 91 | 20, 95 | 20, 97 | 20, 99 | 20, 100 | 20, 101 | 20, 103 | 20, 126 | 20, 127 | 20, 142 | 20, 147 | 20, 148 | 20, 149 | 20, 153 | 20, 156 | 20, 157 | 20, 159 | 20, 162 | 20, 168 | 20, 171 | 21, 32 | 21, 34 | 21, 40 | 21, 41 | 21, 52 | 21, 55 | 21, 58 | 21, 63 | 21, 65 | 21, 69 | 21, 76 | 21, 78 | 21, 93 | 21, 94 | 21, 95 | 21, 98 | 21, 104 | 21, 105 | 21, 111 | 21, 133 | 21, 135 | 21, 137 | 21, 138 | 21, 146 | 21, 147 | 21, 157 | 21, 163 | 21, 171 | 22, 25 | 22, 27 | 22, 31 | 22, 35 | 22, 45 | 22, 58 | 22, 61 | 22, 68 | 22, 75 | 22, 79 | 22, 85 | 22, 87 | 22, 96 | 22, 97 | 22, 105 | 22, 114 | 22, 118 | 22, 122 | 22, 140 | 22, 141 | 22, 142 | 22, 143 | 22, 146 | 22, 151 | 22, 153 | 22, 155 | 22, 164 | 22, 166 | 22, 168 | 23, 29 | 23, 32 | 23, 39 | 23, 41 | 23, 42 | 23, 43 | 23, 55 | 23, 58 | 23, 61 | 23, 66 | 23, 68 | 23, 76 | 23, 80 | 23, 81 | 23, 90 | 23, 95 | 23, 99 | 23, 100 | 23, 102 | 23, 105 | 23, 122 | 23, 130 | 23, 131 | 23, 132 | 23, 140 | 23, 152 | 23, 156 | 23, 159 | 23, 165 | 23, 171 | 24, 27 | 24, 45 | 24, 48 | 24, 52 | 24, 56 | 24, 68 | 24, 69 | 24, 98 | 24, 101 | 24, 102 | 24, 103 | 24, 107 | 24, 124 | 24, 125 | 24, 131 | 24, 142 | 24, 151 | 24, 153 | 24, 158 | 24, 167 | 25, 29 | 25, 30 | 25, 33 | 25, 37 | 25, 39 | 25, 41 | 25, 43 | 25, 52 | 25, 53 | 25, 57 | 25, 59 | 25, 65 | 25, 69 | 25, 77 | 25, 89 | 25, 93 | 25, 101 | 25, 109 | 25, 119 | 25, 122 | 25, 125 | 25, 130 | 25, 132 | 25, 140 | 25, 153 | 25, 160 | 25, 164 | 25, 171 | 26, 31 | 26, 42 | 26, 43 | 26, 45 | 26, 52 | 26, 53 | 26, 55 | 26, 56 | 26, 58 | 26, 60 | 26, 63 | 26, 66 | 26, 89 | 26, 91 | 26, 92 | 26, 94 | 26, 100 | 26, 104 | 26, 109 | 26, 114 | 26, 117 | 26, 119 | 26, 125 | 26, 128 | 26, 133 | 26, 136 | 26, 154 | 26, 157 | 26, 163 | 26, 165 | 26, 167 | 27, 42 | 27, 47 | 27, 49 | 27, 50 | 27, 58 | 27, 60 | 27, 66 | 27, 67 | 27, 68 | 27, 74 | 27, 76 | 27, 82 | 27, 84 | 27, 88 | 27, 89 | 27, 90 | 27, 93 | 27, 97 | 27, 99 | 27, 100 | 27, 101 | 27, 107 | 27, 108 | 27, 113 | 27, 115 | 27, 121 | 27, 128 | 27, 129 | 27, 132 | 27, 134 | 27, 139 | 27, 146 | 27, 149 | 27, 153 | 27, 160 | 27, 166 | 27, 168 | 28, 30 | 28, 31 | 28, 36 | 28, 43 | 28, 51 | 28, 57 | 28, 62 | 28, 64 | 28, 76 | 28, 81 | 28, 84 | 28, 96 | 28, 99 | 28, 102 | 28, 112 | 28, 131 | 28, 143 | 28, 144 | 28, 147 | 28, 148 | 28, 149 | 28, 153 | 28, 155 | 28, 158 | 28, 159 | 28, 167 | 28, 169 | 28, 170 | 29, 32 | 29, 40 | 29, 41 | 29, 43 | 29, 44 | 29, 46 | 29, 47 | 29, 51 | 29, 54 | 29, 57 | 29, 59 | 29, 64 | 29, 68 | 29, 85 | 29, 86 | 29, 89 | 29, 94 | 29, 95 | 29, 109 | 29, 110 | 29, 114 | 29, 121 | 29, 126 | 29, 129 | 29, 144 | 29, 148 | 29, 154 | 29, 162 | 29, 164 | 29, 167 | 29, 169 | 29, 171 | 30, 34 | 30, 42 | 30, 45 | 30, 49 | 30, 53 | 30, 54 | 30, 66 | 30, 75 | 30, 84 | 30, 88 | 30, 89 | 30, 93 | 30, 100 | 30, 103 | 30, 108 | 30, 116 | 30, 119 | 30, 120 | 30, 123 | 30, 127 | 30, 133 | 30, 134 | 30, 139 | 30, 141 | 30, 168 | 30, 169 | 31, 45 | 31, 47 | 31, 54 | 31, 56 | 31, 58 | 31, 60 | 31, 64 | 31, 73 | 31, 74 | 31, 85 | 31, 89 | 31, 91 | 31, 93 | 31, 99 | 31, 101 | 31, 105 | 31, 106 | 31, 110 | 31, 114 | 31, 115 | 31, 125 | 31, 127 | 31, 128 | 31, 130 | 31, 132 | 31, 133 | 31, 136 | 31, 137 | 31, 144 | 31, 149 | 31, 158 | 31, 167 | 32, 40 | 32, 41 | 32, 43 | 32, 47 | 32, 52 | 32, 69 | 32, 70 | 32, 78 | 32, 95 | 32, 109 | 32, 115 | 32, 122 | 32, 124 | 32, 132 | 32, 150 | 32, 163 | 32, 168 | 32, 169 | 33, 39 | 33, 40 | 33, 42 | 33, 44 | 33, 47 | 33, 52 | 33, 54 | 33, 56 | 33, 64 | 33, 69 | 33, 78 | 33, 81 | 33, 82 | 33, 87 | 33, 111 | 33, 119 | 33, 122 | 33, 124 | 33, 126 | 33, 128 | 33, 129 | 33, 130 | 33, 134 | 33, 138 | 33, 143 | 33, 147 | 33, 160 | 33, 165 | 33, 166 | 33, 168 | 33, 170 | 34, 42 | 34, 43 | 34, 44 | 34, 49 | 34, 51 | 34, 52 | 34, 55 | 34, 56 | 34, 62 | 34, 77 | 34, 78 | 34, 79 | 34, 84 | 34, 86 | 34, 94 | 34, 104 | 34, 107 | 34, 109 | 34, 116 | 34, 118 | 34, 121 | 34, 125 | 34, 136 | 34, 138 | 34, 140 | 34, 151 | 34, 160 | 34, 164 | 34, 168 | 35, 39 | 35, 40 | 35, 43 | 35, 50 | 35, 52 | 35, 61 | 35, 62 | 35, 73 | 35, 78 | 35, 83 | 35, 86 | 35, 98 | 35, 117 | 35, 125 | 35, 143 | 35, 147 | 35, 151 | 35, 156 | 35, 160 | 36, 38 | 36, 39 | 36, 42 | 36, 48 | 36, 53 | 36, 56 | 36, 58 | 36, 59 | 36, 61 | 36, 63 | 36, 69 | 36, 76 | 36, 78 | 36, 80 | 36, 81 | 36, 83 | 36, 88 | 36, 94 | 36, 95 | 36, 96 | 36, 109 | 36, 133 | 36, 135 | 36, 138 | 36, 142 | 36, 146 | 36, 148 | 36, 153 | 36, 155 | 36, 160 | 36, 162 | 36, 167 | 36, 170 | 37, 46 | 37, 49 | 37, 52 | 37, 61 | 37, 70 | 37, 79 | 37, 87 | 37, 109 | 37, 111 | 37, 112 | 37, 116 | 37, 118 | 37, 124 | 37, 125 | 37, 126 | 37, 129 | 37, 143 | 37, 145 | 37, 149 | 37, 151 | 37, 152 | 37, 156 | 37, 157 | 37, 160 | 37, 163 | 37, 166 | 37, 169 | 38, 45 | 38, 47 | 38, 50 | 38, 57 | 38, 60 | 38, 62 | 38, 68 | 38, 69 | 38, 76 | 38, 92 | 38, 100 | 38, 102 | 38, 104 | 38, 114 | 38, 121 | 38, 125 | 38, 133 | 38, 135 | 38, 138 | 38, 141 | 38, 152 | 38, 171 | 39, 44 | 39, 45 | 39, 49 | 39, 51 | 39, 59 | 39, 77 | 39, 80 | 39, 85 | 39, 86 | 39, 87 | 39, 89 | 39, 95 | 39, 96 | 39, 101 | 39, 102 | 39, 105 | 39, 108 | 39, 109 | 39, 110 | 39, 112 | 39, 118 | 39, 121 | 39, 124 | 39, 140 | 39, 143 | 39, 144 | 39, 158 | 40, 46 | 40, 58 | 40, 60 | 40, 64 | 40, 76 | 40, 80 | 40, 82 | 40, 83 | 40, 88 | 40, 90 | 40, 101 | 40, 108 | 40, 113 | 40, 114 | 40, 115 | 40, 121 | 40, 127 | 40, 128 | 40, 134 | 40, 141 | 40, 149 | 40, 161 | 41, 46 | 41, 51 | 41, 56 | 41, 58 | 41, 67 | 41, 74 | 41, 76 | 41, 78 | 41, 80 | 41, 83 | 41, 90 | 41, 93 | 41, 97 | 41, 100 | 41, 101 | 41, 102 | 41, 104 | 41, 123 | 41, 126 | 41, 127 | 41, 128 | 41, 137 | 41, 138 | 41, 146 | 41, 150 | 41, 167 | 41, 171 | 42, 43 | 42, 46 | 42, 47 | 42, 48 | 42, 49 | 42, 54 | 42, 57 | 42, 61 | 42, 64 | 42, 67 | 42, 70 | 42, 77 | 42, 81 | 42, 84 | 42, 85 | 42, 86 | 42, 100 | 42, 103 | 42, 105 | 42, 108 | 42, 109 | 42, 110 | 42, 111 | 42, 118 | 42, 144 | 42, 151 | 42, 153 | 42, 157 | 42, 169 | 42, 170 | 42, 171 | 43, 46 | 43, 66 | 43, 85 | 43, 91 | 43, 92 | 43, 97 | 43, 101 | 43, 105 | 43, 112 | 43, 114 | 43, 117 | 43, 123 | 43, 125 | 43, 132 | 43, 134 | 43, 135 | 43, 136 | 43, 137 | 43, 146 | 43, 153 | 43, 168 | 44, 45 | 44, 47 | 44, 51 | 44, 60 | 44, 78 | 44, 83 | 44, 101 | 44, 106 | 44, 112 | 44, 113 | 44, 119 | 44, 134 | 44, 135 | 44, 137 | 44, 143 | 44, 148 | 44, 152 | 44, 153 | 44, 154 | 44, 165 | 44, 168 | 45, 46 | 45, 49 | 45, 55 | 45, 66 | 45, 74 | 45, 87 | 45, 90 | 45, 94 | 45, 98 | 45, 110 | 45, 111 | 45, 115 | 45, 121 | 45, 123 | 45, 127 | 45, 129 | 45, 131 | 45, 133 | 45, 134 | 45, 136 | 45, 147 | 45, 156 | 45, 162 | 45, 166 | 45, 168 | 46, 61 | 46, 69 | 46, 76 | 46, 77 | 46, 78 | 46, 80 | 46, 83 | 46, 88 | 46, 89 | 46, 114 | 46, 120 | 46, 131 | 46, 139 | 46, 140 | 46, 142 | 46, 144 | 46, 145 | 46, 153 | 46, 158 | 46, 165 | 47, 52 | 47, 53 | 47, 67 | 47, 76 | 47, 90 | 47, 91 | 47, 97 | 47, 98 | 47, 101 | 47, 117 | 47, 120 | 47, 123 | 47, 124 | 47, 131 | 47, 132 | 47, 138 | 47, 139 | 47, 142 | 47, 144 | 47, 146 | 47, 153 | 47, 159 | 47, 163 | 47, 167 | 47, 170 | 47, 171 | 48, 52 | 48, 56 | 48, 57 | 48, 67 | 48, 69 | 48, 74 | 48, 80 | 48, 88 | 48, 92 | 48, 107 | 48, 108 | 48, 120 | 48, 121 | 48, 128 | 48, 130 | 48, 134 | 48, 137 | 48, 139 | 48, 141 | 48, 144 | 48, 148 | 48, 152 | 48, 158 | 49, 50 | 49, 56 | 49, 60 | 49, 78 | 49, 80 | 49, 83 | 49, 88 | 49, 89 | 49, 91 | 49, 92 | 49, 117 | 49, 119 | 49, 136 | 49, 140 | 49, 144 | 49, 146 | 49, 148 | 49, 156 | 49, 164 | 49, 167 | 49, 170 | 49, 171 | 49, 172 | 50, 54 | 50, 55 | 50, 73 | 50, 84 | 50, 92 | 50, 100 | 50, 106 | 50, 111 | 50, 131 | 50, 141 | 50, 147 | 50, 148 | 50, 159 | 50, 161 | 50, 162 | 50, 164 | 50, 169 | 50, 170 | 51, 56 | 51, 59 | 51, 81 | 51, 83 | 51, 88 | 51, 92 | 51, 94 | 51, 99 | 51, 100 | 51, 102 | 51, 103 | 51, 109 | 51, 114 | 51, 119 | 51, 130 | 51, 148 | 51, 151 | 51, 153 | 51, 157 | 51, 160 | 51, 164 | 51, 172 | 52, 55 | 52, 62 | 52, 65 | 52, 70 | 52, 73 | 52, 77 | 52, 84 | 52, 92 | 52, 100 | 52, 101 | 52, 102 | 52, 103 | 52, 105 | 52, 108 | 52, 109 | 52, 110 | 52, 111 | 52, 127 | 52, 146 | 52, 155 | 52, 156 | 52, 162 | 52, 167 | 52, 170 | 52, 172 | 53, 55 | 53, 57 | 53, 58 | 53, 73 | 53, 74 | 53, 80 | 53, 87 | 53, 92 | 53, 96 | 53, 106 | 53, 108 | 53, 121 | 53, 141 | 53, 149 | 53, 151 | 53, 153 | 53, 154 | 54, 61 | 54, 78 | 54, 79 | 54, 83 | 54, 85 | 54, 89 | 54, 91 | 54, 92 | 54, 97 | 54, 100 | 54, 104 | 54, 114 | 54, 123 | 54, 125 | 54, 128 | 54, 130 | 54, 132 | 54, 148 | 54, 151 | 54, 152 | 54, 153 | 54, 156 | 54, 157 | 54, 159 | 54, 160 | 54, 164 | 54, 170 | 55, 60 | 55, 64 | 55, 73 | 55, 75 | 55, 80 | 55, 84 | 55, 85 | 55, 88 | 55, 92 | 55, 97 | 55, 98 | 55, 105 | 55, 108 | 55, 112 | 55, 120 | 55, 123 | 55, 125 | 55, 126 | 55, 127 | 55, 129 | 55, 136 | 55, 138 | 55, 141 | 55, 161 | 55, 163 | 55, 168 | 55, 169 | 55, 171 | 56, 59 | 56, 64 | 56, 67 | 56, 80 | 56, 81 | 56, 82 | 56, 86 | 56, 89 | 56, 100 | 56, 102 | 56, 103 | 56, 109 | 56, 111 | 56, 112 | 56, 113 | 56, 118 | 56, 127 | 56, 129 | 56, 142 | 56, 153 | 56, 155 | 56, 156 | 56, 158 | 56, 162 | 56, 166 | 56, 168 | 57, 65 | 57, 66 | 57, 74 | 57, 82 | 57, 83 | 57, 84 | 57, 94 | 57, 96 | 57, 107 | 57, 116 | 57, 119 | 57, 120 | 57, 123 | 57, 129 | 57, 131 | 57, 132 | 57, 139 | 57, 142 | 57, 145 | 57, 147 | 57, 161 | 57, 162 | 57, 163 | 58, 64 | 58, 93 | 58, 96 | 58, 108 | 58, 110 | 58, 113 | 58, 116 | 58, 118 | 58, 119 | 58, 125 | 58, 127 | 58, 132 | 58, 133 | 58, 136 | 58, 140 | 58, 143 | 58, 150 | 58, 169 | 59, 62 | 59, 67 | 59, 68 | 59, 74 | 59, 83 | 59, 106 | 59, 115 | 59, 116 | 59, 132 | 59, 133 | 59, 134 | 59, 137 | 59, 138 | 59, 141 | 59, 143 | 59, 150 | 59, 154 | 59, 159 | 59, 163 | 59, 168 | 60, 61 | 60, 65 | 60, 69 | 60, 70 | 60, 79 | 60, 84 | 60, 86 | 60, 94 | 60, 96 | 60, 107 | 60, 110 | 60, 111 | 60, 117 | 60, 118 | 60, 119 | 60, 123 | 60, 125 | 60, 130 | 60, 132 | 60, 140 | 60, 152 | 60, 169 | 60, 172 | 61, 62 | 61, 63 | 61, 64 | 61, 74 | 61, 85 | 61, 90 | 61, 92 | 61, 97 | 61, 101 | 61, 107 | 61, 114 | 61, 120 | 61, 125 | 61, 126 | 61, 128 | 61, 133 | 61, 134 | 61, 135 | 61, 136 | 61, 138 | 61, 145 | 61, 146 | 61, 150 | 61, 163 | 61, 171 | 62, 67 | 62, 77 | 62, 78 | 62, 83 | 62, 90 | 62, 91 | 62, 92 | 62, 94 | 62, 101 | 62, 103 | 62, 105 | 62, 131 | 62, 132 | 62, 135 | 62, 139 | 62, 146 | 62, 153 | 62, 154 | 62, 162 | 62, 163 | 62, 170 | 62, 171 | 63, 73 | 63, 95 | 63, 98 | 63, 106 | 63, 129 | 63, 130 | 63, 137 | 63, 147 | 63, 150 | 63, 152 | 63, 156 | 63, 162 | 63, 163 | 63, 168 | 63, 170 | 63, 172 | 64, 67 | 64, 78 | 64, 95 | 64, 107 | 64, 109 | 64, 117 | 64, 119 | 64, 120 | 64, 123 | 64, 130 | 64, 132 | 64, 142 | 64, 152 | 64, 159 | 64, 160 | 64, 164 | 64, 171 | 65, 68 | 65, 69 | 65, 86 | 65, 90 | 65, 97 | 65, 99 | 65, 104 | 65, 105 | 65, 107 | 65, 112 | 65, 116 | 65, 121 | 65, 125 | 65, 126 | 65, 137 | 65, 148 | 65, 154 | 65, 159 | 65, 160 | 66, 67 | 66, 68 | 66, 74 | 66, 84 | 66, 87 | 66, 94 | 66, 97 | 66, 100 | 66, 112 | 66, 122 | 66, 129 | 66, 140 | 66, 146 | 66, 151 | 66, 157 | 66, 161 | 66, 164 | 66, 167 | 66, 172 | 67, 73 | 67, 77 | 67, 81 | 67, 86 | 67, 88 | 67, 95 | 67, 96 | 67, 108 | 67, 111 | 67, 126 | 67, 134 | 67, 142 | 67, 147 | 67, 150 | 67, 160 | 68, 69 | 68, 73 | 68, 77 | 68, 78 | 68, 84 | 68, 93 | 68, 106 | 68, 112 | 68, 116 | 68, 120 | 68, 123 | 68, 131 | 68, 132 | 68, 137 | 68, 163 | 68, 165 | 69, 70 | 69, 74 | 69, 75 | 69, 85 | 69, 86 | 69, 94 | 69, 95 | 69, 96 | 69, 97 | 69, 101 | 69, 112 | 69, 116 | 69, 124 | 69, 129 | 69, 142 | 69, 151 | 69, 153 | 69, 154 | 69, 155 | 69, 159 | 69, 164 | 69, 167 | 69, 169 | 70, 73 | 70, 76 | 70, 83 | 70, 84 | 70, 89 | 70, 92 | 70, 101 | 70, 102 | 70, 105 | 70, 120 | 70, 123 | 70, 128 | 70, 132 | 70, 133 | 70, 134 | 70, 141 | 70, 144 | 70, 145 | 70, 149 | 70, 154 | 70, 159 | 70, 160 | 70, 163 | 70, 166 | 70, 167 | 70, 169 | 71, 75 | 71, 76 | 71, 77 | 71, 80 | 71, 88 | 71, 97 | 71, 98 | 71, 107 | 71, 114 | 71, 120 | 71, 138 | 71, 153 | 71, 155 | 71, 159 | 71, 162 | 71, 163 | 71, 167 | 71, 172 | 72, 75 | 72, 79 | 72, 91 | 72, 95 | 72, 99 | 72, 103 | 72, 108 | 72, 109 | 72, 110 | 72, 114 | 72, 116 | 72, 121 | 72, 122 | 72, 124 | 72, 129 | 72, 131 | 72, 144 | 72, 157 | 72, 161 | 72, 167 | 72, 168 | 72, 172 | 73, 75 | 73, 85 | 73, 89 | 73, 96 | 73, 98 | 73, 101 | 73, 109 | 73, 123 | 73, 130 | 73, 136 | 73, 151 | 73, 152 | 73, 157 | 73, 158 | 73, 162 | 74, 75 | 74, 76 | 74, 83 | 74, 94 | 74, 97 | 74, 104 | 74, 118 | 74, 119 | 74, 120 | 74, 123 | 74, 132 | 74, 136 | 74, 140 | 74, 144 | 74, 145 | 74, 151 | 74, 152 | 74, 153 | 74, 159 | 74, 162 | 74, 164 | 74, 170 | 74, 171 | 74, 172 | 75, 81 | 75, 82 | 75, 83 | 75, 86 | 75, 87 | 75, 93 | 75, 95 | 75, 96 | 75, 107 | 75, 110 | 75, 112 | 75, 116 | 75, 121 | 75, 123 | 75, 124 | 75, 127 | 75, 129 | 75, 131 | 75, 133 | 75, 134 | 75, 138 | 75, 140 | 75, 145 | 75, 149 | 75, 150 | 75, 151 | 75, 163 | 76, 78 | 76, 84 | 76, 90 | 76, 109 | 76, 110 | 76, 115 | 76, 121 | 76, 123 | 76, 125 | 76, 126 | 76, 127 | 76, 130 | 76, 132 | 76, 133 | 76, 139 | 76, 147 | 76, 157 | 76, 165 | 76, 166 | 76, 169 | 76, 172 | 77, 80 | 77, 83 | 77, 84 | 77, 85 | 77, 89 | 77, 91 | 77, 97 | 77, 103 | 77, 104 | 77, 106 | 77, 119 | 77, 126 | 77, 127 | 77, 138 | 77, 141 | 77, 143 | 77, 145 | 77, 154 | 77, 155 | 77, 160 | 77, 166 | 77, 171 | 78, 79 | 78, 82 | 78, 84 | 78, 86 | 78, 95 | 78, 97 | 78, 99 | 78, 111 | 78, 124 | 78, 129 | 78, 131 | 78, 144 | 78, 156 | 78, 167 | 78, 171 | 79, 80 | 79, 83 | 79, 91 | 79, 92 | 79, 93 | 79, 101 | 79, 102 | 79, 104 | 79, 105 | 79, 112 | 79, 113 | 79, 120 | 79, 123 | 79, 132 | 79, 145 | 79, 149 | 79, 165 | 79, 167 | 79, 168 | 79, 169 | 80, 84 | 80, 87 | 80, 90 | 80, 94 | 80, 104 | 80, 107 | 80, 108 | 80, 111 | 80, 116 | 80, 118 | 80, 122 | 80, 124 | 80, 130 | 80, 142 | 80, 145 | 80, 147 | 80, 149 | 80, 151 | 80, 157 | 80, 163 | 80, 165 | 81, 83 | 81, 85 | 81, 88 | 81, 91 | 81, 98 | 81, 99 | 81, 103 | 81, 110 | 81, 121 | 81, 123 | 81, 125 | 81, 128 | 81, 129 | 81, 130 | 81, 132 | 81, 134 | 81, 135 | 81, 136 | 81, 137 | 81, 139 | 81, 149 | 81, 153 | 81, 154 | 81, 155 | 81, 160 | 81, 161 | 81, 167 | 81, 168 | 81, 169 | 81, 171 | 82, 92 | 82, 101 | 82, 105 | 82, 107 | 82, 111 | 82, 114 | 82, 123 | 82, 128 | 82, 130 | 82, 131 | 82, 136 | 82, 137 | 82, 138 | 82, 152 | 82, 153 | 82, 157 | 82, 162 | 82, 163 | 82, 167 | 83, 89 | 83, 99 | 83, 105 | 83, 108 | 83, 112 | 83, 114 | 83, 116 | 83, 121 | 83, 122 | 83, 126 | 83, 134 | 83, 143 | 83, 146 | 83, 162 | 83, 166 | 83, 170 | 83, 171 | 83, 172 | 84, 87 | 84, 91 | 84, 94 | 84, 95 | 84, 98 | 84, 103 | 84, 107 | 84, 109 | 84, 115 | 84, 119 | 84, 124 | 84, 131 | 84, 136 | 84, 137 | 84, 142 | 84, 151 | 84, 152 | 84, 153 | 84, 158 | 84, 164 | 84, 165 | 85, 93 | 85, 95 | 85, 96 | 85, 104 | 85, 106 | 85, 112 | 85, 119 | 85, 123 | 85, 127 | 85, 128 | 85, 129 | 85, 132 | 85, 136 | 85, 138 | 85, 142 | 85, 145 | 85, 147 | 85, 164 | 85, 166 | 86, 88 | 86, 89 | 86, 92 | 86, 99 | 86, 105 | 86, 111 | 86, 122 | 86, 148 | 86, 158 | 86, 164 | 86, 165 | 86, 170 | 86, 171 | 87, 92 | 87, 100 | 87, 101 | 87, 102 | 87, 103 | 87, 106 | 87, 108 | 87, 115 | 87, 120 | 87, 123 | 87, 125 | 87, 126 | 87, 127 | 87, 129 | 87, 133 | 87, 134 | 87, 136 | 87, 139 | 87, 148 | 87, 150 | 87, 152 | 87, 153 | 87, 169 | 88, 95 | 88, 99 | 88, 114 | 88, 124 | 88, 129 | 88, 134 | 88, 140 | 88, 146 | 88, 147 | 88, 148 | 88, 151 | 88, 158 | 88, 161 | 88, 162 | 88, 167 | 89, 93 | 89, 94 | 89, 113 | 89, 117 | 89, 118 | 89, 122 | 89, 125 | 89, 127 | 89, 129 | 89, 131 | 89, 133 | 89, 134 | 89, 139 | 89, 147 | 89, 152 | 89, 162 | 89, 164 | 89, 166 | 89, 170 | 90, 91 | 90, 94 | 90, 97 | 90, 99 | 90, 109 | 90, 113 | 90, 114 | 90, 121 | 90, 127 | 90, 129 | 90, 131 | 90, 144 | 90, 147 | 90, 149 | 90, 157 | 90, 158 | 90, 161 | 90, 162 | 91, 96 | 91, 104 | 91, 108 | 91, 109 | 91, 110 | 91, 113 | 91, 115 | 91, 116 | 91, 121 | 91, 123 | 91, 130 | 91, 139 | 91, 143 | 91, 145 | 91, 160 | 92, 98 | 92, 104 | 92, 107 | 92, 108 | 92, 109 | 92, 110 | 92, 112 | 92, 115 | 92, 117 | 92, 118 | 92, 119 | 92, 126 | 92, 127 | 92, 138 | 92, 142 | 92, 157 | 93, 103 | 93, 108 | 93, 124 | 93, 126 | 93, 141 | 93, 143 | 93, 147 | 93, 155 | 93, 157 | 93, 162 | 93, 167 | 94, 98 | 94, 99 | 94, 103 | 94, 105 | 94, 113 | 94, 121 | 94, 123 | 94, 132 | 94, 143 | 94, 144 | 94, 149 | 94, 161 | 95, 99 | 95, 103 | 95, 104 | 95, 107 | 95, 108 | 95, 110 | 95, 116 | 95, 117 | 95, 125 | 95, 126 | 95, 129 | 95, 130 | 95, 134 | 95, 138 | 95, 143 | 95, 150 | 95, 152 | 95, 165 | 95, 168 | 96, 102 | 96, 107 | 96, 116 | 96, 125 | 96, 135 | 96, 136 | 96, 158 | 96, 159 | 96, 160 | 96, 167 | 97, 98 | 97, 104 | 97, 109 | 97, 112 | 97, 118 | 97, 120 | 97, 123 | 97, 130 | 97, 132 | 97, 134 | 97, 139 | 97, 140 | 97, 142 | 97, 150 | 97, 151 | 97, 160 | 97, 161 | 97, 164 | 97, 169 | 98, 99 | 98, 103 | 98, 105 | 98, 109 | 98, 134 | 98, 141 | 98, 148 | 98, 155 | 98, 158 | 98, 159 | 98, 172 | 99, 104 | 99, 113 | 99, 118 | 99, 122 | 99, 123 | 99, 126 | 99, 127 | 99, 128 | 99, 134 | 99, 136 | 99, 145 | 99, 157 | 99, 164 | 99, 168 | 99, 172 | 100, 106 | 100, 107 | 100, 109 | 100, 110 | 100, 117 | 100, 118 | 100, 119 | 100, 126 | 100, 132 | 100, 134 | 100, 147 | 100, 149 | 100, 168 | 100, 169 | 101, 116 | 101, 118 | 101, 122 | 101, 126 | 101, 128 | 101, 131 | 101, 137 | 101, 160 | 101, 161 | 101, 163 | 101, 164 | 102, 104 | 102, 106 | 102, 113 | 102, 116 | 102, 117 | 102, 118 | 102, 119 | 102, 123 | 102, 125 | 102, 127 | 102, 128 | 102, 129 | 102, 132 | 102, 135 | 102, 137 | 102, 138 | 102, 140 | 102, 149 | 102, 152 | 102, 160 | 102, 165 | 102, 166 | 103, 104 | 103, 107 | 103, 110 | 103, 112 | 103, 116 | 103, 124 | 103, 127 | 103, 128 | 103, 131 | 103, 134 | 103, 135 | 103, 136 | 103, 138 | 103, 142 | 103, 149 | 103, 150 | 103, 156 | 103, 165 | 104, 109 | 104, 111 | 104, 121 | 104, 126 | 104, 127 | 104, 129 | 104, 141 | 104, 142 | 104, 146 | 104, 147 | 104, 148 | 104, 151 | 104, 153 | 104, 154 | 104, 157 | 104, 162 | 104, 171 | 104, 172 | 105, 112 | 105, 115 | 105, 121 | 105, 122 | 105, 136 | 105, 142 | 105, 143 | 105, 145 | 105, 151 | 105, 152 | 105, 156 | 105, 160 | 105, 162 | 105, 163 | 105, 168 | 105, 170 | 106, 117 | 106, 122 | 106, 124 | 106, 132 | 106, 136 | 106, 139 | 106, 141 | 106, 145 | 106, 148 | 106, 152 | 106, 163 | 106, 164 | 106, 165 | 107, 129 | 107, 134 | 107, 148 | 107, 151 | 107, 154 | 107, 155 | 107, 157 | 107, 162 | 107, 164 | 107, 167 | 107, 168 | 107, 171 | 108, 118 | 108, 125 | 108, 132 | 108, 133 | 108, 137 | 108, 139 | 108, 140 | 108, 141 | 108, 155 | 108, 156 | 108, 157 | 108, 164 | 109, 117 | 109, 121 | 109, 123 | 109, 125 | 109, 129 | 109, 132 | 109, 139 | 109, 149 | 109, 153 | 110, 118 | 110, 125 | 110, 130 | 110, 133 | 110, 136 | 110, 137 | 110, 156 | 110, 159 | 110, 162 | 110, 165 | 111, 119 | 111, 128 | 111, 133 | 111, 146 | 111, 148 | 111, 155 | 111, 158 | 111, 160 | 111, 166 | 111, 168 | 111, 169 | 112, 115 | 112, 119 | 112, 120 | 112, 131 | 112, 132 | 112, 138 | 112, 139 | 112, 141 | 112, 146 | 112, 147 | 112, 153 | 112, 155 | 112, 156 | 112, 157 | 112, 164 | 113, 120 | 113, 125 | 113, 131 | 113, 132 | 113, 137 | 113, 141 | 113, 145 | 113, 147 | 113, 148 | 113, 152 | 113, 153 | 113, 156 | 114, 115 | 114, 118 | 114, 127 | 114, 128 | 114, 132 | 114, 135 | 114, 136 | 114, 145 | 114, 149 | 114, 160 | 114, 161 | 114, 165 | 114, 172 | 115, 126 | 115, 129 | 115, 144 | 115, 147 | 115, 148 | 115, 149 | 115, 153 | 115, 157 | 115, 159 | 115, 161 | 115, 162 | 115, 164 | 116, 123 | 116, 124 | 116, 132 | 116, 133 | 116, 138 | 116, 139 | 116, 141 | 116, 146 | 116, 154 | 116, 157 | 116, 159 | 116, 160 | 116, 162 | 116, 172 | 117, 121 | 117, 122 | 117, 126 | 117, 143 | 117, 146 | 117, 150 | 117, 151 | 117, 154 | 117, 156 | 117, 157 | 117, 159 | 117, 164 | 117, 166 | 117, 167 | 117, 171 | 118, 121 | 118, 127 | 118, 128 | 118, 136 | 118, 137 | 118, 148 | 118, 149 | 118, 152 | 118, 154 | 118, 158 | 118, 165 | 118, 167 | 118, 169 | 119, 124 | 119, 143 | 119, 146 | 119, 153 | 119, 154 | 119, 158 | 119, 161 | 119, 166 | 120, 121 | 120, 131 | 120, 134 | 120, 142 | 120, 149 | 120, 150 | 120, 153 | 120, 156 | 120, 166 | 120, 170 | 120, 171 | 121, 131 | 121, 133 | 121, 135 | 121, 144 | 121, 154 | 121, 157 | 121, 160 | 121, 163 | 121, 170 | 121, 171 | 122, 125 | 122, 134 | 122, 135 | 122, 143 | 122, 145 | 122, 152 | 122, 154 | 122, 158 | 122, 165 | 122, 166 | 122, 167 | 122, 168 | 123, 140 | 123, 143 | 123, 144 | 123, 148 | 123, 161 | 123, 164 | 123, 166 | 123, 167 | 123, 169 | 123, 170 | 124, 130 | 124, 132 | 124, 135 | 124, 136 | 124, 139 | 124, 146 | 124, 148 | 124, 158 | 124, 159 | 124, 161 | 124, 163 | 124, 166 | 124, 171 | 125, 126 | 125, 129 | 125, 141 | 125, 144 | 125, 148 | 125, 158 | 125, 171 | 126, 130 | 126, 132 | 126, 136 | 126, 137 | 126, 139 | 126, 142 | 126, 148 | 126, 152 | 126, 154 | 126, 155 | 126, 165 | 126, 167 | 126, 170 | 127, 130 | 127, 139 | 127, 141 | 127, 142 | 127, 146 | 127, 153 | 127, 156 | 127, 157 | 127, 163 | 127, 171 | 128, 144 | 128, 146 | 128, 153 | 128, 154 | 128, 155 | 128, 157 | 128, 166 | 128, 167 | 128, 172 | 129, 132 | 129, 141 | 129, 145 | 129, 156 | 129, 158 | 129, 170 | 130, 140 | 130, 142 | 130, 157 | 130, 164 | 130, 167 | 130, 171 | 131, 139 | 131, 146 | 131, 150 | 131, 154 | 131, 155 | 131, 158 | 131, 161 | 131, 165 | 132, 134 | 132, 146 | 132, 148 | 132, 149 | 132, 150 | 132, 151 | 132, 153 | 132, 157 | 132, 159 | 132, 161 | 133, 142 | 133, 143 | 133, 148 | 133, 151 | 133, 154 | 133, 157 | 133, 170 | 133, 172 | 134, 144 | 134, 153 | 134, 160 | 134, 164 | 134, 165 | 135, 140 | 135, 141 | 135, 147 | 135, 157 | 135, 159 | 135, 166 | 135, 169 | 135, 171 | 136, 146 | 136, 153 | 136, 155 | 136, 156 | 136, 157 | 136, 166 | 136, 168 | 136, 169 | 136, 170 | 136, 171 | 137, 146 | 137, 150 | 137, 154 | 137, 155 | 137, 159 | 137, 167 | 137, 170 | 138, 144 | 138, 147 | 138, 148 | 138, 149 | 138, 150 | 138, 162 | 138, 164 | 138, 168 | 138, 172 | 139, 150 | 139, 151 | 139, 153 | 139, 155 | 139, 156 | 139, 158 | 139, 159 | 139, 164 | 139, 167 | 140, 154 | 140, 159 | 140, 160 | 140, 165 | 140, 169 | 140, 171 | 141, 143 | 141, 147 | 141, 150 | 141, 152 | 141, 162 | 141, 168 | 141, 169 | 141, 170 | 142, 155 | 142, 160 | 142, 163 | 142, 165 | 142, 169 | 143, 145 | 143, 151 | 143, 152 | 143, 153 | 143, 157 | 143, 159 | 143, 160 | 144, 145 | 144, 149 | 144, 150 | 144, 156 | 144, 160 | 144, 161 | 144, 162 | 144, 168 | 145, 146 | 145, 153 | 145, 156 | 145, 157 | 145, 159 | 145, 161 | 145, 162 | 145, 164 | 145, 169 | 146, 152 | 146, 160 | 146, 161 | 146, 164 | 146, 168 | 147, 148 | 147, 150 | 147, 158 | 147, 161 | 147, 168 | 148, 149 | 148, 150 | 148, 162 | 148, 163 | 148, 165 | 148, 172 | 149, 152 | 149, 162 | 149, 163 | 149, 165 | 149, 167 | 149, 170 | 150, 159 | 150, 160 | 150, 167 | 151, 153 | 151, 154 | 151, 166 | 151, 168 | 152, 161 | 152, 162 | 152, 171 | 152, 172 | 153, 162 | 153, 165 | 153, 166 | 153, 169 | 153, 172 | 154, 156 | 154, 157 | 154, 162 | 154, 169 | 155, 156 | 155, 160 | 155, 164 | 156, 160 | 156, 165 | 156, 168 | 156, 169 | 157, 161 | 157, 168 | 157, 169 | 157, 171 | 158, 160 | 158, 161 | 158, 168 | 158, 169 | 158, 170 | 159, 165 | 160, 161 | 160, 171 | 161, 162 | 161, 171 | 162, 165 | 162, 167 | 163, 164 | 163, 166 | 163, 167 | 163, 168 | 163, 169 | 163, 170 | 164, 165 | 165, 167 | 165, 169 | 166, 170 | 166, 171 | 168, 172 | 169, 170 |];
