Warehouses = 66;
Stores = 154;

Capacity = [57, 63, 68, 64, 63, 63, 67, 69, 66, 67, 62, 65, 71, 68, 63, 67, 67, 63, 58, 68, 72, 68, 63, 62, 67, 71, 63, 61, 61, 70, 67, 64, 61, 57, 59, 64, 63, 64, 64, 62, 62, 65, 71, 69, 76, 69, 64, 59, 61, 59, 63, 67, 71, 64, 59, 66, 67, 72, 69, 61, 67, 57, 63, 64, 66, 61];
FixedCost = [650, 720, 660, 600, 780, 600, 720, 780, 720, 720, 780, 600, 840, 780, 660, 780, 720, 660, 550, 720, 840, 780, 780, 780, 720, 910, 720, 780, 720, 840, 780, 780, 660, 550, 650, 660, 660, 780, 660, 660, 720, 780, 840, 720, 840, 720, 780, 650, 780, 550, 780, 720, 840, 720, 550, 720, 600, 910, 660, 660, 660, 550, 600, 720, 600, 780];
Goods = [13, 12, 12, 11, 14, 17, 9, 13, 16, 17, 11, 15, 12, 14, 12, 11, 15, 15, 10, 12, 12, 11, 15, 13, 8, 11, 14, 15, 12, 11, 11, 15, 14, 11, 13, 14, 11, 14, 13, 12, 10, 10, 12, 14, 14, 11, 15, 14, 12, 8, 14, 11, 12, 13, 11, 13, 13, 13, 12, 11, 14, 13, 12, 13, 9, 11, 14, 15, 15, 14, 11, 12, 13, 8, 14, 10, 16, 14, 13, 12, 8, 11, 16, 14, 15, 15, 14, 14, 15, 14, 11, 10, 11, 12, 14, 14, 10, 15, 16, 13, 9, 13, 8, 12, 11, 10, 11, 10, 17, 16, 11, 11, 12, 14, 14, 15, 13, 12, 14, 15, 11, 13, 11, 14, 12, 14, 10, 11, 11, 16, 12, 14, 11, 13, 14, 14, 11, 10, 9, 13, 11, 11, 12, 13, 13, 15, 13, 13, 10, 12, 10, 15, 12, 15];
SupplyCost = [|18, 17, 24, 9, 13, 9, 14, 15, 19, 12, 45, 12, 29, 18, 25, 24, 6, 7, 13, 19, 28, 19, 9, 5, 17, 9, 25, 21, 30, 33, 25, 18, 15, 30, 25, 28, 50, 22, 10, 30, 24, 6, 18, 62, 28, 12, 26, 6, 8, 21, 21, 19, 16, 11, 28, 35, 1, 21, 24, 26, 59, 17, 19, 13, 9, 43
              |21, 16, 32, 13, 18, 6, 8, 15, 26, 3, 35, 21, 35, 22, 35, 17, 15, 10, 4, 27, 25, 19, 6, 5, 19, 18, 33, 21, 23, 38, 17, 20, 17, 38, 19, 31, 60, 31, 8, 30, 22, 12, 10, 67, 18, 21, 24, 6, 11, 27, 12, 21, 19, 20, 28, 26, 9, 23, 33, 17, 53, 26, 20, 22, 11, 46
              |7, 13, 13, 7, 2, 23, 27, 29, 7, 22, 54, 20, 15, 4, 27, 37, 14, 21, 22, 9, 22, 12, 15, 16, 31, 18, 34, 35, 31, 18, 29, 32, 29, 18, 39, 14, 45, 21, 14, 20, 18, 9, 25, 48, 36, 9, 18, 14, 9, 7, 28, 33, 6, 17, 17, 39, 15, 9, 28, 35, 55, 22, 11, 18, 24, 28
              |9, 5, 24, 6, 9, 16, 19, 25, 18, 12, 42, 23, 25, 12, 34, 28, 16, 18, 11, 21, 16, 8, 6, 9, 28, 20, 37, 31, 21, 28, 17, 29, 26, 30, 31, 20, 56, 29, 4, 19, 12, 8, 13, 57, 25, 17, 14, 7, 5, 18, 16, 30, 8, 21, 17, 27, 12, 12, 34, 24, 47, 28, 8, 23, 20, 35
              |19, 13, 37, 22, 24, 31, 31, 39, 32, 23, 40, 41, 34, 23, 51, 37, 34, 34, 21, 35, 6, 14, 21, 25, 44, 38, 55, 46, 9, 35, 14, 45, 41, 41, 41, 25, 71, 46, 19, 15, 9, 25, 17, 58, 26, 34, 10, 23, 23, 30, 18, 46, 20, 38, 16, 19, 29, 19, 52, 26, 30, 45, 15, 41, 35, 35
              |9, 12, 17, 3, 4, 17, 22, 24, 11, 17, 49, 17, 20, 8, 26, 32, 10, 16, 17, 13, 22, 12, 10, 10, 26, 14, 31, 30, 29, 24, 26, 27, 24, 23, 33, 18, 48, 21, 10, 23, 18, 3, 21, 53, 32, 9, 19, 9, 4, 12, 24, 28, 7, 14, 20, 36, 10, 12, 27, 31, 55, 20, 12, 16, 18, 33
              |17, 13, 28, 9, 14, 9, 12, 17, 22, 6, 39, 19, 31, 18, 33, 21, 13, 11, 7, 23, 23, 16, 2, 2, 21, 16, 32, 24, 23, 34, 18, 22, 19, 34, 23, 27, 57, 28, 4, 27, 20, 8, 11, 63, 22, 17, 21, 2, 7, 23, 14, 23, 15, 18, 25, 28, 7, 19, 31, 20, 52, 24, 16, 20, 12, 42
              |16, 10, 34, 19, 21, 27, 27, 35, 29, 19, 39, 37, 32, 21, 48, 33, 30, 30, 17, 32, 7, 11, 17, 21, 40, 34, 51, 42, 9, 34, 12, 41, 37, 39, 37, 24, 68, 43, 15, 15, 7, 21, 14, 58, 24, 30, 9, 19, 19, 27, 16, 42, 17, 34, 15, 19, 25, 17, 48, 23, 34, 41, 12, 37, 31, 35
              |24, 24, 37, 32, 30, 46, 47, 54, 34, 39, 58, 51, 30, 27, 57, 54, 44, 48, 38, 37, 15, 22, 35, 38, 58, 48, 64, 61, 27, 29, 32, 59, 56, 39, 58, 21, 70, 51, 33, 11, 17, 35, 35, 43, 45, 40, 16, 36, 34, 31, 37, 60, 26, 47, 14, 37, 41, 22, 59, 44, 30, 53, 22, 49, 49, 22
              |36, 41, 22, 33, 31, 38, 43, 38, 24, 43, 75, 21, 30, 32, 7, 52, 25, 33, 44, 21, 51, 41, 38, 36, 35, 23, 21, 40, 59, 33, 55, 35, 35, 23, 50, 37, 20, 9, 39, 48, 47, 31, 49, 56, 59, 21, 47, 36, 33, 28, 52, 36, 35, 21, 45, 65, 32, 37, 12, 57, 84, 16, 40, 19, 34, 47
              |38, 36, 43, 30, 34, 14, 13, 6, 38, 21, 40, 21, 49, 38, 34, 14, 22, 14, 23, 38, 45, 38, 25, 21, 6, 21, 24, 2, 41, 53, 34, 6, 7, 49, 11, 48, 61, 34, 27, 50, 42, 27, 27, 82, 28, 30, 44, 24, 28, 41, 28, 6, 36, 24, 47, 40, 20, 41, 30, 27, 71, 26, 39, 24, 11, 63
              |36, 29, 53, 37, 40, 39, 37, 46, 48, 31, 30, 53, 51, 40, 66, 38, 47, 44, 29, 51, 23, 31, 33, 36, 52, 50, 66, 52, 11, 52, 16, 53, 50, 58, 43, 42, 87, 61, 31, 31, 26, 39, 24, 73, 24, 48, 27, 35, 37, 46, 22, 53, 36, 51, 32, 11, 41, 36, 65, 25, 22, 58, 31, 54, 44, 51
              |35, 33, 40, 27, 31, 12, 12, 3, 35, 19, 41, 18, 46, 35, 32, 16, 19, 11, 21, 35, 43, 36, 22, 19, 4, 17, 22, 4, 40, 50, 33, 4, 4, 46, 13, 45, 58, 31, 25, 47, 40, 24, 26, 79, 28, 27, 42, 21, 25, 38, 27, 4, 33, 20, 45, 40, 17, 38, 27, 27, 70, 23, 36, 21, 8, 60
              |44, 44, 43, 36, 39, 25, 27, 18, 40, 33, 56, 19, 50, 43, 26, 30, 25, 21, 35, 38, 55, 46, 34, 30, 12, 21, 12, 14, 54, 55, 48, 11, 14, 48, 26, 52, 51, 29, 36, 57, 51, 33, 40, 83, 43, 31, 53, 32, 34, 44, 42, 11, 42, 23, 54, 55, 27, 47, 21, 42, 84, 21, 46, 22, 20, 67
              |52, 48, 57, 43, 48, 27, 24, 19, 52, 32, 40, 34, 63, 52, 46, 19, 36, 27, 34, 52, 57, 51, 38, 35, 19, 34, 33, 14, 51, 67, 43, 19, 21, 63, 15, 62, 72, 47, 40, 62, 54, 41, 38, 96, 34, 44, 56, 37, 41, 55, 37, 17, 50, 37, 60, 47, 34, 54, 41, 33, 80, 38, 52, 37, 25, 77
              |13, 6, 31, 15, 17, 23, 24, 32, 26, 16, 39, 33, 29, 17, 44, 31, 26, 26, 14, 28, 9, 9, 13, 17, 36, 30, 47, 38, 12, 32, 12, 37, 34, 36, 35, 22, 64, 39, 11, 16, 7, 17, 12, 58, 23, 26, 9, 15, 15, 24, 14, 38, 14, 30, 15, 21, 21, 15, 44, 22, 38, 37, 9, 33, 27, 35
              |31, 32, 30, 23, 26, 17, 21, 14, 26, 25, 53, 6, 37, 30, 17, 29, 11, 12, 26, 25, 43, 33, 23, 19, 11, 8, 11, 16, 45, 41, 39, 11, 10, 35, 27, 39, 44, 17, 25, 44, 39, 20, 32, 70, 38, 18, 40, 21, 22, 30, 34, 12, 29, 9, 41, 48, 15, 34, 13, 37, 74, 9, 34, 9, 12, 53
              |16, 21, 23, 25, 21, 41, 44, 49, 22, 37, 63, 41, 16, 17, 45, 53, 35, 41, 36, 25, 18, 17, 31, 33, 51, 39, 54, 55, 33, 14, 36, 52, 49, 25, 56, 8, 56, 39, 29, 9, 17, 28, 35, 34, 47, 29, 15, 31, 27, 18, 38, 54, 18, 38, 9, 43, 35, 13, 48, 46, 44, 42, 17, 39, 43, 11
              |10, 11, 19, 2, 6, 16, 20, 23, 13, 15, 48, 17, 22, 10, 27, 30, 10, 15, 15, 15, 22, 12, 8, 8, 25, 14, 31, 29, 28, 26, 24, 26, 23, 25, 31, 20, 49, 22, 8, 23, 18, 1, 19, 55, 30, 10, 19, 7, 2, 14, 22, 27, 8, 14, 20, 34, 8, 13, 27, 29, 54, 21, 12, 16, 17, 35
              |15, 19, 14, 10, 9, 20, 25, 25, 9, 22, 55, 13, 19, 12, 19, 35, 8, 17, 23, 8, 29, 19, 16, 15, 25, 11, 26, 30, 36, 23, 33, 26, 23, 19, 36, 21, 41, 14, 16, 28, 25, 9, 27, 53, 38, 1, 25, 14, 11, 12, 30, 27, 13, 9, 25, 43, 12, 17, 20, 36, 62, 14, 18, 10, 19, 35
              |21, 14, 38, 21, 24, 23, 22, 31, 33, 15, 31, 36, 37, 25, 49, 27, 30, 27, 13, 35, 14, 16, 16, 19, 36, 33, 49, 37, 6, 40, 4, 37, 34, 44, 31, 30, 71, 44, 14, 23, 14, 22, 8, 65, 16, 32, 16, 18, 20, 32, 9, 38, 21, 34, 22, 13, 24, 23, 48, 16, 36, 41, 17, 37, 28, 42
              |9, 9, 25, 16, 15, 31, 33, 39, 21, 25, 50, 35, 21, 13, 43, 41, 28, 32, 24, 24, 7, 7, 20, 23, 42, 32, 49, 46, 21, 22, 23, 43, 40, 29, 45, 12, 59, 37, 18, 5, 5, 20, 23, 46, 34, 25, 3, 21, 18, 18, 26, 45, 11, 32, 3, 31, 26, 8, 44, 34, 39, 38, 6, 34, 34, 23
              |15, 15, 21, 6, 10, 12, 17, 19, 15, 14, 47, 13, 25, 14, 25, 27, 6, 11, 15, 16, 26, 16, 8, 6, 21, 10, 27, 25, 30, 29, 25, 21, 18, 27, 28, 24, 49, 21, 9, 28, 22, 3, 19, 59, 30, 9, 23, 6, 5, 17, 22, 23, 13, 11, 25, 35, 4, 17, 24, 28, 57, 17, 16, 13, 13, 39
              |3, 10, 16, 11, 7, 27, 31, 35, 11, 24, 54, 27, 13, 3, 33, 40, 21, 27, 24, 14, 16, 8, 17, 19, 37, 25, 41, 41, 28, 16, 28, 38, 35, 20, 43, 8, 50, 27, 16, 13, 13, 13, 25, 44, 37, 16, 12, 17, 13, 8, 28, 39, 4, 24, 10, 37, 21, 2, 35, 36, 49, 29, 7, 25, 29, 23
              |5, 12, 14, 12, 8, 29, 33, 36, 10, 26, 56, 28, 11, 4, 33, 42, 22, 28, 26, 14, 18, 9, 19, 21, 38, 25, 41, 42, 30, 14, 30, 39, 36, 19, 44, 6, 49, 27, 18, 13, 14, 15, 27, 42, 39, 16, 13, 19, 14, 7, 30, 40, 6, 24, 10, 39, 22, 4, 35, 38, 50, 29, 9, 26, 30, 21
              |12, 8, 30, 17, 17, 29, 30, 37, 25, 22, 45, 36, 26, 16, 46, 37, 29, 31, 21, 28, 3, 8, 18, 22, 41, 33, 50, 44, 15, 28, 17, 42, 39, 34, 41, 18, 64, 40, 16, 9, 1, 20, 19, 52, 29, 28, 3, 20, 18, 23, 21, 43, 13, 33, 9, 25, 25, 12, 46, 29, 35, 40, 8, 35, 33, 29
              |35, 31, 45, 28, 33, 12, 7, 11, 40, 14, 28, 28, 49, 37, 42, 3, 25, 16, 16, 40, 38, 34, 21, 19, 16, 26, 35, 14, 31, 53, 24, 17, 16, 51, 5, 46, 69, 40, 22, 45, 36, 26, 18, 82, 16, 33, 38, 21, 26, 41, 18, 17, 34, 29, 43, 29, 20, 38, 38, 15, 61, 33, 34, 30, 15, 61
              |32, 27, 43, 25, 30, 10, 5, 13, 37, 10, 27, 27, 46, 34, 42, 6, 24, 16, 11, 38, 34, 30, 17, 16, 18, 25, 36, 17, 27, 50, 20, 19, 17, 49, 9, 43, 68, 40, 19, 40, 32, 23, 14, 79, 13, 31, 34, 17, 23, 39, 14, 20, 30, 28, 39, 25, 18, 34, 39, 12, 57, 33, 31, 30, 14, 57
              |24, 17, 41, 25, 28, 30, 29, 38, 36, 22, 34, 42, 39, 28, 54, 34, 35, 34, 20, 39, 12, 19, 22, 26, 43, 39, 56, 44, 3, 40, 9, 44, 41, 46, 38, 31, 75, 49, 20, 21, 14, 27, 15, 64, 21, 37, 16, 24, 25, 34, 15, 45, 24, 40, 21, 13, 30, 24, 54, 21, 29, 47, 19, 43, 35, 41
              |17, 10, 34, 16, 19, 19, 19, 27, 28, 11, 34, 31, 34, 21, 44, 25, 25, 23, 9, 31, 14, 13, 11, 15, 32, 28, 45, 34, 11, 36, 8, 33, 30, 40, 29, 27, 66, 39, 9, 21, 13, 17, 6, 63, 17, 27, 15, 13, 15, 28, 9, 34, 17, 30, 20, 17, 19, 19, 43, 17, 40, 36, 14, 32, 24, 40
              |17, 22, 21, 25, 21, 42, 45, 50, 21, 38, 65, 41, 13, 17, 43, 55, 35, 42, 38, 24, 21, 19, 32, 34, 52, 39, 53, 56, 36, 11, 38, 52, 50, 22, 57, 7, 53, 37, 30, 12, 20, 28, 38, 31, 49, 29, 18, 32, 28, 17, 40, 54, 19, 37, 12, 46, 35, 14, 46, 49, 47, 41, 18, 38, 44, 9
              |24, 31, 7, 24, 20, 36, 41, 40, 11, 38, 71, 24, 14, 20, 18, 51, 23, 32, 39, 9, 38, 29, 32, 31, 39, 24, 32, 44, 49, 17, 47, 39, 37, 7, 51, 22, 28, 13, 31, 34, 35, 24, 42, 42, 53, 15, 34, 30, 26, 14, 45, 40, 23, 21, 31, 57, 28, 24, 23, 52, 70, 21, 28, 21, 34, 30
              |29, 25, 38, 21, 26, 5, 1, 8, 33, 9, 33, 21, 42, 30, 36, 10, 18, 10, 11, 33, 34, 28, 14, 12, 14, 19, 31, 14, 29, 46, 22, 15, 12, 44, 11, 39, 62, 34, 16, 39, 31, 19, 15, 75, 18, 26, 33, 14, 19, 34, 16, 15, 27, 22, 37, 29, 13, 32, 33, 17, 59, 27, 28, 24, 9, 54
              |26, 23, 35, 18, 23, 2, 3, 8, 30, 8, 36, 19, 39, 27, 34, 13, 15, 7, 10, 30, 32, 25, 12, 9, 13, 17, 29, 15, 29, 43, 22, 14, 11, 41, 14, 37, 60, 31, 14, 37, 29, 16, 15, 72, 20, 23, 31, 11, 16, 32, 16, 15, 24, 19, 35, 30, 10, 29, 31, 18, 59, 25, 26, 21, 6, 52
              |17, 10, 35, 18, 21, 24, 25, 33, 29, 17, 36, 35, 33, 21, 47, 31, 28, 28, 15, 32, 9, 12, 15, 19, 37, 32, 49, 39, 9, 35, 9, 38, 35, 40, 35, 25, 68, 42, 13, 18, 9, 20, 11, 60, 21, 29, 11, 17, 18, 28, 13, 39, 17, 33, 17, 17, 23, 18, 47, 21, 35, 40, 13, 35, 29, 37
              |39, 32, 54, 35, 39, 25, 21, 29, 48, 20, 13, 42, 55, 42, 57, 16, 38, 31, 20, 49, 35, 35, 27, 28, 34, 40, 52, 32, 22, 58, 17, 35, 33, 60, 21, 49, 82, 54, 27, 43, 34, 34, 17, 85, 5, 44, 37, 28, 33, 48, 14, 35, 38, 42, 42, 15, 31, 41, 54, 6, 48, 48, 36, 44, 30, 63
              |8, 6, 25, 14, 14, 27, 30, 36, 21, 22, 47, 33, 22, 12, 42, 38, 26, 29, 21, 24, 7, 4, 17, 20, 39, 30, 47, 43, 19, 24, 20, 40, 37, 30, 41, 14, 60, 36, 14, 8, 3, 17, 20, 49, 31, 24, 3, 18, 15, 18, 22, 42, 9, 30, 7, 28, 23, 8, 43, 30, 39, 36, 4, 32, 31, 27
              |8, 3, 26, 12, 13, 25, 27, 33, 21, 19, 45, 31, 23, 12, 40, 35, 24, 27, 18, 23, 8, 3, 14, 17, 37, 28, 45, 40, 18, 25, 18, 38, 35, 31, 38, 16, 59, 35, 12, 11, 4, 15, 17, 52, 29, 22, 5, 15, 13, 19, 20, 39, 9, 28, 9, 27, 21, 9, 41, 28, 40, 35, 4, 30, 28, 29
              |31, 25, 49, 34, 36, 39, 38, 47, 44, 31, 36, 52, 45, 35, 63, 41, 45, 43, 29, 47, 17, 26, 31, 35, 52, 48, 65, 53, 10, 46, 17, 53, 50, 53, 46, 36, 83, 58, 29, 25, 21, 36, 24, 67, 27, 45, 21, 33, 34, 42, 23, 54, 32, 49, 26, 16, 39, 31, 63, 28, 20, 56, 27, 52, 44, 44
              |24, 18, 42, 26, 28, 32, 32, 40, 37, 24, 35, 44, 39, 28, 55, 36, 37, 36, 22, 40, 11, 19, 24, 27, 45, 41, 57, 47, 5, 40, 12, 46, 43, 47, 40, 30, 76, 50, 22, 20, 14, 29, 17, 63, 23, 38, 15, 26, 26, 35, 17, 47, 25, 42, 21, 15, 32, 24, 55, 23, 27, 48, 20, 44, 37, 40
              |18, 21, 16, 12, 12, 19, 24, 23, 11, 22, 55, 9, 22, 15, 17, 34, 6, 15, 23, 10, 32, 21, 17, 15, 23, 8, 23, 28, 38, 26, 34, 23, 21, 21, 34, 24, 40, 12, 18, 31, 28, 10, 28, 55, 38, 3, 28, 15, 12, 15, 31, 25, 16, 6, 28, 44, 11, 20, 17, 37, 64, 11, 21, 7, 17, 38
              |14, 18, 24, 23, 20, 39, 42, 47, 22, 34, 60, 40, 17, 16, 45, 50, 34, 39, 33, 25, 15, 15, 28, 31, 50, 38, 54, 53, 30, 16, 33, 50, 47, 26, 53, 8, 57, 39, 26, 6, 14, 26, 33, 37, 44, 29, 12, 29, 25, 18, 35, 52, 17, 37, 6, 40, 33, 12, 47, 43, 42, 42, 14, 38, 41, 14
              |32, 34, 26, 25, 26, 23, 28, 22, 24, 30, 60, 7, 34, 29, 10, 36, 14, 18, 32, 22, 45, 35, 27, 24, 18, 10, 9, 23, 49, 38, 44, 18, 18, 30, 34, 38, 37, 11, 29, 45, 41, 22, 37, 66, 45, 16, 42, 25, 25, 28, 39, 19, 30, 9, 42, 53, 19, 34, 6, 43, 77, 4, 35, 7, 19, 51
              |19, 12, 36, 18, 21, 20, 20, 28, 30, 12, 32, 33, 36, 23, 46, 25, 26, 24, 10, 33, 15, 15, 13, 16, 33, 30, 46, 35, 9, 38, 5, 34, 31, 42, 29, 29, 68, 41, 11, 23, 14, 19, 6, 65, 16, 29, 16, 15, 17, 30, 7, 35, 19, 31, 22, 15, 21, 21, 45, 15, 39, 38, 16, 34, 25, 42
              |35, 28, 52, 34, 38, 30, 27, 36, 47, 23, 18, 46, 52, 39, 60, 26, 40, 36, 21, 49, 27, 31, 27, 30, 41, 43, 58, 41, 12, 54, 11, 42, 40, 58, 31, 44, 84, 56, 27, 36, 28, 34, 16, 79, 11, 44, 30, 29, 32, 46, 13, 43, 35, 45, 36, 3, 34, 37, 58, 12, 36, 52, 32, 47, 35, 56
              |22, 21, 27, 13, 17, 7, 12, 12, 22, 13, 44, 11, 32, 21, 25, 22, 6, 4, 14, 22, 31, 22, 11, 7, 14, 8, 23, 18, 33, 36, 27, 14, 11, 33, 22, 31, 51, 22, 13, 34, 28, 10, 20, 65, 28, 14, 29, 9, 11, 24, 22, 16, 19, 10, 31, 36, 3, 24, 23, 26, 62, 16, 23, 12, 6, 46
              |21, 27, 4, 21, 17, 33, 38, 37, 8, 35, 67, 22, 12, 16, 19, 48, 20, 29, 35, 5, 35, 25, 28, 27, 37, 22, 31, 42, 46, 16, 43, 37, 35, 7, 48, 19, 31, 13, 28, 30, 31, 21, 39, 42, 50, 12, 31, 27, 22, 10, 42, 38, 20, 19, 28, 53, 25, 21, 23, 49, 67, 20, 25, 19, 32, 29
              |44, 39, 53, 36, 41, 20, 16, 16, 48, 23, 28, 33, 57, 45, 47, 7, 32, 23, 24, 48, 47, 42, 29, 27, 19, 32, 38, 15, 38, 61, 31, 20, 20, 59, 4, 55, 74, 46, 31, 53, 45, 34, 26, 90, 21, 40, 47, 29, 34, 50, 26, 19, 42, 35, 51, 35, 28, 47, 43, 21, 67, 39, 43, 36, 21, 69
              |19, 16, 29, 11, 16, 6, 9, 14, 23, 6, 39, 17, 32, 20, 31, 19, 11, 8, 8, 24, 26, 19, 5, 2, 18, 14, 30, 21, 26, 36, 20, 19, 16, 35, 21, 30, 56, 27, 8, 30, 23, 9, 13, 65, 22, 17, 25, 4, 9, 25, 16, 20, 17, 16, 28, 29, 5, 22, 29, 21, 55, 23, 19, 18, 9, 45
              |18, 21, 17, 12, 12, 18, 23, 22, 12, 21, 54, 9, 23, 16, 17, 33, 5, 14, 22, 11, 32, 21, 16, 14, 22, 7, 22, 27, 37, 27, 33, 22, 20, 22, 33, 25, 41, 13, 17, 31, 27, 9, 27, 56, 37, 4, 28, 14, 12, 16, 30, 24, 16, 5, 28, 43, 10, 20, 17, 36, 64, 11, 21, 7, 16, 39
              |33, 32, 35, 24, 28, 12, 15, 6, 31, 20, 46, 12, 41, 32, 25, 21, 14, 8, 22, 30, 42, 34, 21, 17, 3, 12, 17, 8, 41, 46, 35, 4, 2, 41, 18, 42, 52, 25, 24, 45, 39, 21, 27, 75, 32, 22, 40, 20, 22, 34, 29, 5, 31, 15, 42, 43, 14, 36, 21, 31, 71, 17, 34, 15, 7, 57
              |16, 14, 25, 7, 12, 9, 14, 17, 19, 9, 42, 16, 28, 16, 29, 24, 9, 10, 10, 20, 24, 16, 4, 2, 20, 13, 30, 24, 26, 32, 21, 21, 18, 31, 25, 26, 53, 25, 6, 27, 21, 5, 15, 61, 25, 14, 22, 2, 5, 21, 18, 22, 13, 14, 25, 31, 4, 18, 28, 24, 55, 21, 16, 17, 12, 41
              |16, 23, 5, 20, 15, 35, 40, 41, 8, 35, 67, 28, 3, 12, 28, 50, 25, 33, 35, 9, 29, 21, 28, 28, 42, 27, 39, 47, 42, 7, 41, 42, 40, 7, 51, 11, 38, 22, 27, 23, 26, 21, 37, 36, 49, 16, 25, 27, 22, 6, 40, 44, 16, 25, 21, 50, 28, 15, 31, 48, 60, 27, 20, 25, 35, 20
              |7, 4, 23, 5, 8, 18, 21, 27, 17, 14, 44, 24, 23, 10, 34, 30, 17, 20, 14, 19, 15, 6, 8, 11, 30, 21, 38, 33, 21, 26, 19, 31, 28, 28, 33, 18, 55, 29, 6, 17, 11, 8, 15, 54, 27, 17, 12, 9, 6, 16, 18, 32, 6, 21, 15, 29, 14, 10, 34, 26, 47, 28, 6, 24, 21, 33
              |36, 29, 53, 34, 38, 30, 26, 35, 47, 23, 17, 46, 52, 40, 60, 25, 40, 35, 21, 49, 28, 32, 27, 30, 41, 43, 57, 40, 14, 55, 11, 42, 39, 59, 30, 45, 84, 56, 27, 37, 29, 35, 16, 80, 10, 45, 31, 29, 33, 46, 13, 42, 36, 45, 37, 4, 34, 38, 58, 11, 37, 52, 33, 47, 35, 57
              |6, 13, 13, 13, 8, 29, 33, 36, 9, 27, 57, 27, 10, 4, 32, 43, 22, 28, 26, 12, 19, 11, 20, 21, 38, 25, 41, 42, 31, 13, 31, 39, 36, 17, 45, 6, 47, 26, 18, 15, 16, 15, 28, 42, 40, 16, 15, 20, 15, 6, 31, 40, 7, 24, 12, 40, 22, 5, 34, 39, 51, 29, 10, 25, 30, 21
              |35, 40, 21, 31, 30, 37, 42, 37, 23, 42, 74, 20, 29, 31, 6, 51, 24, 31, 43, 20, 50, 39, 37, 34, 34, 22, 21, 39, 58, 32, 54, 34, 33, 22, 49, 36, 21, 8, 37, 47, 46, 30, 48, 55, 57, 20, 46, 35, 32, 26, 50, 35, 34, 19, 44, 64, 30, 36, 11, 56, 82, 14, 39, 17, 33, 46
              |24, 29, 14, 20, 18, 27, 32, 29, 13, 31, 64, 12, 22, 20, 10, 42, 14, 22, 32, 10, 39, 28, 26, 23, 28, 13, 21, 33, 46, 26, 42, 28, 26, 18, 41, 27, 31, 4, 26, 36, 35, 18, 36, 53, 47, 9, 35, 24, 21, 17, 39, 29, 22, 10, 33, 52, 20, 25, 13, 45, 71, 9, 28, 9, 24, 39
              |22, 28, 7, 21, 18, 32, 37, 36, 9, 34, 67, 20, 15, 18, 16, 47, 19, 28, 35, 6, 37, 27, 28, 27, 35, 20, 28, 40, 47, 19, 44, 35, 33, 10, 47, 22, 30, 10, 28, 33, 33, 21, 39, 45, 50, 11, 33, 27, 22, 13, 42, 36, 21, 17, 30, 54, 24, 23, 20, 49, 69, 17, 26, 17, 30, 32
              |15, 8, 32, 15, 18, 22, 22, 30, 27, 14, 37, 32, 31, 19, 44, 29, 25, 25, 13, 29, 11, 10, 12, 16, 35, 29, 46, 37, 11, 33, 10, 36, 32, 38, 33, 24, 65, 39, 10, 18, 9, 17, 10, 60, 21, 26, 11, 14, 15, 25, 12, 37, 15, 30, 17, 19, 20, 16, 43, 20, 38, 37, 11, 32, 26, 37
              |18, 13, 35, 22, 23, 31, 32, 40, 31, 24, 41, 40, 32, 22, 51, 38, 33, 34, 22, 34, 4, 13, 21, 25, 44, 37, 54, 46, 11, 33, 15, 45, 42, 40, 42, 23, 70, 45, 19, 13, 7, 25, 19, 56, 27, 33, 8, 23, 22, 28, 20, 46, 19, 38, 14, 21, 29, 18, 51, 27, 30, 44, 14, 40, 36, 33
              |17, 17, 22, 9, 12, 11, 16, 17, 17, 14, 47, 11, 27, 16, 24, 26, 4, 9, 15, 17, 28, 18, 9, 6, 18, 8, 25, 23, 31, 31, 26, 19, 16, 28, 27, 26, 48, 20, 11, 30, 24, 5, 20, 60, 30, 10, 25, 7, 7, 19, 23, 21, 15, 9, 27, 36, 3, 20, 23, 28, 59, 16, 19, 12, 11, 41
              |13, 20, 9, 19, 14, 35, 39, 41, 9, 34, 64, 30, 3, 10, 31, 49, 25, 33, 33, 12, 25, 18, 26, 28, 43, 28, 42, 47, 38, 6, 38, 43, 41, 11, 51, 7, 43, 25, 25, 19, 22, 21, 35, 36, 47, 18, 21, 26, 21, 6, 38, 45, 14, 26, 16, 47, 27, 12, 34, 46, 56, 30, 17, 27, 36, 17
              |10, 11, 18, 2, 5, 17, 21, 23, 12, 16, 49, 17, 21, 9, 27, 31, 10, 16, 16, 14, 22, 12, 9, 9, 26, 14, 31, 30, 28, 25, 25, 26, 23, 24, 32, 19, 48, 22, 9, 23, 18, 2, 20, 54, 31, 9, 19, 8, 3, 13, 23, 28, 8, 14, 20, 35, 9, 13, 27, 30, 54, 20, 12, 16, 18, 34
              |16, 9, 34, 17, 20, 25, 25, 33, 28, 17, 37, 35, 32, 20, 47, 31, 28, 28, 15, 31, 9, 11, 15, 19, 37, 32, 49, 40, 9, 34, 10, 38, 35, 39, 35, 24, 67, 41, 13, 17, 8, 20, 12, 59, 22, 29, 10, 17, 17, 27, 14, 40, 16, 33, 16, 18, 23, 17, 46, 21, 36, 40, 12, 35, 29, 36
              |20, 17, 36, 26, 26, 37, 38, 46, 32, 30, 48, 45, 31, 24, 54, 45, 38, 40, 29, 35, 6, 16, 27, 31, 50, 42, 59, 53, 17, 31, 22, 51, 48, 40, 49, 22, 70, 48, 25, 10, 10, 29, 26, 51, 34, 36, 9, 29, 27, 29, 27, 52, 22, 42, 12, 27, 34, 19, 55, 34, 28, 48, 16, 44, 41, 29
              |19, 12, 36, 18, 22, 22, 22, 30, 31, 14, 33, 35, 35, 23, 47, 27, 28, 26, 12, 33, 13, 14, 14, 18, 35, 31, 48, 37, 8, 37, 6, 36, 33, 42, 31, 28, 69, 42, 13, 21, 12, 20, 8, 64, 17, 30, 15, 16, 18, 30, 9, 37, 19, 33, 20, 15, 22, 20, 46, 17, 37, 39, 15, 35, 27, 41
              |17, 12, 29, 10, 15, 10, 12, 18, 23, 5, 37, 21, 31, 18, 35, 21, 15, 13, 5, 25, 22, 15, 2, 4, 23, 18, 34, 25, 21, 35, 16, 24, 20, 35, 24, 27, 59, 30, 4, 26, 18, 9, 9, 64, 20, 19, 20, 4, 8, 24, 12, 25, 15, 20, 24, 25, 9, 19, 33, 19, 50, 27, 16, 22, 14, 42
              |25, 19, 40, 20, 25, 13, 11, 20, 34, 6, 27, 30, 41, 28, 44, 15, 24, 19, 5, 35, 25, 22, 12, 14, 25, 27, 41, 26, 17, 44, 10, 26, 24, 46, 19, 36, 69, 40, 13, 32, 23, 20, 4, 72, 9, 30, 25, 14, 18, 34, 4, 27, 24, 29, 30, 17, 18, 28, 42, 8, 47, 35, 23, 31, 19, 50
              |19, 26, 2, 21, 16, 36, 40, 40, 8, 36, 68, 26, 7, 15, 24, 50, 24, 33, 36, 8, 33, 24, 29, 29, 41, 26, 37, 46, 44, 10, 43, 41, 39, 4, 51, 15, 34, 19, 28, 27, 29, 22, 39, 38, 51, 15, 28, 28, 23, 8, 42, 43, 19, 23, 24, 53, 27, 18, 28, 50, 64, 25, 23, 23, 35, 24
              |26, 19, 41, 22, 26, 16, 13, 22, 35, 8, 25, 32, 42, 29, 46, 16, 26, 21, 7, 37, 24, 23, 14, 16, 28, 29, 43, 28, 16, 45, 8, 29, 26, 47, 21, 36, 70, 42, 14, 32, 23, 22, 4, 73, 8, 31, 25, 16, 20, 35, 2, 29, 25, 31, 30, 15, 20, 28, 44, 7, 45, 37, 24, 33, 21, 50
              |24, 31, 6, 26, 21, 39, 44, 43, 12, 40, 73, 28, 11, 20, 23, 54, 27, 36, 41, 11, 37, 29, 34, 33, 43, 28, 37, 48, 49, 13, 48, 43, 41, 2, 55, 20, 30, 18, 33, 32, 34, 26, 44, 37, 55, 18, 33, 32, 27, 13, 47, 45, 24, 25, 29, 58, 31, 23, 28, 54, 69, 26, 28, 25, 38, 26
              |24, 18, 42, 27, 29, 34, 34, 42, 37, 26, 38, 45, 38, 28, 56, 38, 38, 38, 24, 40, 10, 19, 25, 29, 47, 42, 59, 49, 8, 39, 14, 48, 45, 46, 43, 30, 76, 51, 23, 19, 13, 30, 20, 61, 26, 38, 14, 27, 28, 35, 20, 49, 25, 43, 20, 17, 33, 24, 56, 26, 25, 50, 20, 45, 39, 38
              |18, 21, 17, 12, 12, 18, 23, 22, 12, 21, 54, 9, 23, 16, 17, 33, 5, 14, 22, 11, 32, 21, 16, 14, 22, 7, 22, 27, 37, 27, 33, 22, 20, 22, 33, 25, 41, 13, 17, 31, 27, 9, 27, 56, 37, 4, 28, 14, 12, 16, 30, 24, 16, 5, 28, 43, 10, 20, 17, 36, 64, 11, 21, 7, 16, 39
              |13, 20, 9, 19, 14, 35, 39, 41, 9, 34, 64, 30, 3, 10, 31, 49, 25, 33, 33, 12, 25, 18, 26, 28, 43, 28, 42, 47, 38, 6, 38, 43, 41, 11, 51, 7, 43, 25, 25, 19, 22, 21, 35, 36, 47, 18, 21, 26, 21, 6, 38, 45, 14, 26, 16, 47, 27, 12, 34, 46, 56, 30, 17, 27, 36, 17
              |48, 43, 60, 42, 47, 27, 22, 26, 54, 27, 19, 42, 63, 50, 57, 12, 40, 31, 28, 55, 48, 46, 34, 33, 30, 41, 48, 26, 37, 67, 30, 30, 30, 66, 13, 59, 84, 55, 35, 56, 47, 40, 28, 96, 18, 48, 49, 35, 40, 56, 26, 30, 47, 44, 54, 30, 35, 51, 53, 18, 64, 48, 47, 45, 30, 74
              |27, 34, 10, 29, 25, 42, 47, 46, 16, 44, 76, 30, 14, 23, 23, 57, 29, 38, 44, 14, 41, 32, 37, 36, 45, 30, 38, 50, 53, 16, 51, 46, 44, 5, 57, 23, 26, 19, 36, 35, 38, 29, 47, 36, 59, 21, 37, 36, 31, 17, 50, 47, 27, 27, 33, 61, 34, 27, 28, 57, 72, 27, 32, 27, 40, 28
              |20, 18, 27, 11, 16, 6, 11, 13, 22, 10, 42, 14, 31, 20, 28, 21, 8, 5, 11, 22, 29, 20, 8, 4, 16, 11, 26, 19, 29, 35, 24, 17, 13, 33, 22, 30, 53, 24, 10, 32, 25, 9, 17, 65, 25, 15, 27, 6, 9, 24, 19, 18, 18, 13, 29, 33, 2, 23, 26, 24, 58, 19, 21, 15, 7, 45
              |15, 22, 12, 22, 17, 38, 42, 45, 13, 36, 66, 34, 4, 13, 35, 52, 29, 37, 36, 15, 25, 19, 29, 30, 46, 32, 46, 51, 39, 4, 39, 47, 44, 13, 54, 6, 44, 29, 28, 18, 22, 24, 37, 33, 49, 21, 21, 29, 24, 9, 40, 48, 16, 30, 16, 48, 31, 13, 38, 48, 55, 34, 18, 31, 39, 14
              |17, 18, 20, 9, 11, 14, 19, 19, 14, 17, 50, 10, 25, 15, 21, 29, 3, 11, 18, 14, 29, 19, 12, 9, 20, 7, 24, 24, 34, 29, 29, 21, 18, 25, 29, 25, 45, 17, 13, 30, 25, 6, 23, 58, 33, 7, 26, 10, 8, 17, 26, 22, 15, 7, 27, 39, 6, 19, 21, 31, 61, 14, 19, 9, 13, 40
              |38, 32, 52, 33, 38, 21, 17, 24, 46, 18, 16, 39, 54, 41, 53, 11, 35, 27, 18, 48, 36, 35, 25, 25, 29, 36, 47, 27, 25, 57, 18, 30, 28, 58, 16, 49, 79, 51, 26, 44, 35, 32, 17, 85, 6, 41, 38, 26, 31, 47, 14, 30, 37, 39, 43, 19, 28, 41, 50, 6, 52, 44, 36, 41, 26, 63
              |16, 11, 33, 20, 21, 31, 32, 39, 29, 24, 43, 39, 30, 20, 49, 38, 32, 34, 22, 32, 2, 11, 20, 24, 43, 36, 53, 46, 13, 31, 17, 44, 41, 38, 42, 21, 67, 43, 18, 11, 5, 23, 19, 54, 29, 31, 6, 22, 21, 26, 21, 46, 17, 36, 11, 23, 28, 16, 49, 28, 32, 43, 12, 39, 35, 31
              |14, 11, 25, 6, 11, 11, 15, 19, 19, 9, 41, 19, 27, 15, 31, 24, 12, 13, 9, 21, 21, 13, 2, 4, 23, 16, 33, 26, 24, 31, 19, 24, 21, 31, 26, 24, 55, 27, 3, 25, 18, 5, 13, 60, 24, 15, 19, 1, 4, 20, 16, 25, 12, 17, 22, 29, 7, 16, 30, 23, 52, 24, 14, 19, 14, 39
              |34, 33, 36, 25, 29, 13, 16, 7, 31, 21, 47, 12, 42, 33, 25, 21, 15, 9, 23, 31, 43, 35, 22, 18, 3, 13, 16, 8, 42, 46, 36, 3, 3, 41, 19, 43, 52, 25, 25, 46, 40, 22, 28, 75, 33, 23, 41, 21, 23, 35, 30, 4, 31, 15, 43, 44, 15, 36, 21, 31, 72, 17, 35, 16, 8, 57
              |11, 4, 27, 9, 13, 18, 20, 26, 21, 12, 40, 27, 27, 14, 38, 28, 20, 20, 11, 24, 14, 8, 7, 11, 30, 24, 40, 33, 17, 30, 14, 31, 28, 33, 31, 21, 60, 33, 5, 18, 10, 11, 11, 58, 23, 21, 12, 9, 9, 21, 14, 33, 10, 24, 16, 24, 15, 13, 38, 22, 44, 31, 9, 27, 22, 35
              |12, 9, 25, 5, 10, 13, 17, 22, 18, 10, 42, 21, 26, 13, 32, 26, 14, 15, 10, 20, 19, 11, 3, 6, 25, 17, 34, 28, 22, 30, 18, 26, 23, 30, 28, 22, 55, 28, 2, 22, 16, 6, 13, 59, 25, 16, 17, 4, 4, 19, 16, 27, 10, 18, 20, 28, 9, 14, 32, 23, 50, 25, 11, 21, 17, 37
              |7, 11, 16, 4, 1, 20, 24, 27, 9, 19, 51, 19, 17, 6, 28, 34, 13, 19, 19, 12, 21, 10, 12, 13, 29, 17, 33, 33, 29, 21, 26, 30, 27, 21, 36, 16, 47, 22, 11, 20, 17, 6, 22, 51, 34, 9, 17, 11, 6, 10, 25, 31, 5, 16, 17, 36, 13, 9, 28, 32, 53, 22, 10, 18, 21, 30
              |23, 17, 38, 18, 23, 13, 11, 20, 32, 5, 29, 28, 39, 26, 42, 16, 23, 18, 4, 33, 23, 20, 10, 12, 25, 25, 40, 26, 17, 42, 10, 26, 23, 44, 20, 34, 67, 39, 11, 30, 21, 18, 3, 70, 11, 28, 24, 12, 16, 32, 4, 27, 22, 28, 29, 18, 16, 26, 40, 10, 47, 34, 21, 30, 18, 48
              |22, 15, 37, 18, 23, 15, 14, 23, 31, 7, 29, 30, 38, 25, 44, 19, 24, 20, 5, 33, 21, 18, 11, 13, 28, 27, 43, 29, 14, 41, 7, 29, 26, 43, 23, 32, 68, 40, 11, 28, 19, 18, 0, 69, 12, 28, 21, 13, 17, 31, 3, 30, 21, 29, 26, 16, 18, 24, 42, 11, 44, 36, 19, 31, 21, 46
              |23, 24, 23, 15, 17, 14, 19, 16, 18, 20, 51, 4, 29, 21, 18, 29, 3, 9, 21, 17, 35, 25, 17, 13, 16, 1, 18, 21, 38, 33, 33, 16, 14, 28, 28, 31, 43, 15, 18, 36, 31, 12, 26, 62, 35, 10, 32, 14, 14, 22, 29, 17, 21, 3, 33, 43, 9, 25, 16, 34, 66, 9, 25, 5, 11, 45
              |11, 4, 28, 11, 14, 20, 21, 28, 22, 13, 40, 29, 27, 15, 40, 29, 22, 22, 12, 25, 12, 7, 9, 13, 32, 25, 42, 35, 16, 30, 14, 33, 30, 34, 33, 21, 61, 35, 7, 17, 9, 13, 11, 57, 23, 22, 11, 11, 11, 22, 14, 34, 11, 26, 15, 23, 17, 13, 40, 22, 42, 33, 8, 28, 24, 35
              |10, 7, 28, 16, 16, 29, 31, 37, 23, 23, 46, 35, 24, 14, 44, 38, 28, 31, 21, 26, 4, 6, 18, 22, 41, 32, 49, 44, 17, 26, 19, 42, 39, 32, 42, 16, 62, 38, 16, 8, 1, 19, 20, 50, 31, 26, 1, 19, 17, 21, 22, 43, 12, 32, 7, 27, 25, 10, 45, 30, 37, 38, 6, 34, 32, 27
              |13, 8, 28, 9, 13, 14, 16, 23, 22, 9, 38, 24, 29, 16, 37, 25, 17, 17, 8, 24, 17, 11, 4, 8, 27, 21, 38, 30, 18, 32, 14, 28, 25, 34, 28, 24, 59, 32, 2, 22, 14, 10, 9, 60, 21, 20, 16, 6, 8, 22, 12, 29, 12, 22, 20, 24, 12, 16, 36, 20, 47, 29, 12, 25, 18, 38
              |11, 11, 27, 18, 17, 32, 35, 41, 23, 27, 51, 37, 22, 15, 45, 43, 30, 34, 25, 26, 6, 9, 22, 25, 44, 34, 51, 48, 21, 23, 24, 45, 42, 30, 46, 13, 61, 39, 19, 4, 5, 22, 24, 46, 35, 27, 3, 23, 20, 20, 26, 47, 13, 34, 3, 31, 28, 9, 46, 35, 37, 40, 8, 36, 36, 23
              |36, 28, 52, 33, 37, 28, 25, 34, 46, 21, 16, 45, 52, 39, 59, 23, 39, 34, 20, 48, 29, 31, 26, 28, 39, 42, 56, 38, 14, 54, 11, 40, 38, 58, 28, 45, 83, 55, 26, 37, 29, 34, 15, 80, 8, 44, 31, 28, 32, 46, 12, 40, 35, 44, 37, 6, 33, 37, 57, 9, 39, 50, 32, 46, 33, 57
              |34, 34, 36, 26, 29, 14, 17, 8, 32, 22, 47, 13, 43, 34, 25, 22, 16, 10, 24, 31, 44, 35, 23, 19, 3, 13, 16, 8, 43, 47, 37, 3, 4, 42, 19, 43, 52, 25, 25, 47, 41, 23, 29, 76, 34, 24, 42, 22, 24, 35, 31, 4, 32, 16, 44, 45, 16, 37, 21, 32, 73, 17, 36, 16, 9, 58
              |20, 16, 31, 12, 17, 6, 9, 15, 25, 4, 36, 20, 34, 21, 34, 18, 14, 10, 5, 26, 25, 18, 5, 4, 19, 17, 32, 22, 24, 37, 17, 20, 17, 37, 20, 30, 59, 30, 7, 30, 22, 11, 10, 66, 19, 20, 24, 5, 10, 26, 13, 21, 18, 19, 28, 27, 8, 22, 32, 18, 53, 25, 19, 21, 11, 45
              |10, 13, 17, 4, 5, 17, 22, 24, 11, 17, 50, 16, 20, 9, 25, 32, 9, 16, 17, 12, 23, 13, 10, 10, 25, 13, 30, 30, 30, 24, 26, 26, 23, 23, 33, 19, 47, 20, 10, 24, 19, 3, 21, 54, 32, 8, 20, 9, 4, 13, 24, 28, 8, 13, 21, 36, 9, 13, 26, 31, 56, 19, 13, 15, 18, 34
              |43, 44, 41, 35, 38, 25, 28, 19, 38, 34, 57, 17, 48, 42, 23, 32, 23, 21, 36, 36, 54, 45, 34, 30, 13, 20, 9, 16, 55, 53, 48, 13, 15, 45, 28, 51, 48, 26, 36, 56, 51, 32, 41, 81, 45, 30, 52, 32, 34, 42, 42, 12, 41, 21, 53, 56, 26, 46, 18, 43, 84, 18, 45, 20, 20, 65
              |10, 16, 18, 18, 14, 35, 38, 42, 16, 31, 59, 35, 12, 10, 39, 47, 29, 35, 30, 19, 17, 12, 25, 27, 45, 32, 48, 49, 31, 13, 32, 46, 43, 21, 50, 3, 52, 33, 23, 9, 14, 21, 31, 38, 43, 23, 13, 25, 21, 12, 34, 47, 12, 31, 7, 40, 28, 7, 41, 42, 46, 36, 11, 33, 37, 16
              |12, 15, 17, 5, 7, 16, 21, 22, 11, 17, 50, 14, 21, 11, 24, 31, 8, 14, 18, 12, 25, 15, 11, 10, 24, 11, 28, 28, 31, 25, 28, 25, 22, 23, 32, 21, 46, 19, 11, 25, 21, 4, 22, 55, 33, 6, 22, 9, 6, 13, 25, 26, 10, 11, 23, 38, 9, 15, 24, 32, 58, 17, 15, 13, 17, 35
              |22, 29, 4, 23, 19, 36, 41, 40, 10, 37, 70, 25, 11, 18, 21, 51, 24, 33, 38, 8, 36, 27, 31, 30, 40, 25, 34, 45, 47, 14, 46, 40, 38, 4, 51, 19, 30, 16, 30, 31, 33, 23, 41, 40, 53, 15, 32, 29, 25, 11, 44, 42, 22, 22, 28, 55, 28, 22, 25, 51, 68, 23, 26, 22, 35, 27
              |32, 25, 49, 33, 35, 35, 33, 42, 44, 27, 29, 49, 47, 36, 61, 35, 42, 40, 25, 47, 20, 27, 28, 32, 47, 46, 62, 48, 6, 48, 12, 48, 46, 54, 40, 39, 83, 56, 27, 28, 22, 34, 19, 71, 21, 44, 23, 30, 32, 42, 18, 49, 32, 47, 29, 8, 36, 32, 60, 21, 26, 54, 27, 49, 40, 48
              |4, 7, 18, 5, 4, 21, 25, 29, 12, 19, 49, 23, 18, 5, 32, 35, 16, 21, 18, 15, 17, 6, 12, 14, 32, 20, 37, 35, 26, 21, 24, 32, 29, 23, 37, 14, 51, 26, 10, 16, 13, 8, 20, 50, 32, 14, 13, 12, 7, 11, 23, 34, 1, 20, 14, 34, 15, 6, 32, 31, 49, 26, 6, 22, 23, 29
              |18, 17, 32, 25, 24, 39, 41, 47, 29, 33, 53, 44, 26, 21, 52, 48, 37, 41, 31, 32, 9, 16, 28, 32, 51, 41, 58, 54, 23, 26, 27, 52, 49, 35, 52, 17, 66, 46, 26, 5, 11, 29, 29, 45, 39, 34, 9, 30, 27, 26, 31, 53, 20, 41, 8, 33, 35, 16, 53, 39, 32, 47, 15, 43, 43, 23
              |15, 16, 20, 7, 10, 13, 18, 19, 15, 15, 48, 12, 25, 14, 24, 28, 5, 11, 16, 15, 27, 17, 10, 8, 21, 9, 26, 25, 31, 29, 27, 21, 18, 26, 29, 24, 47, 19, 11, 28, 23, 4, 21, 58, 31, 8, 24, 8, 6, 17, 24, 23, 13, 9, 25, 37, 5, 18, 23, 30, 59, 16, 17, 12, 13, 39
              |14, 6, 31, 14, 16, 21, 22, 29, 25, 14, 38, 31, 30, 17, 43, 29, 24, 24, 12, 28, 11, 9, 11, 15, 34, 28, 45, 36, 13, 32, 11, 35, 32, 36, 33, 23, 64, 37, 9, 17, 9, 16, 10, 59, 22, 25, 11, 13, 13, 24, 13, 36, 13, 29, 16, 21, 19, 15, 42, 21, 40, 35, 10, 31, 25, 36
              |20, 16, 31, 12, 17, 6, 9, 15, 25, 4, 36, 20, 34, 21, 34, 18, 14, 10, 5, 26, 25, 18, 5, 4, 19, 17, 32, 22, 24, 37, 17, 20, 17, 37, 20, 30, 59, 30, 7, 30, 22, 11, 10, 66, 19, 20, 24, 5, 10, 26, 13, 21, 18, 19, 28, 27, 8, 22, 32, 18, 53, 25, 19, 21, 11, 45
              |38, 34, 45, 29, 34, 13, 10, 7, 40, 18, 35, 24, 50, 38, 38, 9, 24, 15, 20, 40, 43, 37, 23, 21, 10, 23, 29, 7, 38, 54, 30, 11, 10, 51, 6, 48, 65, 37, 25, 48, 40, 27, 24, 83, 24, 32, 42, 23, 27, 42, 24, 11, 36, 26, 46, 36, 20, 40, 34, 22, 68, 29, 37, 27, 12, 63
              |51, 53, 45, 44, 46, 37, 40, 31, 44, 45, 70, 25, 53, 49, 23, 44, 32, 32, 47, 41, 64, 54, 44, 40, 26, 28, 11, 28, 66, 57, 59, 25, 27, 48, 40, 58, 43, 28, 46, 65, 60, 41, 52, 83, 57, 36, 61, 42, 43, 48, 54, 24, 49, 28, 62, 68, 36, 54, 19, 55, 95, 23, 54, 26, 32, 70
              |21, 15, 36, 17, 21, 14, 13, 22, 30, 6, 30, 29, 37, 24, 42, 19, 23, 19, 4, 32, 21, 18, 9, 12, 27, 26, 41, 28, 15, 40, 9, 28, 25, 42, 23, 32, 66, 38, 9, 27, 19, 17, 1, 68, 13, 27, 21, 11, 15, 30, 4, 29, 20, 28, 26, 18, 16, 23, 41, 12, 45, 34, 19, 30, 19, 46
              |55, 55, 52, 46, 49, 35, 36, 27, 50, 43, 62, 29, 60, 53, 33, 38, 35, 31, 45, 48, 65, 56, 45, 41, 22, 31, 19, 22, 64, 64, 57, 21, 24, 57, 33, 63, 55, 37, 47, 68, 62, 43, 50, 92, 52, 41, 63, 43, 45, 54, 51, 20, 53, 33, 65, 64, 37, 57, 28, 51, 94, 30, 57, 32, 30, 77
              |13, 18, 10, 10, 7, 23, 28, 29, 4, 24, 57, 17, 15, 9, 21, 38, 12, 21, 25, 5, 27, 17, 18, 17, 29, 15, 29, 34, 36, 19, 33, 30, 27, 16, 39, 17, 40, 16, 17, 25, 23, 10, 28, 49, 40, 4, 23, 16, 12, 8, 31, 31, 11, 13, 22, 43, 15, 14, 23, 38, 60, 17, 17, 14, 23, 31
              |31, 23, 48, 29, 33, 28, 25, 35, 42, 20, 23, 43, 47, 35, 57, 26, 37, 33, 18, 44, 22, 26, 23, 26, 40, 40, 55, 40, 8, 49, 6, 41, 38, 53, 31, 39, 80, 52, 23, 31, 23, 30, 13, 74, 12, 40, 25, 25, 28, 41, 11, 42, 30, 42, 31, 4, 31, 32, 55, 13, 34, 49, 27, 44, 33, 51
              |5, 3, 22, 7, 8, 21, 24, 29, 16, 17, 46, 26, 21, 9, 35, 33, 19, 22, 16, 19, 13, 3, 11, 14, 33, 23, 40, 36, 21, 24, 20, 34, 30, 27, 36, 16, 55, 30, 9, 15, 9, 10, 17, 52, 29, 17, 10, 11, 8, 15, 20, 35, 4, 23, 12, 30, 16, 7, 36, 28, 46, 29, 4, 25, 24, 30
              |28, 22, 45, 31, 33, 38, 38, 46, 41, 30, 39, 49, 41, 32, 60, 42, 42, 42, 28, 44, 13, 23, 29, 33, 51, 46, 63, 53, 10, 42, 17, 52, 49, 50, 46, 32, 80, 55, 27, 21, 17, 34, 24, 63, 29, 42, 18, 31, 32, 38, 23, 53, 29, 47, 22, 18, 37, 28, 60, 29, 21, 54, 24, 49, 43, 40
              |29, 22, 46, 27, 31, 26, 23, 33, 40, 18, 24, 41, 45, 33, 55, 25, 35, 31, 16, 43, 22, 25, 21, 24, 38, 38, 53, 38, 8, 48, 4, 39, 36, 52, 30, 38, 78, 50, 21, 30, 22, 28, 11, 73, 11, 38, 24, 23, 26, 40, 9, 40, 29, 40, 30, 6, 29, 31, 53, 11, 36, 46, 25, 42, 31, 50
              |31, 27, 41, 24, 29, 8, 3, 9, 36, 11, 31, 24, 45, 33, 39, 7, 21, 13, 12, 36, 35, 30, 17, 15, 15, 22, 33, 14, 29, 49, 22, 16, 14, 47, 9, 42, 65, 37, 19, 41, 33, 22, 16, 78, 17, 29, 35, 17, 22, 37, 16, 16, 30, 25, 39, 28, 16, 34, 36, 15, 59, 30, 31, 27, 11, 57
              |25, 24, 30, 17, 21, 7, 12, 9, 25, 14, 44, 10, 35, 25, 25, 21, 8, 1, 16, 24, 35, 26, 14, 10, 10, 8, 21, 14, 35, 39, 29, 11, 8, 35, 20, 35, 51, 23, 16, 38, 31, 14, 22, 69, 28, 17, 33, 12, 15, 27, 24, 12, 23, 11, 35, 38, 7, 28, 22, 27, 64, 16, 26, 13, 3, 50
              |7, 3, 23, 6, 9, 19, 22, 27, 17, 15, 44, 25, 23, 10, 35, 31, 18, 21, 14, 20, 14, 5, 8, 12, 31, 22, 39, 34, 21, 26, 18, 32, 29, 29, 34, 18, 56, 30, 6, 17, 10, 9, 15, 54, 27, 17, 11, 9, 7, 17, 18, 33, 6, 22, 14, 28, 15, 9, 35, 26, 46, 29, 6, 25, 22, 32
              |25, 30, 13, 22, 20, 30, 35, 32, 13, 34, 66, 15, 21, 21, 10, 45, 16, 25, 34, 10, 40, 30, 28, 26, 31, 16, 23, 36, 48, 25, 45, 31, 29, 16, 44, 27, 29, 4, 28, 37, 36, 21, 39, 51, 49, 11, 36, 26, 23, 17, 42, 32, 24, 13, 34, 55, 22, 26, 14, 48, 72, 12, 29, 12, 27, 38
              |17, 21, 24, 26, 22, 42, 45, 50, 23, 37, 63, 42, 17, 18, 46, 54, 36, 42, 36, 26, 18, 18, 31, 34, 52, 40, 55, 56, 33, 15, 36, 53, 50, 26, 56, 9, 57, 40, 29, 9, 17, 29, 36, 34, 47, 30, 15, 32, 28, 19, 38, 54, 19, 39, 9, 43, 36, 14, 49, 46, 43, 43, 17, 40, 44, 11
              |23, 16, 41, 23, 26, 24, 23, 32, 35, 16, 29, 38, 40, 27, 51, 27, 31, 29, 14, 37, 16, 19, 17, 21, 37, 35, 51, 38, 5, 42, 3, 38, 35, 46, 31, 32, 73, 46, 16, 25, 16, 24, 9, 67, 15, 34, 18, 20, 22, 34, 9, 39, 23, 36, 24, 11, 25, 25, 50, 15, 35, 43, 20, 39, 29, 44
              |17, 13, 34, 22, 22, 33, 34, 41, 30, 26, 45, 41, 30, 21, 51, 40, 34, 36, 24, 33, 2, 13, 23, 26, 46, 38, 55, 48, 14, 31, 18, 47, 43, 38, 44, 21, 68, 45, 20, 10, 6, 25, 21, 53, 31, 33, 6, 24, 23, 27, 23, 48, 18, 38, 11, 24, 30, 16, 51, 30, 30, 45, 13, 40, 37, 30
              |18, 11, 36, 18, 21, 23, 23, 31, 30, 15, 34, 35, 34, 22, 47, 29, 28, 27, 13, 33, 12, 14, 15, 18, 36, 32, 49, 38, 8, 37, 7, 37, 34, 41, 33, 27, 69, 42, 13, 20, 11, 20, 9, 62, 19, 30, 13, 17, 18, 29, 11, 38, 18, 33, 19, 16, 23, 20, 47, 18, 36, 40, 15, 35, 28, 39
              |17, 16, 33, 24, 23, 37, 38, 45, 29, 30, 50, 43, 28, 21, 51, 45, 36, 39, 29, 32, 6, 14, 26, 30, 49, 40, 57, 52, 19, 28, 24, 50, 47, 36, 49, 18, 67, 45, 24, 6, 9, 27, 26, 48, 36, 33, 7, 28, 25, 26, 28, 51, 19, 40, 9, 29, 33, 16, 52, 36, 31, 46, 14, 42, 40, 25
              |38, 32, 52, 33, 38, 21, 17, 24, 46, 18, 16, 39, 54, 41, 53, 11, 35, 27, 18, 48, 36, 35, 25, 25, 29, 36, 47, 27, 25, 57, 18, 30, 28, 58, 16, 49, 79, 51, 26, 44, 35, 32, 17, 85, 6, 41, 38, 26, 31, 47, 14, 30, 37, 39, 43, 19, 28, 41, 50, 6, 52, 44, 36, 41, 26, 63
              |6, 6, 20, 3, 5, 18, 22, 26, 14, 16, 47, 22, 21, 8, 32, 31, 15, 19, 15, 17, 17, 7, 9, 11, 29, 19, 36, 33, 24, 24, 21, 30, 27, 26, 34, 17, 52, 26, 7, 18, 13, 6, 17, 53, 29, 14, 14, 9, 4, 14, 20, 31, 4, 19, 16, 31, 13, 9, 32, 28, 49, 25, 7, 21, 21, 32
              |19, 25, 20, 27, 23, 44, 48, 51, 21, 41, 68, 41, 12, 18, 43, 57, 36, 43, 40, 23, 24, 22, 34, 36, 53, 39, 54, 57, 39, 9, 41, 54, 51, 20, 59, 9, 51, 37, 32, 16, 23, 30, 40, 28, 52, 29, 21, 34, 29, 17, 43, 55, 21, 38, 15, 49, 37, 17, 46, 51, 50, 42, 21, 39, 45, 6
              |14, 11, 26, 7, 12, 11, 14, 19, 20, 8, 41, 19, 28, 16, 32, 23, 13, 12, 8, 22, 22, 14, 1, 3, 22, 16, 33, 26, 23, 32, 18, 23, 20, 32, 26, 25, 55, 28, 3, 25, 18, 6, 12, 61, 23, 16, 20, 1, 5, 21, 15, 25, 13, 17, 23, 28, 7, 17, 31, 22, 52, 24, 14, 20, 14, 40
              |17, 10, 33, 14, 18, 17, 17, 25, 27, 9, 34, 30, 33, 20, 42, 24, 23, 21, 8, 30, 16, 13, 9, 13, 30, 26, 43, 32, 13, 36, 9, 31, 28, 39, 28, 27, 65, 38, 8, 22, 14, 16, 5, 63, 17, 25, 16, 11, 13, 27, 8, 32, 16, 28, 21, 19, 17, 19, 41, 16, 42, 34, 14, 30, 22, 41
              |11, 11, 27, 18, 17, 32, 35, 41, 23, 27, 51, 37, 22, 15, 45, 43, 30, 34, 25, 26, 6, 9, 22, 25, 44, 34, 51, 48, 21, 23, 24, 45, 42, 30, 46, 13, 61, 39, 19, 4, 5, 22, 24, 46, 35, 27, 3, 23, 20, 20, 26, 47, 13, 34, 3, 31, 28, 9, 46, 35, 37, 40, 8, 36, 36, 23
              |22, 15, 40, 23, 26, 26, 25, 34, 34, 18, 32, 39, 38, 26, 51, 30, 32, 30, 16, 37, 13, 17, 18, 22, 39, 36, 52, 40, 4, 40, 6, 40, 37, 45, 34, 31, 73, 46, 17, 22, 14, 24, 11, 65, 18, 34, 16, 21, 22, 33, 11, 41, 22, 37, 22, 12, 27, 23, 51, 18, 33, 44, 18, 39, 31, 42
              |41, 40, 43, 33, 36, 19, 20, 11, 39, 27, 48, 19, 50, 41, 30, 22, 23, 17, 29, 38, 50, 42, 29, 26, 6, 20, 18, 6, 48, 54, 41, 5, 9, 48, 18, 50, 56, 31, 32, 54, 47, 30, 34, 83, 36, 31, 48, 28, 31, 42, 35, 4, 39, 22, 51, 48, 23, 44, 25, 35, 78, 23, 42, 22, 15, 65
              |28, 25, 34, 19, 24, 4, 7, 5, 29, 12, 39, 15, 39, 28, 30, 16, 13, 4, 14, 29, 35, 27, 14, 11, 9, 13, 24, 12, 33, 43, 26, 10, 7, 40, 15, 38, 56, 28, 17, 39, 32, 16, 19, 72, 24, 21, 34, 13, 17, 31, 21, 11, 25, 16, 37, 35, 9, 30, 27, 23, 63, 21, 28, 18, 2, 53
              |30, 34, 31, 38, 34, 55, 58, 62, 33, 51, 76, 53, 23, 30, 54, 67, 48, 54, 50, 35, 31, 31, 44, 47, 64, 51, 65, 69, 45, 19, 49, 65, 62, 30, 70, 20, 59, 48, 42, 22, 31, 41, 49, 23, 60, 41, 28, 45, 40, 29, 52, 67, 32, 49, 23, 55, 48, 27, 58, 60, 49, 53, 31, 51, 57, 6
              |33, 27, 51, 36, 38, 39, 38, 47, 46, 31, 34, 53, 48, 37, 64, 40, 46, 44, 29, 49, 20, 28, 32, 36, 52, 49, 66, 53, 10, 49, 17, 53, 50, 56, 45, 39, 85, 59, 30, 28, 23, 38, 24, 70, 26, 47, 24, 34, 35, 44, 23, 54, 34, 51, 29, 14, 40, 33, 64, 27, 20, 57, 29, 53, 45, 47
              |15, 18, 16, 9, 9, 17, 22, 22, 11, 19, 52, 11, 22, 13, 21, 32, 6, 14, 20, 11, 28, 18, 14, 12, 23, 9, 25, 27, 34, 26, 30, 23, 21, 22, 33, 22, 43, 16, 14, 28, 24, 6, 24, 55, 35, 4, 25, 12, 9, 14, 27, 25, 13, 8, 25, 40, 9, 17, 21, 34, 61, 14, 18, 10, 16, 37
              |15, 8, 32, 14, 17, 19, 20, 28, 26, 12, 36, 31, 32, 19, 43, 27, 24, 23, 10, 29, 13, 11, 10, 14, 32, 28, 44, 34, 12, 34, 9, 33, 30, 38, 31, 25, 65, 38, 9, 20, 11, 16, 8, 61, 19, 25, 13, 12, 14, 26, 10, 35, 15, 29, 18, 19, 18, 17, 42, 19, 40, 35, 12, 31, 24, 38
              |30, 24, 42, 23, 28, 11, 6, 15, 36, 8, 26, 28, 45, 32, 43, 8, 24, 16, 9, 37, 31, 27, 15, 15, 21, 26, 38, 20, 24, 48, 16, 22, 19, 48, 13, 40, 68, 40, 17, 38, 29, 22, 11, 77, 11, 31, 31, 16, 21, 37, 10, 22, 28, 28, 36, 22, 18, 32, 40, 9, 54, 34, 28, 30, 16, 55
              |7, 0, 25, 9, 11, 22, 24, 30, 19, 16, 44, 28, 24, 11, 38, 32, 21, 23, 15, 22, 11, 3, 11, 14, 34, 25, 42, 37, 19, 26, 17, 35, 31, 30, 35, 17, 58, 33, 9, 14, 7, 12, 15, 53, 27, 20, 9, 12, 10, 18, 18, 36, 7, 25, 12, 27, 17, 9, 38, 26, 43, 32, 4, 27, 25, 31
              |24, 17, 41, 23, 26, 23, 22, 31, 35, 15, 28, 38, 40, 28, 51, 25, 31, 28, 13, 38, 17, 19, 17, 21, 36, 34, 50, 37, 6, 43, 1, 37, 34, 47, 30, 33, 73, 46, 16, 26, 17, 24, 8, 68, 14, 34, 19, 19, 22, 35, 7, 38, 24, 36, 25, 10, 25, 25, 49, 13, 36, 43, 20, 38, 29, 45
              |28, 32, 17, 23, 22, 28, 33, 29, 17, 33, 65, 12, 26, 24, 6, 42, 15, 23, 34, 14, 42, 32, 28, 26, 27, 14, 18, 32, 49, 30, 45, 27, 26, 21, 41, 31, 30, 1, 29, 40, 38, 21, 39, 56, 49, 12, 39, 26, 24, 21, 42, 28, 26, 11, 37, 55, 22, 29, 9, 47, 75, 7, 32, 9, 25, 43
              |24, 22, 29, 15, 19, 6, 11, 9, 24, 13, 43, 11, 34, 23, 26, 20, 8, 1, 14, 24, 33, 24, 12, 8, 12, 9, 23, 16, 33, 38, 27, 13, 9, 35, 20, 33, 52, 23, 14, 36, 29, 12, 20, 68, 27, 16, 31, 10, 13, 26, 22, 14, 21, 12, 33, 36, 5, 26, 23, 25, 62, 17, 25, 13, 4, 48
              |17, 14, 27, 9, 14, 8, 12, 16, 21, 8, 40, 17, 30, 18, 30, 22, 11, 9, 9, 22, 25, 17, 4, 0, 19, 14, 30, 22, 26, 34, 20, 20, 17, 33, 23, 27, 55, 26, 6, 28, 21, 7, 13, 63, 23, 16, 23, 2, 7, 23, 16, 22, 15, 16, 26, 30, 4, 20, 29, 22, 54, 22, 17, 18, 11, 42
              |40, 33, 57, 38, 42, 33, 29, 38, 51, 26, 14, 50, 57, 44, 64, 26, 44, 38, 25, 53, 32, 36, 31, 33, 43, 47, 60, 42, 17, 59, 16, 44, 42, 63, 31, 49, 88, 60, 31, 41, 33, 39, 20, 84, 12, 49, 35, 33, 37, 51, 17, 45, 40, 49, 41, 7, 38, 42, 62, 13, 38, 55, 37, 51, 38, 61
              |12, 5, 28, 10, 13, 17, 19, 26, 22, 11, 39, 27, 28, 15, 39, 27, 20, 20, 10, 25, 14, 9, 7, 11, 30, 24, 41, 33, 16, 31, 13, 31, 28, 34, 30, 22, 60, 34, 5, 19, 11, 12, 10, 59, 22, 21, 13, 9, 9, 22, 13, 32, 11, 25, 17, 23, 15, 14, 38, 21, 44, 31, 9, 27, 22, 36
              |43, 36, 61, 43, 46, 41, 38, 47, 55, 33, 21, 57, 59, 47, 70, 36, 50, 46, 32, 57, 32, 38, 37, 40, 52, 54, 68, 52, 17, 60, 20, 53, 51, 66, 41, 51, 93, 66, 36, 41, 34, 44, 26, 83, 21, 54, 35, 39, 42, 54, 24, 54, 43, 55, 41, 10, 44, 44, 69, 23, 29, 62, 39, 58, 46, 60
              |20, 26, 3, 20, 16, 33, 38, 37, 7, 35, 67, 22, 11, 16, 20, 48, 21, 30, 35, 5, 34, 25, 28, 27, 37, 22, 32, 42, 45, 15, 43, 38, 35, 7, 49, 18, 32, 14, 28, 30, 30, 20, 38, 42, 50, 12, 30, 26, 22, 9, 41, 39, 19, 19, 27, 53, 25, 20, 24, 49, 66, 21, 24, 19, 32, 28
              |9, 6, 23, 4, 8, 16, 19, 24, 17, 13, 44, 22, 24, 11, 33, 29, 15, 17, 12, 19, 17, 8, 6, 9, 28, 19, 36, 31, 22, 27, 19, 29, 25, 29, 31, 20, 55, 28, 4, 20, 13, 6, 14, 56, 26, 16, 15, 6, 4, 17, 17, 30, 7, 20, 17, 29, 11, 12, 33, 25, 49, 26, 9, 22, 19, 34
              |20, 16, 38, 25, 25, 34, 35, 42, 33, 27, 42, 43, 34, 24, 53, 40, 36, 37, 25, 36, 6, 16, 24, 28, 47, 40, 57, 49, 12, 34, 17, 48, 45, 42, 44, 25, 72, 48, 22, 14, 9, 27, 21, 56, 29, 35, 10, 26, 25, 30, 22, 49, 21, 41, 15, 22, 32, 20, 54, 29, 28, 47, 16, 43, 38, 33
              |35, 29, 52, 38, 40, 43, 42, 51, 48, 35, 38, 56, 48, 39, 67, 45, 49, 48, 33, 51, 21, 30, 35, 39, 56, 52, 69, 57, 14, 49, 21, 57, 54, 57, 49, 39, 87, 62, 34, 28, 24, 40, 28, 68, 30, 49, 25, 37, 38, 45, 27, 58, 36, 53, 29, 18, 43, 35, 67, 31, 16, 60, 31, 56, 48, 46
              |46, 44, 49, 37, 41, 22, 22, 14, 44, 30, 47, 25, 55, 45, 35, 22, 28, 21, 32, 43, 54, 46, 33, 30, 11, 25, 22, 7, 50, 59, 43, 10, 13, 54, 17, 55, 61, 36, 35, 58, 51, 34, 36, 88, 37, 36, 52, 32, 35, 48, 37, 8, 44, 28, 55, 49, 27, 49, 30, 36, 80, 28, 47, 28, 19, 70
              |22, 19, 39, 28, 28, 39, 39, 47, 35, 31, 47, 47, 34, 26, 56, 45, 40, 42, 30, 38, 8, 18, 28, 32, 51, 44, 61, 54, 16, 34, 22, 52, 49, 43, 49, 25, 73, 51, 26, 13, 12, 31, 26, 53, 34, 38, 12, 30, 29, 32, 27, 54, 24, 44, 15, 26, 36, 21, 57, 34, 25, 51, 19, 46, 43, 31|];

Incompatibilities = 3028;
IncompatiblePairs = [| 1, 2 | 1, 3 | 1, 6 | 1, 14 | 1, 16 | 1, 29 | 1, 36 | 1, 37 | 1, 39 | 1, 43 | 1, 52 | 1, 56 | 1, 57 | 1, 59 | 1, 60 | 1, 61 | 1, 69 | 1, 77 | 1, 82 | 1, 88 | 1, 95 | 1, 97 | 1, 98 | 1, 104 | 1, 107 | 1, 111 | 1, 123 | 1, 128 | 1, 129 | 1, 131 | 1, 132 | 1, 133 | 1, 134 | 1, 137 | 1, 141 | 1, 145 | 1, 146 | 1, 147 | 1, 148 | 1, 149 | 2, 5 | 2, 18 | 2, 24 | 2, 27 | 2, 28 | 2, 33 | 2, 36 | 2, 39 | 2, 42 | 2, 44 | 2, 47 | 2, 49 | 2, 50 | 2, 51 | 2, 52 | 2, 53 | 2, 56 | 2, 62 | 2, 65 | 2, 71 | 2, 73 | 2, 75 | 2, 76 | 2, 84 | 2, 89 | 2, 90 | 2, 93 | 2, 96 | 2, 98 | 2, 104 | 2, 105 | 2, 110 | 2, 113 | 2, 114 | 2, 115 | 2, 116 | 2, 117 | 2, 118 | 2, 121 | 2, 129 | 2, 131 | 2, 139 | 2, 141 | 2, 148 | 2, 152 | 2, 154 | 3, 6 | 3, 8 | 3, 9 | 3, 10 | 3, 11 | 3, 15 | 3, 26 | 3, 35 | 3, 39 | 3, 44 | 3, 50 | 3, 51 | 3, 52 | 3, 53 | 3, 54 | 3, 55 | 3, 66 | 3, 72 | 3, 76 | 3, 87 | 3, 88 | 3, 89 | 3, 94 | 3, 103 | 3, 112 | 3, 113 | 3, 118 | 3, 119 | 3, 125 | 3, 132 | 3, 133 | 3, 135 | 3, 142 | 3, 144 | 3, 145 | 3, 150 | 4, 5 | 4, 9 | 4, 10 | 4, 13 | 4, 18 | 4, 20 | 4, 27 | 4, 34 | 4, 35 | 4, 39 | 4, 44 | 4, 51 | 4, 52 | 4, 55 | 4, 59 | 4, 60 | 4, 64 | 4, 70 | 4, 73 | 4, 76 | 4, 77 | 4, 88 | 4, 90 | 4, 91 | 4, 97 | 4, 101 | 4, 102 | 4, 103 | 4, 105 | 4, 108 | 4, 110 | 4, 111 | 4, 113 | 4, 118 | 4, 120 | 4, 124 | 4, 130 | 4, 139 | 4, 140 | 4, 141 | 4, 144 | 4, 145 | 4, 146 | 4, 150 | 4, 153 | 5, 10 | 5, 11 | 5, 19 | 5, 22 | 5, 28 | 5, 29 | 5, 33 | 5, 34 | 5, 36 | 5, 43 | 5, 44 | 5, 45 | 5, 49 | 5, 54 | 5, 55 | 5, 57 | 5, 59 | 5, 60 | 5, 63 | 5, 69 | 5, 95 | 5, 100 | 5, 108 | 5, 109 | 5, 111 | 5, 114 | 5, 119 | 5, 123 | 5, 126 | 5, 130 | 5, 132 | 5, 135 | 5, 136 | 5, 138 | 5, 147 | 6, 7 | 6, 9 | 6, 11 | 6, 12 | 6, 13 | 6, 14 | 6, 17 | 6, 19 | 6, 25 | 6, 32 | 6, 33 | 6, 40 | 6, 41 | 6, 49 | 6, 60 | 6, 61 | 6, 76 | 6, 79 | 6, 82 | 6, 90 | 6, 97 | 6, 98 | 6, 101 | 6, 104 | 6, 106 | 6, 115 | 6, 118 | 6, 122 | 6, 123 | 6, 125 | 6, 134 | 6, 139 | 6, 145 | 6, 151 | 7, 8 | 7, 11 | 7, 14 | 7, 15 | 7, 17 | 7, 21 | 7, 28 | 7, 34 | 7, 35 | 7, 37 | 7, 38 | 7, 39 | 7, 44 | 7, 45 | 7, 48 | 7, 55 | 7, 63 | 7, 65 | 7, 69 | 7, 78 | 7, 80 | 7, 82 | 7, 86 | 7, 91 | 7, 92 | 7, 96 | 7, 104 | 7, 106 | 7, 112 | 7, 119 | 7, 121 | 7, 125 | 7, 134 | 7, 135 | 7, 136 | 7, 141 | 7, 146 | 7, 149 | 7, 153 | 8, 9 | 8, 11 | 8, 12 | 8, 18 | 8, 26 | 8, 41 | 8, 47 | 8, 53 | 8, 54 | 8, 56 | 8, 66 | 8, 74 | 8, 76 | 8, 79 | 8, 82 | 8, 86 | 8, 91 | 8, 92 | 8, 93 | 8, 95 | 8, 97 | 8, 98 | 8, 99 | 8, 107 | 8, 109 | 8, 113 | 8, 116 | 8, 117 | 8, 119 | 8, 122 | 8, 125 | 8, 134 | 8, 137 | 8, 139 | 8, 140 | 8, 143 | 8, 144 | 8, 151 | 9, 11 | 9, 15 | 9, 17 | 9, 22 | 9, 32 | 9, 37 | 9, 40 | 9, 42 | 9, 43 | 9, 48 | 9, 60 | 9, 73 | 9, 81 | 9, 86 | 9, 91 | 9, 97 | 9, 98 | 9, 99 | 9, 104 | 9, 106 | 9, 121 | 9, 124 | 9, 127 | 9, 129 | 9, 137 | 9, 138 | 9, 141 | 9, 142 | 9, 148 | 9, 150 | 10, 13 | 10, 14 | 10, 18 | 10, 26 | 10, 30 | 10, 32 | 10, 36 | 10, 37 | 10, 42 | 10, 49 | 10, 53 | 10, 55 | 10, 58 | 10, 60 | 10, 63 | 10, 64 | 10, 65 | 10, 75 | 10, 76 | 10, 82 | 10, 83 | 10, 87 | 10, 96 | 10, 97 | 10, 98 | 10, 103 | 10, 104 | 10, 108 | 10, 109 | 10, 113 | 10, 122 | 10, 125 | 10, 130 | 10, 132 | 10, 133 | 10, 136 | 10, 142 | 10, 144 | 10, 145 | 10, 153 | 11, 23 | 11, 36 | 11, 40 | 11, 41 | 11, 44 | 11, 49 | 11, 56 | 11, 57 | 11, 58 | 11, 72 | 11, 76 | 11, 79 | 11, 81 | 11, 83 | 11, 84 | 11, 88 | 11, 93 | 11, 96 | 11, 98 | 11, 103 | 11, 116 | 11, 117 | 11, 118 | 11, 120 | 11, 124 | 11, 137 | 11, 139 | 11, 149 | 11, 150 | 11, 154 | 12, 20 | 12, 22 | 12, 26 | 12, 27 | 12, 29 | 12, 35 | 12, 39 | 12, 50 | 12, 51 | 12, 53 | 12, 55 | 12, 66 | 12, 70 | 12, 75 | 12, 80 | 12, 81 | 12, 87 | 12, 90 | 12, 97 | 12, 102 | 12, 103 | 12, 122 | 12, 125 | 12, 127 | 12, 130 | 12, 141 | 12, 143 | 12, 151 | 12, 152 | 13, 15 | 13, 17 | 13, 19 | 13, 22 | 13, 29 | 13, 30 | 13, 32 | 13, 40 | 13, 43 | 13, 48 | 13, 51 | 13, 57 | 13, 60 | 13, 65 | 13, 69 | 13, 71 | 13, 80 | 13, 97 | 13, 98 | 13, 99 | 13, 101 | 13, 105 | 13, 107 | 13, 111 | 13, 117 | 13, 121 | 13, 122 | 13, 127 | 13, 128 | 13, 135 | 13, 141 | 13, 145 | 13, 149 | 13, 153 | 14, 18 | 14, 23 | 14, 30 | 14, 32 | 14, 33 | 14, 38 | 14, 39 | 14, 40 | 14, 43 | 14, 44 | 14, 45 | 14, 49 | 14, 51 | 14, 56 | 14, 64 | 14, 73 | 14, 82 | 14, 92 | 14, 94 | 14, 96 | 14, 98 | 14, 103 | 14, 105 | 14, 110 | 14, 114 | 14, 117 | 14, 126 | 14, 131 | 14, 134 | 14, 135 | 14, 140 | 14, 141 | 14, 144 | 14, 147 | 14, 149 | 14, 151 | 14, 154 | 15, 18 | 15, 22 | 15, 24 | 15, 25 | 15, 27 | 15, 29 | 15, 35 | 15, 37 | 15, 47 | 15, 60 | 15, 64 | 15, 75 | 15, 77 | 15, 86 | 15, 87 | 15, 90 | 15, 92 | 15, 96 | 15, 98 | 15, 99 | 15, 100 | 15, 104 | 15, 106 | 15, 107 | 15, 109 | 15, 113 | 15, 115 | 15, 118 | 15, 120 | 15, 123 | 15, 125 | 15, 130 | 15, 149 | 15, 151 | 15, 152 | 16, 18 | 16, 19 | 16, 22 | 16, 26 | 16, 33 | 16, 35 | 16, 40 | 16, 41 | 16, 60 | 16, 64 | 16, 66 | 16, 72 | 16, 74 | 16, 79 | 16, 94 | 16, 96 | 16, 100 | 16, 107 | 16, 110 | 16, 111 | 16, 114 | 16, 122 | 16, 125 | 16, 134 | 16, 136 | 16, 137 | 16, 139 | 16, 140 | 16, 142 | 16, 143 | 16, 144 | 16, 152 | 16, 153 | 17, 26 | 17, 28 | 17, 45 | 17, 48 | 17, 54 | 17, 63 | 17, 66 | 17, 71 | 17, 75 | 17, 76 | 17, 77 | 17, 84 | 17, 85 | 17, 88 | 17, 94 | 17, 95 | 17, 102 | 17, 105 | 17, 107 | 17, 110 | 17, 112 | 17, 113 | 17, 124 | 17, 125 | 17, 131 | 17, 133 | 17, 140 | 17, 150 | 17, 152 | 17, 153 | 17, 154 | 18, 19 | 18, 21 | 18, 23 | 18, 33 | 18, 34 | 18, 35 | 18, 45 | 18, 54 | 18, 59 | 18, 60 | 18, 74 | 18, 78 | 18, 80 | 18, 91 | 18, 95 | 18, 100 | 18, 101 | 18, 106 | 18, 108 | 18, 119 | 18, 122 | 18, 123 | 18, 127 | 18, 128 | 18, 131 | 18, 135 | 18, 136 | 18, 137 | 19, 22 | 19, 23 | 19, 26 | 19, 29 | 19, 39 | 19, 43 | 19, 48 | 19, 50 | 19, 51 | 19, 52 | 19, 70 | 19, 72 | 19, 74 | 19, 80 | 19, 87 | 19, 89 | 19, 107 | 19, 108 | 19, 121 | 19, 122 | 19, 127 | 19, 128 | 19, 129 | 19, 130 | 19, 132 | 19, 136 | 19, 146 | 19, 151 | 19, 154 | 20, 26 | 20, 30 | 20, 31 | 20, 32 | 20, 41 | 20, 47 | 20, 55 | 20, 56 | 20, 61 | 20, 64 | 20, 65 | 20, 70 | 20, 76 | 20, 77 | 20, 78 | 20, 92 | 20, 94 | 20, 95 | 20, 99 | 20, 109 | 20, 110 | 20, 113 | 20, 116 | 20, 122 | 20, 123 | 20, 137 | 20, 139 | 20, 151 | 21, 27 | 21, 28 | 21, 39 | 21, 43 | 21, 45 | 21, 46 | 21, 48 | 21, 51 | 21, 52 | 21, 53 | 21, 59 | 21, 69 | 21, 70 | 21, 73 | 21, 77 | 21, 95 | 21, 101 | 21, 102 | 21, 107 | 21, 108 | 21, 112 | 21, 116 | 21, 118 | 21, 128 | 21, 129 | 21, 130 | 21, 139 | 21, 143 | 21, 153 | 21, 154 | 22, 23 | 22, 24 | 22, 31 | 22, 32 | 22, 33 | 22, 34 | 22, 37 | 22, 40 | 22, 45 | 22, 49 | 22, 51 | 22, 52 | 22, 58 | 22, 59 | 22, 65 | 22, 70 | 22, 71 | 22, 75 | 22, 83 | 22, 85 | 22, 86 | 22, 87 | 22, 100 | 22, 110 | 22, 112 | 22, 113 | 22, 115 | 22, 121 | 22, 124 | 22, 134 | 22, 138 | 22, 139 | 22, 140 | 22, 148 | 22, 154 | 23, 29 | 23, 30 | 23, 32 | 23, 41 | 23, 54 | 23, 61 | 23, 65 | 23, 66 | 23, 69 | 23, 72 | 23, 76 | 23, 77 | 23, 78 | 23, 83 | 23, 85 | 23, 90 | 23, 99 | 23, 100 | 23, 101 | 23, 111 | 23, 115 | 23, 119 | 23, 120 | 23, 126 | 23, 127 | 23, 132 | 23, 136 | 23, 137 | 23, 146 | 23, 153 | 24, 25 | 24, 29 | 24, 35 | 24, 41 | 24, 46 | 24, 47 | 24, 52 | 24, 53 | 24, 59 | 24, 60 | 24, 64 | 24, 66 | 24, 69 | 24, 72 | 24, 74 | 24, 87 | 24, 89 | 24, 107 | 24, 108 | 24, 115 | 24, 119 | 24, 120 | 24, 121 | 24, 122 | 24, 128 | 24, 129 | 24, 131 | 24, 132 | 24, 133 | 24, 139 | 24, 145 | 24, 148 | 24, 152 | 24, 154 | 25, 35 | 25, 38 | 25, 40 | 25, 42 | 25, 44 | 25, 54 | 25, 59 | 25, 61 | 25, 73 | 25, 77 | 25, 79 | 25, 81 | 25, 83 | 25, 89 | 25, 91 | 25, 92 | 25, 93 | 25, 95 | 25, 99 | 25, 100 | 25, 101 | 25, 104 | 25, 105 | 25, 109 | 25, 111 | 25, 112 | 25, 114 | 25, 117 | 25, 123 | 25, 125 | 25, 133 | 25, 136 | 25, 138 | 25, 148 | 25, 150 | 25, 154 | 26, 28 | 26, 30 | 26, 34 | 26, 36 | 26, 38 | 26, 40 | 26, 42 | 26, 43 | 26, 44 | 26, 48 | 26, 49 | 26, 54 | 26, 59 | 26, 71 | 26, 73 | 26, 74 | 26, 79 | 26, 83 | 26, 84 | 26, 89 | 26, 95 | 26, 99 | 26, 101 | 26, 104 | 26, 106 | 26, 112 | 26, 114 | 26, 117 | 26, 119 | 26, 121 | 26, 129 | 26, 132 | 26, 138 | 26, 142 | 26, 147 | 26, 149 | 26, 150 | 26, 153 | 26, 154 | 27, 28 | 27, 30 | 27, 32 | 27, 33 | 27, 36 | 27, 40 | 27, 50 | 27, 52 | 27, 56 | 27, 61 | 27, 63 | 27, 71 | 27, 77 | 27, 78 | 27, 84 | 27, 86 | 27, 88 | 27, 92 | 27, 93 | 27, 96 | 27, 99 | 27, 101 | 27, 104 | 27, 107 | 27, 108 | 27, 112 | 27, 114 | 27, 117 | 27, 122 | 27, 123 | 27, 125 | 27, 126 | 27, 129 | 27, 130 | 27, 131 | 27, 132 | 27, 136 | 27, 137 | 27, 141 | 28, 31 | 28, 32 | 28, 35 | 28, 37 | 28, 41 | 28, 47 | 28, 53 | 28, 56 | 28, 64 | 28, 65 | 28, 66 | 28, 79 | 28, 92 | 28, 94 | 28, 96 | 28, 98 | 28, 104 | 28, 107 | 28, 109 | 28, 111 | 28, 113 | 28, 115 | 28, 117 | 28, 119 | 28, 133 | 28, 142 | 28, 151 | 29, 32 | 29, 33 | 29, 34 | 29, 41 | 29, 44 | 29, 45 | 29, 56 | 29, 62 | 29, 65 | 29, 66 | 29, 72 | 29, 75 | 29, 79 | 29, 87 | 29, 89 | 29, 90 | 29, 93 | 29, 99 | 29, 104 | 29, 110 | 29, 112 | 29, 115 | 29, 116 | 29, 117 | 29, 126 | 29, 129 | 29, 143 | 29, 147 | 29, 151 | 30, 31 | 30, 34 | 30, 39 | 30, 41 | 30, 45 | 30, 46 | 30, 47 | 30, 50 | 30, 52 | 30, 54 | 30, 59 | 30, 60 | 30, 62 | 30, 64 | 30, 70 | 30, 72 | 30, 74 | 30, 97 | 30, 101 | 30, 102 | 30, 108 | 30, 110 | 30, 115 | 30, 116 | 30, 119 | 30, 121 | 30, 122 | 30, 125 | 30, 127 | 30, 131 | 30, 138 | 30, 140 | 30, 141 | 30, 146 | 30, 148 | 30, 150 | 30, 154 | 31, 32 | 31, 33 | 31, 34 | 31, 40 | 31, 42 | 31, 57 | 31, 58 | 31, 59 | 31, 62 | 31, 63 | 31, 78 | 31, 82 | 31, 84 | 31, 88 | 31, 89 | 31, 95 | 31, 97 | 31, 98 | 31, 99 | 31, 101 | 31, 105 | 31, 107 | 31, 114 | 31, 121 | 31, 122 | 31, 130 | 31, 132 | 31, 134 | 31, 137 | 31, 141 | 31, 142 | 31, 153 | 32, 41 | 32, 46 | 32, 55 | 32, 63 | 32, 64 | 32, 69 | 32, 72 | 32, 74 | 32, 75 | 32, 77 | 32, 80 | 32, 84 | 32, 87 | 32, 88 | 32, 95 | 32, 103 | 32, 111 | 32, 112 | 32, 113 | 32, 116 | 32, 118 | 32, 119 | 32, 120 | 32, 121 | 32, 127 | 32, 138 | 32, 142 | 32, 143 | 32, 145 | 32, 152 | 33, 38 | 33, 43 | 33, 44 | 33, 54 | 33, 55 | 33, 57 | 33, 62 | 33, 66 | 33, 72 | 33, 73 | 33, 74 | 33, 77 | 33, 80 | 33, 81 | 33, 84 | 33, 85 | 33, 87 | 33, 88 | 33, 91 | 33, 95 | 33, 102 | 33, 103 | 33, 107 | 33, 112 | 33, 121 | 33, 124 | 33, 128 | 33, 129 | 33, 132 | 33, 133 | 33, 138 | 33, 140 | 33, 141 | 33, 142 | 33, 143 | 33, 148 | 33, 150 | 33, 153 | 33, 154 | 34, 42 | 34, 53 | 34, 58 | 34, 66 | 34, 69 | 34, 74 | 34, 75 | 34, 76 | 34, 79 | 34, 90 | 34, 93 | 34, 95 | 34, 96 | 34, 97 | 34, 99 | 34, 103 | 34, 106 | 34, 108 | 34, 114 | 34, 119 | 34, 126 | 34, 127 | 34, 139 | 34, 140 | 34, 142 | 34, 144 | 34, 153 | 35, 41 | 35, 45 | 35, 47 | 35, 48 | 35, 49 | 35, 50 | 35, 61 | 35, 65 | 35, 73 | 35, 76 | 35, 81 | 35, 82 | 35, 86 | 35, 92 | 35, 96 | 35, 99 | 35, 100 | 35, 104 | 35, 110 | 35, 112 | 35, 116 | 35, 118 | 35, 123 | 35, 126 | 35, 128 | 35, 144 | 35, 148 | 35, 154 | 36, 38 | 36, 46 | 36, 51 | 36, 54 | 36, 62 | 36, 76 | 36, 87 | 36, 88 | 36, 91 | 36, 95 | 36, 97 | 36, 101 | 36, 102 | 36, 106 | 36, 108 | 36, 110 | 36, 115 | 36, 116 | 36, 121 | 36, 127 | 36, 128 | 36, 136 | 36, 138 | 36, 141 | 37, 41 | 37, 44 | 37, 45 | 37, 47 | 37, 50 | 37, 54 | 37, 57 | 37, 60 | 37, 70 | 37, 72 | 37, 74 | 37, 77 | 37, 81 | 37, 84 | 37, 85 | 37, 91 | 37, 95 | 37, 106 | 37, 110 | 37, 118 | 37, 128 | 37, 130 | 37, 141 | 37, 142 | 37, 145 | 37, 148 | 37, 150 | 37, 151 | 37, 154 | 38, 41 | 38, 47 | 38, 54 | 38, 58 | 38, 60 | 38, 74 | 38, 79 | 38, 82 | 38, 83 | 38, 96 | 38, 97 | 38, 98 | 38, 99 | 38, 106 | 38, 111 | 38, 113 | 38, 116 | 38, 117 | 38, 123 | 38, 125 | 38, 133 | 38, 134 | 38, 136 | 38, 142 | 38, 145 | 38, 153 | 39, 40 | 39, 49 | 39, 60 | 39, 61 | 39, 64 | 39, 65 | 39, 66 | 39, 69 | 39, 70 | 39, 72 | 39, 76 | 39, 82 | 39, 93 | 39, 97 | 39, 116 | 39, 122 | 39, 125 | 39, 127 | 39, 142 | 39, 152 | 39, 153 | 40, 44 | 40, 50 | 40, 53 | 40, 62 | 40, 63 | 40, 71 | 40, 74 | 40, 76 | 40, 80 | 40, 84 | 40, 85 | 40, 88 | 40, 95 | 40, 103 | 40, 105 | 40, 108 | 40, 110 | 40, 118 | 40, 119 | 40, 120 | 40, 121 | 40, 122 | 40, 124 | 40, 128 | 40, 129 | 40, 139 | 40, 143 | 40, 154 | 41, 43 | 41, 45 | 41, 49 | 41, 54 | 41, 55 | 41, 56 | 41, 57 | 41, 62 | 41, 65 | 41, 69 | 41, 74 | 41, 78 | 41, 81 | 41, 84 | 41, 88 | 41, 89 | 41, 95 | 41, 100 | 41, 105 | 41, 106 | 41, 109 | 41, 111 | 41, 112 | 41, 114 | 41, 121 | 41, 124 | 41, 126 | 41, 131 | 41, 134 | 41, 138 | 41, 141 | 41, 146 | 41, 147 | 41, 149 | 41, 154 | 42, 51 | 42, 53 | 42, 59 | 42, 63 | 42, 64 | 42, 70 | 42, 74 | 42, 76 | 42, 81 | 42, 85 | 42, 89 | 42, 97 | 42, 101 | 42, 107 | 42, 113 | 42, 115 | 42, 116 | 42, 118 | 42, 120 | 42, 122 | 42, 128 | 42, 130 | 42, 132 | 42, 135 | 42, 136 | 42, 138 | 42, 141 | 42, 143 | 42, 144 | 42, 145 | 42, 152 | 43, 46 | 43, 49 | 43, 54 | 43, 55 | 43, 56 | 43, 63 | 43, 66 | 43, 69 | 43, 70 | 43, 72 | 43, 74 | 43, 76 | 43, 79 | 43, 80 | 43, 90 | 43, 96 | 43, 98 | 43, 101 | 43, 102 | 43, 108 | 43, 110 | 43, 113 | 43, 114 | 43, 115 | 43, 116 | 43, 120 | 43, 122 | 43, 126 | 43, 130 | 43, 132 | 43, 133 | 43, 134 | 43, 137 | 43, 139 | 43, 146 | 43, 151 | 44, 47 | 44, 49 | 44, 54 | 44, 55 | 44, 58 | 44, 64 | 44, 65 | 44, 69 | 44, 70 | 44, 75 | 44, 80 | 44, 82 | 44, 86 | 44, 87 | 44, 90 | 44, 94 | 44, 95 | 44, 96 | 44, 98 | 44, 101 | 44, 102 | 44, 114 | 44, 116 | 44, 122 | 44, 130 | 44, 132 | 44, 139 | 44, 142 | 44, 146 | 44, 149 | 45, 53 | 45, 60 | 45, 64 | 45, 65 | 45, 69 | 45, 77 | 45, 78 | 45, 85 | 45, 86 | 45, 90 | 45, 92 | 45, 93 | 45, 94 | 45, 95 | 45, 100 | 45, 101 | 45, 103 | 45, 110 | 45, 113 | 45, 117 | 45, 125 | 45, 126 | 45, 127 | 45, 130 | 45, 137 | 45, 140 | 45, 142 | 45, 143 | 45, 144 | 45, 145 | 45, 147 | 45, 149 | 45, 152 | 46, 50 | 46, 58 | 46, 61 | 46, 65 | 46, 69 | 46, 83 | 46, 84 | 46, 86 | 46, 91 | 46, 95 | 46, 99 | 46, 104 | 46, 106 | 46, 119 | 46, 126 | 46, 128 | 46, 129 | 46, 135 | 46, 145 | 46, 149 | 46, 153 | 47, 48 | 47, 59 | 47, 71 | 47, 77 | 47, 78 | 47, 80 | 47, 82 | 47, 83 | 47, 86 | 47, 91 | 47, 92 | 47, 93 | 47, 96 | 47, 98 | 47, 101 | 47, 102 | 47, 105 | 47, 106 | 47, 107 | 47, 121 | 47, 125 | 47, 126 | 47, 127 | 47, 134 | 47, 135 | 47, 136 | 47, 141 | 47, 145 | 48, 53 | 48, 58 | 48, 66 | 48, 70 | 48, 74 | 48, 79 | 48, 85 | 48, 91 | 48, 95 | 48, 97 | 48, 98 | 48, 99 | 48, 103 | 48, 111 | 48, 113 | 48, 118 | 48, 122 | 48, 132 | 48, 136 | 48, 137 | 48, 139 | 48, 142 | 48, 143 | 48, 146 | 49, 51 | 49, 52 | 49, 53 | 49, 54 | 49, 62 | 49, 63 | 49, 69 | 49, 70 | 49, 71 | 49, 80 | 49, 81 | 49, 84 | 49, 90 | 49, 91 | 49, 95 | 49, 102 | 49, 105 | 49, 113 | 49, 115 | 49, 120 | 49, 122 | 49, 125 | 49, 127 | 49, 128 | 49, 129 | 49, 142 | 49, 145 | 49, 154 | 50, 54 | 50, 55 | 50, 61 | 50, 65 | 50, 66 | 50, 76 | 50, 83 | 50, 91 | 50, 93 | 50, 94 | 50, 99 | 50, 101 | 50, 102 | 50, 108 | 50, 111 | 50, 113 | 50, 114 | 50, 118 | 50, 132 | 50, 136 | 50, 137 | 50, 139 | 50, 146 | 50, 151 | 50, 152 | 51, 53 | 51, 54 | 51, 60 | 51, 63 | 51, 72 | 51, 82 | 51, 94 | 51, 98 | 51, 99 | 51, 103 | 51, 108 | 51, 114 | 51, 133 | 51, 142 | 51, 144 | 51, 147 | 51, 151 | 51, 152 | 51, 153 | 52, 55 | 52, 60 | 52, 63 | 52, 75 | 52, 94 | 52, 95 | 52, 97 | 52, 106 | 52, 108 | 52, 111 | 52, 113 | 52, 116 | 52, 117 | 52, 119 | 52, 123 | 52, 130 | 52, 132 | 52, 142 | 52, 153 | 53, 55 | 53, 61 | 53, 63 | 53, 65 | 53, 71 | 53, 79 | 53, 80 | 53, 83 | 53, 86 | 53, 88 | 53, 95 | 53, 96 | 53, 100 | 53, 102 | 53, 104 | 53, 105 | 53, 109 | 53, 114 | 53, 117 | 53, 119 | 53, 121 | 53, 122 | 53, 135 | 53, 137 | 53, 141 | 53, 148 | 54, 56 | 54, 57 | 54, 62 | 54, 65 | 54, 79 | 54, 86 | 54, 89 | 54, 90 | 54, 98 | 54, 99 | 54, 103 | 54, 105 | 54, 109 | 54, 110 | 54, 114 | 54, 120 | 54, 131 | 54, 135 | 54, 148 | 54, 150 | 54, 151 | 54, 152 | 54, 154 | 55, 57 | 55, 59 | 55, 61 | 55, 62 | 55, 65 | 55, 78 | 55, 81 | 55, 82 | 55, 85 | 55, 90 | 55, 103 | 55, 109 | 55, 110 | 55, 112 | 55, 113 | 55, 114 | 55, 117 | 55, 123 | 55, 124 | 55, 135 | 55, 141 | 56, 73 | 56, 75 | 56, 76 | 56, 77 | 56, 80 | 56, 81 | 56, 85 | 56, 91 | 56, 95 | 56, 102 | 56, 105 | 56, 106 | 56, 107 | 56, 108 | 56, 113 | 56, 115 | 56, 116 | 56, 119 | 56, 120 | 56, 121 | 56, 145 | 56, 150 | 56, 151 | 57, 58 | 57, 61 | 57, 63 | 57, 64 | 57, 66 | 57, 70 | 57, 76 | 57, 82 | 57, 83 | 57, 85 | 57, 87 | 57, 90 | 57, 95 | 57, 96 | 57, 99 | 57, 101 | 57, 114 | 57, 116 | 57, 122 | 57, 126 | 57, 130 | 57, 133 | 57, 134 | 57, 144 | 57, 151 | 57, 152 | 58, 59 | 58, 63 | 58, 64 | 58, 66 | 58, 72 | 58, 80 | 58, 84 | 58, 87 | 58, 105 | 58, 111 | 58, 119 | 58, 127 | 58, 131 | 58, 132 | 58, 133 | 58, 135 | 58, 140 | 58, 145 | 58, 146 | 58, 152 | 58, 153 | 59, 60 | 59, 63 | 59, 64 | 59, 77 | 59, 78 | 59, 79 | 59, 80 | 59, 92 | 59, 93 | 59, 94 | 59, 97 | 59, 98 | 59, 99 | 59, 110 | 59, 111 | 59, 115 | 59, 118 | 59, 119 | 59, 122 | 59, 132 | 59, 143 | 59, 146 | 59, 152 | 60, 64 | 60, 66 | 60, 71 | 60, 72 | 60, 75 | 60, 76 | 60, 92 | 60, 94 | 60, 99 | 60, 105 | 60, 116 | 60, 118 | 60, 120 | 60, 123 | 60, 129 | 60, 131 | 60, 138 | 60, 143 | 60, 149 | 61, 62 | 61, 64 | 61, 66 | 61, 69 | 61, 80 | 61, 81 | 61, 90 | 61, 102 | 61, 103 | 61, 105 | 61, 112 | 61, 113 | 61, 115 | 61, 116 | 61, 120 | 61, 124 | 61, 133 | 61, 139 | 61, 141 | 61, 143 | 61, 150 | 62, 63 | 62, 78 | 62, 79 | 62, 85 | 62, 87 | 62, 90 | 62, 94 | 62, 96 | 62, 100 | 62, 103 | 62, 108 | 62, 109 | 62, 113 | 62, 116 | 62, 117 | 62, 118 | 62, 120 | 62, 122 | 62, 126 | 62, 130 | 62, 133 | 62, 134 | 62, 139 | 62, 143 | 62, 144 | 63, 79 | 63, 81 | 63, 87 | 63, 90 | 63, 92 | 63, 96 | 63, 103 | 63, 105 | 63, 109 | 63, 113 | 63, 115 | 63, 116 | 63, 123 | 63, 129 | 63, 134 | 63, 138 | 63, 139 | 63, 152 | 64, 73 | 64, 78 | 64, 79 | 64, 81 | 64, 88 | 64, 89 | 64, 92 | 64, 95 | 64, 98 | 64, 99 | 64, 101 | 64, 102 | 64, 107 | 64, 112 | 64, 119 | 64, 124 | 64, 126 | 64, 127 | 64, 128 | 64, 131 | 64, 132 | 64, 134 | 64, 135 | 64, 136 | 64, 138 | 64, 146 | 64, 147 | 64, 148 | 64, 150 | 64, 153 | 65, 66 | 65, 69 | 65, 77 | 65, 80 | 65, 85 | 65, 90 | 65, 91 | 65, 94 | 65, 95 | 65, 102 | 65, 106 | 65, 107 | 65, 108 | 65, 110 | 65, 113 | 65, 118 | 65, 121 | 65, 122 | 65, 127 | 65, 130 | 65, 136 | 65, 138 | 65, 141 | 65, 142 | 66, 69 | 66, 73 | 66, 79 | 66, 83 | 66, 88 | 66, 89 | 66, 93 | 66, 97 | 66, 98 | 66, 104 | 66, 105 | 66, 109 | 66, 112 | 66, 114 | 66, 117 | 66, 123 | 66, 125 | 66, 127 | 66, 128 | 66, 129 | 66, 131 | 66, 133 | 66, 134 | 66, 138 | 66, 141 | 66, 149 | 66, 150 | 66, 153 | 67, 69 | 67, 72 | 67, 74 | 67, 77 | 67, 80 | 67, 84 | 67, 88 | 67, 106 | 67, 115 | 67, 118 | 67, 120 | 67, 129 | 67, 132 | 67, 133 | 67, 135 | 67, 139 | 67, 140 | 67, 150 | 67, 152 | 67, 153 | 67, 154 | 68, 70 | 68, 77 | 68, 83 | 68, 85 | 68, 90 | 68, 93 | 68, 94 | 68, 101 | 68, 102 | 68, 106 | 68, 107 | 68, 114 | 68, 115 | 68, 119 | 68, 123 | 68, 125 | 68, 133 | 68, 139 | 68, 143 | 68, 146 | 68, 151 | 69, 71 | 69, 78 | 69, 81 | 69, 82 | 69, 83 | 69, 84 | 69, 85 | 69, 86 | 69, 88 | 69, 92 | 69, 94 | 69, 98 | 69, 103 | 69, 104 | 69, 109 | 69, 113 | 69, 114 | 69, 118 | 69, 120 | 69, 126 | 69, 129 | 69, 138 | 69, 139 | 69, 141 | 69, 147 | 70, 81 | 70, 82 | 70, 88 | 70, 92 | 70, 93 | 70, 96 | 70, 105 | 70, 109 | 70, 111 | 70, 114 | 70, 130 | 70, 134 | 70, 138 | 70, 141 | 70, 145 | 70, 147 | 70, 153 | 70, 154 | 71, 75 | 71, 76 | 71, 77 | 71, 87 | 71, 90 | 71, 95 | 71, 100 | 71, 101 | 71, 103 | 71, 104 | 71, 108 | 71, 114 | 71, 120 | 71, 122 | 71, 125 | 71, 126 | 71, 127 | 71, 130 | 71, 132 | 71, 142 | 71, 144 | 71, 145 | 71, 147 | 71, 149 | 71, 152 | 71, 153 | 72, 80 | 72, 81 | 72, 86 | 72, 91 | 72, 96 | 72, 100 | 72, 101 | 72, 102 | 72, 104 | 72, 105 | 72, 107 | 72, 108 | 72, 109 | 72, 111 | 72, 114 | 72, 117 | 72, 123 | 72, 125 | 72, 128 | 72, 132 | 72, 133 | 72, 134 | 72, 136 | 72, 142 | 72, 145 | 72, 146 | 72, 150 | 72, 154 | 73, 75 | 73, 79 | 73, 82 | 73, 85 | 73, 90 | 73, 91 | 73, 94 | 73, 98 | 73, 100 | 73, 101 | 73, 102 | 73, 104 | 73, 110 | 73, 111 | 73, 125 | 73, 126 | 73, 127 | 73, 137 | 73, 140 | 73, 142 | 73, 149 | 73, 151 | 73, 153 | 74, 79 | 74, 82 | 74, 84 | 74, 88 | 74, 98 | 74, 103 | 74, 112 | 74, 115 | 74, 117 | 74, 123 | 74, 137 | 74, 141 | 74, 144 | 74, 147 | 74, 152 | 75, 77 | 75, 84 | 75, 93 | 75, 95 | 75, 96 | 75, 97 | 75, 99 | 75, 101 | 75, 102 | 75, 108 | 75, 111 | 75, 119 | 75, 121 | 75, 126 | 75, 128 | 75, 129 | 75, 130 | 75, 131 | 75, 136 | 75, 147 | 75, 150 | 76, 77 | 76, 80 | 76, 81 | 76, 86 | 76, 91 | 76, 98 | 76, 99 | 76, 109 | 76, 112 | 76, 124 | 76, 126 | 76, 128 | 76, 129 | 76, 130 | 76, 132 | 76, 133 | 76, 135 | 76, 138 | 77, 78 | 77, 82 | 77, 84 | 77, 87 | 77, 89 | 77, 90 | 77, 96 | 77, 105 | 77, 121 | 77, 123 | 77, 129 | 77, 131 | 77, 134 | 77, 135 | 77, 137 | 77, 138 | 77, 140 | 77, 143 | 77, 150 | 78, 84 | 78, 87 | 78, 89 | 78, 90 | 78, 108 | 78, 110 | 78, 118 | 78, 119 | 78, 127 | 78, 128 | 78, 129 | 78, 130 | 78, 132 | 78, 133 | 78, 140 | 78, 142 | 78, 145 | 78, 148 | 78, 153 | 78, 154 | 79, 80 | 79, 81 | 79, 89 | 79, 91 | 79, 101 | 79, 105 | 79, 106 | 79, 107 | 79, 108 | 79, 110 | 79, 115 | 79, 116 | 79, 118 | 79, 119 | 79, 120 | 79, 121 | 79, 122 | 79, 125 | 79, 136 | 79, 140 | 79, 141 | 79, 142 | 79, 144 | 79, 154 | 80, 84 | 80, 86 | 80, 87 | 80, 88 | 80, 92 | 80, 93 | 80, 96 | 80, 99 | 80, 100 | 80, 109 | 80, 110 | 80, 112 | 80, 116 | 80, 118 | 80, 123 | 80, 124 | 80, 126 | 80, 131 | 80, 135 | 80, 138 | 80, 147 | 80, 148 | 80, 150 | 81, 82 | 81, 85 | 81, 86 | 81, 91 | 81, 94 | 81, 96 | 81, 101 | 81, 104 | 81, 106 | 81, 107 | 81, 114 | 81, 118 | 81, 122 | 81, 123 | 81, 125 | 81, 126 | 81, 132 | 81, 137 | 81, 140 | 81, 142 | 81, 145 | 81, 146 | 81, 149 | 81, 151 | 81, 153 | 82, 87 | 82, 89 | 82, 90 | 82, 106 | 82, 108 | 82, 111 | 82, 115 | 82, 116 | 82, 118 | 82, 119 | 82, 124 | 82, 128 | 82, 129 | 82, 133 | 82, 140 | 82, 141 | 82, 143 | 82, 145 | 82, 148 | 82, 150 | 82, 154 | 83, 85 | 83, 87 | 83, 101 | 83, 102 | 83, 106 | 83, 111 | 83, 120 | 83, 127 | 83, 128 | 83, 130 | 83, 132 | 83, 138 | 83, 139 | 83, 142 | 83, 150 | 83, 151 | 83, 154 | 84, 94 | 84, 96 | 84, 101 | 84, 107 | 84, 108 | 84, 110 | 84, 114 | 84, 115 | 84, 117 | 84, 118 | 84, 120 | 84, 122 | 84, 123 | 84, 125 | 84, 144 | 84, 145 | 84, 147 | 84, 149 | 84, 153 | 85, 86 | 85, 88 | 85, 89 | 85, 95 | 85, 100 | 85, 106 | 85, 108 | 85, 114 | 85, 121 | 85, 122 | 85, 129 | 85, 131 | 85, 133 | 85, 134 | 85, 138 | 85, 142 | 85, 146 | 85, 147 | 85, 149 | 85, 150 | 86, 88 | 86, 90 | 86, 91 | 86, 94 | 86, 95 | 86, 106 | 86, 107 | 86, 108 | 86, 110 | 86, 113 | 86, 115 | 86, 119 | 86, 121 | 86, 132 | 86, 135 | 86, 136 | 86, 139 | 86, 148 | 86, 150 | 86, 152 | 86, 154 | 87, 89 | 87, 96 | 87, 98 | 87, 99 | 87, 105 | 87, 107 | 87, 109 | 87, 111 | 87, 112 | 87, 114 | 87, 123 | 87, 125 | 87, 126 | 87, 131 | 87, 132 | 87, 136 | 87, 142 | 87, 153 | 87, 154 | 88, 90 | 88, 93 | 88, 94 | 88, 96 | 88, 99 | 88, 101 | 88, 103 | 88, 106 | 88, 108 | 88, 110 | 88, 117 | 88, 125 | 88, 126 | 88, 127 | 88, 132 | 88, 134 | 88, 137 | 88, 142 | 88, 146 | 88, 147 | 88, 149 | 89, 92 | 89, 103 | 89, 104 | 89, 106 | 89, 109 | 89, 110 | 89, 111 | 89, 113 | 89, 115 | 89, 122 | 89, 126 | 89, 127 | 89, 132 | 89, 133 | 89, 134 | 89, 137 | 89, 139 | 89, 142 | 89, 144 | 89, 147 | 89, 149 | 89, 152 | 90, 92 | 90, 95 | 90, 100 | 90, 104 | 90, 105 | 90, 106 | 90, 107 | 90, 108 | 90, 109 | 90, 117 | 90, 122 | 90, 124 | 90, 126 | 90, 127 | 90, 132 | 90, 136 | 90, 137 | 90, 138 | 90, 146 | 90, 147 | 90, 154 | 91, 92 | 91, 93 | 91, 96 | 91, 103 | 91, 116 | 91, 117 | 91, 121 | 91, 123 | 91, 131 | 91, 135 | 91, 138 | 91, 139 | 91, 147 | 91, 150 | 91, 152 | 91, 154 | 92, 97 | 92, 101 | 92, 105 | 92, 113 | 92, 118 | 92, 120 | 92, 124 | 92, 129 | 92, 132 | 92, 136 | 92, 138 | 92, 140 | 92, 142 | 92, 143 | 92, 148 | 92, 151 | 93, 94 | 93, 95 | 93, 97 | 93, 101 | 93, 102 | 93, 103 | 93, 107 | 93, 108 | 93, 115 | 93, 118 | 93, 120 | 93, 124 | 93, 125 | 93, 129 | 93, 135 | 93, 142 | 93, 145 | 93, 151 | 93, 152 | 94, 97 | 94, 98 | 94, 99 | 94, 102 | 94, 104 | 94, 105 | 94, 106 | 94, 112 | 94, 114 | 94, 122 | 94, 127 | 94, 128 | 94, 136 | 94, 137 | 94, 142 | 94, 146 | 94, 148 | 94, 149 | 94, 154 | 95, 100 | 95, 104 | 95, 109 | 95, 110 | 95, 112 | 95, 114 | 95, 117 | 95, 118 | 95, 121 | 95, 126 | 95, 128 | 95, 129 | 95, 143 | 95, 148 | 96, 101 | 96, 103 | 96, 116 | 96, 121 | 96, 124 | 96, 129 | 96, 131 | 96, 132 | 96, 133 | 96, 135 | 96, 140 | 96, 145 | 96, 148 | 96, 152 | 96, 153 | 97, 103 | 97, 105 | 97, 109 | 97, 113 | 97, 115 | 97, 118 | 97, 121 | 97, 123 | 97, 129 | 97, 131 | 97, 134 | 97, 137 | 97, 139 | 97, 144 | 97, 147 | 97, 148 | 97, 150 | 97, 154 | 98, 101 | 98, 105 | 98, 108 | 98, 124 | 98, 127 | 98, 129 | 98, 132 | 98, 143 | 98, 151 | 98, 154 | 99, 113 | 99, 118 | 99, 119 | 99, 121 | 99, 122 | 99, 124 | 99, 127 | 99, 128 | 99, 130 | 99, 133 | 99, 145 | 99, 148 | 99, 151 | 99, 152 | 100, 103 | 100, 107 | 100, 108 | 100, 111 | 100, 116 | 100, 119 | 100, 120 | 100, 121 | 100, 125 | 100, 127 | 100, 128 | 100, 131 | 100, 138 | 100, 139 | 100, 141 | 100, 148 | 100, 151 | 100, 152 | 100, 153 | 101, 103 | 101, 105 | 101, 110 | 101, 112 | 101, 113 | 101, 114 | 101, 118 | 101, 131 | 101, 140 | 101, 141 | 101, 147 | 101, 148 | 101, 150 | 101, 152 | 102, 109 | 102, 110 | 102, 113 | 102, 115 | 102, 117 | 102, 118 | 102, 120 | 102, 124 | 102, 128 | 102, 134 | 102, 135 | 102, 141 | 102, 144 | 102, 147 | 102, 149 | 102, 150 | 102, 154 | 103, 112 | 103, 121 | 103, 122 | 103, 123 | 103, 124 | 103, 130 | 103, 131 | 103, 135 | 103, 137 | 103, 138 | 103, 141 | 103, 150 | 104, 105 | 104, 106 | 104, 108 | 104, 110 | 104, 112 | 104, 118 | 104, 119 | 104, 121 | 104, 125 | 104, 128 | 104, 135 | 104, 138 | 104, 140 | 104, 141 | 104, 142 | 104, 143 | 104, 146 | 104, 151 | 104, 153 | 105, 106 | 105, 108 | 105, 110 | 105, 114 | 105, 116 | 105, 119 | 105, 122 | 105, 125 | 105, 127 | 105, 130 | 105, 132 | 105, 139 | 105, 140 | 105, 145 | 106, 110 | 106, 116 | 106, 120 | 106, 134 | 106, 135 | 106, 137 | 106, 139 | 106, 140 | 106, 143 | 106, 144 | 106, 147 | 106, 148 | 106, 149 | 106, 150 | 106, 152 | 107, 120 | 107, 121 | 107, 123 | 107, 131 | 107, 137 | 107, 139 | 107, 143 | 107, 147 | 107, 150 | 107, 154 | 108, 109 | 108, 112 | 108, 117 | 108, 118 | 108, 126 | 108, 131 | 108, 137 | 108, 140 | 108, 143 | 108, 147 | 108, 148 | 108, 154 | 109, 116 | 109, 118 | 109, 124 | 109, 125 | 109, 128 | 109, 131 | 109, 133 | 109, 139 | 109, 143 | 109, 148 | 109, 154 | 110, 111 | 110, 112 | 110, 114 | 110, 119 | 110, 122 | 110, 123 | 110, 125 | 110, 127 | 110, 129 | 110, 130 | 110, 132 | 110, 135 | 110, 142 | 110, 145 | 110, 149 | 111, 112 | 111, 120 | 111, 121 | 111, 123 | 111, 126 | 111, 134 | 111, 135 | 111, 140 | 111, 143 | 111, 144 | 111, 148 | 111, 150 | 111, 154 | 112, 137 | 112, 142 | 112, 143 | 112, 146 | 112, 147 | 112, 149 | 113, 117 | 113, 119 | 113, 124 | 113, 128 | 113, 130 | 113, 131 | 113, 149 | 114, 116 | 114, 118 | 114, 120 | 114, 122 | 114, 125 | 114, 127 | 114, 128 | 114, 131 | 114, 139 | 114, 141 | 114, 142 | 114, 146 | 114, 152 | 114, 153 | 115, 117 | 115, 123 | 115, 124 | 115, 125 | 115, 128 | 115, 131 | 115, 133 | 115, 134 | 115, 137 | 115, 138 | 115, 142 | 115, 150 | 115, 153 | 115, 154 | 116, 119 | 116, 122 | 116, 123 | 116, 128 | 116, 130 | 116, 131 | 116, 136 | 116, 142 | 116, 148 | 116, 149 | 116, 150 | 116, 153 | 117, 124 | 117, 144 | 117, 150 | 118, 119 | 118, 124 | 118, 129 | 118, 130 | 118, 131 | 118, 134 | 118, 135 | 118, 141 | 118, 149 | 118, 153 | 119, 120 | 119, 123 | 119, 126 | 119, 134 | 119, 137 | 119, 138 | 119, 151 | 119, 154 | 120, 121 | 120, 126 | 120, 127 | 120, 131 | 120, 134 | 120, 142 | 120, 148 | 120, 149 | 121, 123 | 121, 127 | 121, 151 | 122, 123 | 122, 128 | 122, 138 | 122, 139 | 122, 140 | 122, 141 | 122, 143 | 122, 148 | 122, 152 | 123, 129 | 123, 130 | 123, 139 | 123, 141 | 123, 142 | 123, 143 | 123, 148 | 123, 153 | 123, 154 | 124, 127 | 124, 132 | 124, 133 | 124, 134 | 124, 136 | 124, 137 | 124, 140 | 124, 146 | 124, 149 | 125, 128 | 125, 134 | 125, 137 | 125, 138 | 125, 139 | 125, 141 | 125, 143 | 125, 148 | 125, 149 | 125, 150 | 125, 151 | 126, 127 | 126, 130 | 126, 135 | 126, 139 | 126, 140 | 126, 142 | 126, 151 | 126, 153 | 126, 154 | 127, 129 | 127, 135 | 127, 140 | 127, 144 | 128, 133 | 128, 140 | 128, 143 | 128, 144 | 128, 146 | 128, 149 | 128, 151 | 128, 152 | 129, 134 | 129, 136 | 129, 137 | 129, 142 | 129, 144 | 129, 146 | 129, 151 | 129, 153 | 130, 140 | 130, 144 | 130, 147 | 130, 154 | 131, 133 | 131, 137 | 131, 144 | 132, 135 | 132, 140 | 132, 147 | 132, 152 | 132, 154 | 133, 134 | 133, 139 | 133, 143 | 133, 144 | 134, 138 | 134, 140 | 134, 143 | 134, 148 | 134, 152 | 134, 153 | 134, 154 | 135, 137 | 135, 139 | 135, 143 | 136, 137 | 136, 138 | 136, 141 | 136, 144 | 136, 147 | 136, 148 | 136, 150 | 136, 154 | 137, 144 | 137, 145 | 137, 153 | 138, 145 | 138, 146 | 138, 149 | 138, 151 | 139, 142 | 139, 148 | 139, 149 | 139, 150 | 140, 142 | 140, 153 | 141, 142 | 141, 143 | 141, 144 | 141, 146 | 141, 153 | 142, 144 | 142, 148 | 142, 149 | 142, 150 | 142, 151 | 142, 152 | 142, 154 | 143, 145 | 143, 146 | 143, 148 | 144, 146 | 144, 150 | 144, 154 | 145, 147 | 145, 150 | 146, 149 | 146, 150 | 146, 154 | 147, 148 | 148, 151 | 148, 153 | 149, 150 | 149, 151 | 149, 152 | 149, 153 | 150, 151 | 150, 152 | 150, 153 | 152, 153 | 153, 154 |];
