Warehouses = 76;
Stores = 227;

Capacity = [50, 100, 40, 80, 80, 80, 70, 70, 80, 30, 80, 30, 90, 100, 90, 90, 60, 60, 60, 80, 60, 40, 50, 50, 50, 50, 60, 60, 90, 60, 100, 90, 70, 60, 90, 80, 60, 60, 40, 50, 100, 100, 40, 40, 40, 90, 70, 40, 90, 70, 60, 30, 50, 30, 80, 90, 40, 80, 40, 100, 90, 90, 70, 60, 50, 50, 30, 80, 100, 30, 100, 70, 100, 90, 40, 70];
FixedCost = [799, 2108, 680, 1479, 1309, 1632, 1190, 1258, 1224, 578, 1700, 374, 1326, 1955, 1887, 1377, 782, 1309, 918, 952, 1292, 816, 1105, 850, 935, 765, 1088, 1292, 1700, 1173, 2159, 1632, 986, 816, 1989, 1445, 1326, 1037, 697, 782, 1343, 1649, 884, 697, 697, 1377, 1411, 765, 1955, 1003, 731, 476, 867, 408, 1598, 1666, 867, 1275, 816, 1598, 1207, 1445, 1241, 969, 1088, 629, 663, 1547, 1717, 561, 1445, 1513, 1904, 1411, 646, 1190];
Goods = [18, 7, 18, 7, 5, 7, 7, 18, 15, 10, 7, 5, 13, 11, 7, 12, 16, 18, 6, 5, 11, 5, 5, 15, 8, 7, 6, 14, 11, 19, 11, 5, 9, 5, 9, 15, 13, 5, 9, 13, 5, 9, 7, 18, 10, 5, 15, 9, 19, 8, 6, 14, 20, 7, 7, 11, 14, 17, 15, 6, 12, 16, 13, 9, 10, 14, 19, 20, 15, 20, 15, 12, 9, 18, 17, 9, 10, 13, 10, 10, 13, 7, 13, 19, 17, 10, 6, 13, 13, 13, 16, 6, 9, 18, 16, 13, 17, 5, 13, 18, 8, 9, 13, 10, 13, 7, 8, 6, 11, 17, 20, 9, 16, 9, 13, 11, 9, 11, 8, 6, 15, 6, 12, 17, 11, 5, 14, 6, 8, 17, 13, 16, 14, 19, 16, 18, 20, 10, 11, 5, 12, 17, 15, 14, 5, 8, 15, 11, 6, 10, 18, 14, 14, 12, 10, 13, 9, 15, 11, 15, 10, 7, 12, 12, 9, 16, 10, 15, 9, 9, 12, 20, 7, 11, 8, 13, 8, 19, 18, 9, 9, 18, 19, 20, 13, 13, 17, 7, 15, 19, 7, 7, 19, 20, 13, 17, 17, 19, 9, 19, 10, 15, 14, 5, 18, 16, 10, 17, 9, 10, 19, 8, 11, 17, 13, 16, 6, 6, 8, 16, 16, 18, 16, 17, 20, 8, 18];
SupplyCost = [|278, 116, 64, 284, 199, 267, 334, 182, 284, 246, 70, 117, 257, 265, 157, 209, 210, 105, 197, 132, 452, 222, 207, 205, 115, 260, 117, 168, 281, 362, 267, 244, 324, 367, 293, 213, 236, 82, 105, 28, 213, 58, 318, 378, 343, 167, 359, 144, 334, 146, 285, 284, 130, 256, 124, 309, 148, 143, 101, 270, 313, 93, 293, 467, 234, 67, 196, 250, 91, 196, 196, 267, 138, 207, 118, 419
              |112, 269, 402, 201, 193, 343, 326, 539, 75, 204, 289, 476, 435, 287, 209, 567, 329, 388, 259, 472, 153, 479, 371, 185, 392, 161, 428, 305, 215, 192, 189, 176, 234, 57, 325, 290, 156, 347, 449, 387, 232, 307, 78, 88, 151, 422, 133, 304, 310, 419, 286, 396, 275, 156, 271, 147, 273, 291, 394, 280, 257, 383, 237, 153, 263, 364, 550, 277, 383, 542, 223, 244, 327, 562, 471, 151
              |278, 252, 234, 353, 111, 426, 462, 364, 226, 74, 196, 325, 464, 28, 149, 391, 379, 332, 323, 367, 425, 453, 105, 264, 341, 117, 354, 332, 360, 403, 331, 299, 102, 321, 435, 28, 271, 294, 341, 258, 316, 187, 294, 348, 365, 182, 364, 96, 97, 375, 47, 465, 111, 122, 265, 144, 92, 301, 332, 32, 410, 321, 383, 429, 15, 292, 363, 377, 189, 342, 77, 45, 110, 375, 298, 410
              |318, 171, 22, 338, 205, 331, 396, 161, 311, 239, 107, 113, 319, 237, 176, 189, 274, 164, 256, 162, 493, 275, 156, 252, 174, 263, 167, 231, 337, 413, 319, 293, 308, 401, 356, 184, 281, 146, 137, 62, 269, 83, 355, 416, 391, 104, 404, 117, 303, 203, 257, 348, 122, 261, 181, 311, 135, 204, 159, 243, 372, 153, 351, 507, 212, 129, 167, 311, 30, 157, 191, 249, 102, 179, 91, 463
              |381, 302, 407, 292, 461, 148, 185, 432, 443, 523, 362, 379, 97, 581, 411, 444, 179, 252, 247, 304, 466, 170, 556, 326, 243, 508, 262, 222, 278, 336, 302, 317, 606, 454, 168, 536, 344, 274, 311, 355, 268, 379, 413, 438, 361, 520, 386, 477, 647, 218, 598, 96, 447, 501, 289, 547, 466, 253, 258, 582, 245, 264, 259, 490, 544, 288, 458, 214, 445, 480, 484, 564, 481, 461, 415, 426
              |152, 88, 260, 101, 224, 102, 144, 359, 205, 285, 161, 291, 174, 352, 177, 384, 67, 156, 4, 252, 294, 220, 354, 84, 155, 266, 198, 48, 93, 179, 93, 89, 366, 241, 110, 313, 108, 132, 237, 216, 33, 185, 192, 237, 175, 348, 198, 267, 413, 172, 366, 148, 231, 259, 76, 304, 247, 56, 165, 351, 117, 157, 99, 315, 314, 155, 379, 56, 275, 386, 251, 328, 279, 389, 307, 255
              |251, 233, 389, 156, 368, 60, 38, 459, 319, 428, 305, 394, 147, 499, 324, 479, 117, 249, 151, 334, 319, 237, 501, 216, 243, 403, 280, 159, 142, 189, 171, 194, 506, 313, 39, 462, 224, 247, 330, 339, 159, 328, 278, 295, 217, 488, 242, 415, 558, 238, 512, 79, 379, 396, 220, 435, 395, 189, 258, 497, 101, 256, 119, 343, 461, 269, 483, 97, 413, 497, 398, 473, 426, 490, 421, 279
              |347, 189, 20, 358, 245, 333, 403, 120, 346, 281, 135, 71, 307, 278, 213, 149, 276, 153, 269, 129, 522, 253, 191, 277, 162, 304, 145, 238, 355, 435, 340, 316, 350, 434, 362, 226, 307, 146, 107, 54, 287, 114, 386, 447, 415, 125, 430, 159, 344, 186, 298, 344, 163, 302, 198, 352, 177, 214, 146, 284, 386, 143, 367, 537, 254, 125, 129, 322, 66, 124, 233, 291, 144, 141, 51, 490
              |120, 261, 383, 215, 167, 352, 342, 522, 64, 173, 273, 460, 440, 255, 189, 550, 334, 381, 262, 461, 186, 478, 342, 185, 385, 130, 420, 306, 229, 217, 200, 183, 201, 88, 338, 260, 159, 339, 438, 372, 236, 289, 96, 119, 175, 396, 159, 278, 277, 414, 254, 405, 251, 126, 265, 114, 248, 288, 386, 248, 274, 375, 252, 186, 232, 355, 531, 287, 361, 522, 196, 212, 301, 543, 453, 183
              |69, 226, 367, 162, 169, 301, 289, 502, 42, 193, 251, 437, 392, 279, 176, 530, 286, 345, 215, 430, 160, 435, 352, 141, 349, 150, 386, 261, 175, 166, 148, 133, 238, 56, 285, 273, 112, 305, 408, 349, 188, 271, 43, 82, 123, 396, 111, 278, 311, 375, 281, 354, 246, 144, 228, 151, 247, 247, 351, 272, 220, 340, 198, 166, 251, 323, 514, 235, 351, 508, 202, 237, 301, 526, 435, 146
              |36, 207, 367, 104, 199, 248, 229, 495, 84, 236, 249, 428, 345, 322, 189, 522, 240, 319, 174, 410, 139, 398, 381, 113, 321, 196, 361, 224, 118, 106, 94, 89, 292, 63, 228, 308, 80, 283, 390, 341, 145, 271, 19, 64, 64, 413, 59, 300, 361, 344, 327, 302, 264, 190, 205, 206, 270, 216, 326, 317, 160, 316, 140, 153, 290, 303, 510, 183, 359, 508, 234, 283, 321, 521, 431, 111
              |346, 189, 16, 358, 241, 336, 406, 125, 343, 276, 133, 78, 312, 272, 210, 153, 279, 157, 271, 135, 520, 259, 184, 276, 167, 299, 151, 240, 355, 435, 340, 316, 344, 431, 364, 220, 306, 149, 113, 57, 287, 112, 384, 445, 415, 119, 429, 153, 337, 192, 292, 348, 159, 297, 198, 347, 171, 216, 151, 278, 387, 147, 367, 535, 248, 128, 132, 324, 60, 126, 228, 285, 137, 145, 55, 489
              |69, 105, 263, 112, 131, 208, 225, 390, 98, 188, 144, 323, 282, 265, 100, 417, 177, 223, 106, 310, 244, 316, 297, 27, 226, 161, 264, 145, 118, 172, 89, 57, 264, 160, 204, 237, 33, 183, 288, 236, 86, 167, 110, 169, 143, 317, 154, 211, 319, 254, 276, 257, 173, 154, 106, 195, 183, 126, 229, 262, 168, 218, 142, 259, 228, 202, 404, 146, 258, 403, 165, 234, 230, 416, 326, 212
              |203, 94, 242, 149, 252, 89, 156, 325, 252, 314, 162, 257, 129, 373, 202, 348, 34, 115, 55, 210, 344, 168, 360, 130, 112, 301, 154, 14, 138, 224, 143, 140, 398, 292, 114, 330, 157, 102, 198, 193, 84, 183, 243, 288, 225, 341, 248, 276, 438, 124, 389, 119, 242, 295, 81, 342, 260, 45, 124, 374, 150, 119, 139, 365, 335, 125, 347, 81, 266, 357, 275, 355, 284, 355, 279, 304
              |121, 241, 417, 74, 288, 199, 151, 530, 185, 333, 301, 461, 307, 418, 266, 555, 216, 330, 172, 426, 134, 379, 463, 157, 329, 296, 372, 221, 82, 5, 89, 115, 394, 138, 168, 398, 134, 303, 411, 380, 147, 327, 121, 113, 40, 483, 60, 377, 461, 343, 425, 250, 340, 289, 233, 309, 349, 227, 339, 413, 90, 331, 85, 157, 384, 326, 548, 146, 419, 552, 324, 381, 396, 558, 473, 93
              |268, 173, 296, 193, 332, 60, 138, 351, 324, 394, 235, 288, 56, 452, 282, 369, 52, 145, 124, 223, 386, 130, 431, 204, 137, 381, 170, 93, 180, 257, 196, 203, 478, 351, 98, 407, 226, 155, 221, 244, 149, 254, 305, 342, 269, 404, 295, 350, 517, 127, 468, 48, 319, 374, 160, 421, 337, 124, 153, 453, 168, 154, 169, 409, 414, 172, 375, 110, 327, 391, 355, 435, 356, 381, 318, 345
              |325, 171, 211, 277, 328, 175, 255, 236, 364, 386, 200, 179, 107, 423, 277, 253, 134, 64, 182, 107, 473, 57, 373, 247, 54, 386, 61, 131, 267, 352, 272, 266, 470, 417, 213, 373, 278, 103, 111, 161, 211, 208, 367, 415, 353, 326, 377, 306, 492, 21, 442, 161, 284, 380, 164, 432, 304, 141, 66, 426, 271, 76, 264, 494, 389, 104, 262, 203, 253, 281, 339, 417, 304, 267, 214, 433
              |77, 131, 265, 149, 95, 252, 268, 399, 67, 146, 149, 335, 324, 227, 79, 427, 220, 251, 150, 331, 247, 352, 272, 71, 256, 117, 290, 185, 158, 198, 127, 97, 220, 152, 249, 204, 67, 209, 308, 246, 131, 169, 107, 168, 163, 303, 167, 190, 278, 285, 236, 301, 154, 110, 136, 150, 160, 162, 256, 223, 209, 244, 182, 258, 191, 224, 411, 191, 252, 406, 131, 193, 211, 423, 333, 221
              |322, 150, 123, 301, 279, 237, 314, 164, 344, 332, 145, 98, 193, 355, 232, 186, 184, 48, 203, 55, 487, 138, 292, 243, 54, 340, 30, 157, 294, 379, 289, 273, 412, 415, 270, 303, 275, 73, 36, 76, 228, 143, 364, 420, 371, 239, 391, 233, 424, 71, 375, 237, 219, 336, 151, 389, 237, 147, 39, 359, 312, 44, 298, 506, 324, 53, 187, 243, 168, 201, 282, 356, 227, 194, 128, 450
              |378, 218, 219, 332, 368, 225, 305, 209, 414, 424, 236, 164, 140, 453, 318, 221, 188, 100, 237, 86, 528, 53, 391, 299, 94, 428, 72, 186, 322, 407, 326, 320, 506, 470, 263, 401, 331, 144, 102, 175, 266, 239, 420, 469, 408, 334, 432, 332, 522, 64, 473, 203, 315, 423, 213, 476, 334, 193, 98, 457, 325, 110, 319, 549, 421, 136, 236, 258, 266, 260, 375, 452, 327, 239, 204, 488
              |356, 325, 273, 433, 190, 502, 541, 388, 301, 146, 264, 361, 533, 60, 227, 412, 453, 393, 400, 414, 496, 514, 104, 343, 403, 188, 410, 406, 440, 481, 410, 379, 129, 393, 512, 90, 350, 358, 389, 308, 394, 250, 370, 421, 443, 189, 441, 151, 69, 437, 60, 539, 179, 194, 339, 202, 160, 374, 392, 66, 489, 382, 463, 499, 94, 353, 381, 455, 225, 356, 156, 102, 155, 393, 328, 484
              |213, 49, 129, 218, 164, 217, 276, 247, 227, 221, 37, 180, 232, 262, 114, 274, 161, 104, 134, 173, 385, 222, 233, 138, 112, 224, 137, 115, 215, 294, 200, 176, 305, 304, 238, 213, 170, 62, 149, 93, 147, 56, 254, 313, 276, 215, 292, 152, 330, 146, 280, 244, 123, 219, 59, 272, 143, 85, 106, 264, 249, 94, 228, 402, 226, 69, 262, 190, 141, 263, 174, 253, 157, 273, 185, 352
              |111, 239, 415, 76, 279, 208, 164, 530, 174, 323, 298, 461, 316, 408, 259, 556, 222, 333, 174, 428, 125, 385, 456, 153, 332, 285, 374, 224, 86, 16, 88, 112, 382, 124, 178, 389, 128, 304, 412, 379, 148, 323, 108, 100, 27, 478, 46, 371, 451, 348, 414, 260, 334, 278, 233, 297, 342, 229, 341, 403, 100, 333, 93, 148, 374, 327, 548, 153, 416, 550, 315, 370, 390, 558, 472, 84
              |442, 283, 112, 451, 332, 413, 487, 56, 439, 360, 230, 83, 368, 339, 305, 76, 357, 224, 360, 159, 617, 296, 232, 372, 232, 387, 201, 323, 447, 529, 434, 411, 419, 528, 444, 290, 402, 230, 151, 144, 379, 209, 481, 542, 510, 148, 525, 232, 398, 246, 358, 415, 247, 386, 290, 434, 256, 303, 216, 346, 476, 217, 458, 632, 322, 207, 45, 410, 136, 29, 314, 361, 212, 57, 52, 585
              |209, 112, 137, 251, 91, 291, 338, 276, 194, 139, 51, 219, 319, 173, 59, 305, 239, 189, 193, 239, 382, 309, 160, 157, 198, 152, 216, 192, 253, 318, 229, 199, 220, 286, 305, 126, 179, 149, 213, 134, 194, 50, 243, 304, 289, 171, 298, 72, 241, 232, 191, 325, 37, 149, 125, 201, 55, 160, 190, 176, 297, 178, 272, 394, 138, 150, 285, 250, 117, 275, 90, 166, 86, 297, 207, 355
              |337, 218, 90, 376, 193, 391, 450, 204, 315, 209, 146, 174, 389, 183, 183, 229, 334, 235, 305, 233, 509, 348, 85, 284, 245, 242, 241, 289, 377, 446, 355, 326, 263, 411, 412, 134, 307, 212, 210, 135, 313, 121, 370, 430, 418, 43, 427, 83, 244, 276, 202, 413, 110, 242, 231, 285, 112, 259, 231, 190, 417, 224, 394, 520, 167, 198, 201, 363, 43, 180, 168, 205, 60, 213, 141, 483
              |147, 315, 478, 179, 296, 320, 276, 605, 170, 321, 359, 538, 426, 406, 296, 632, 328, 424, 270, 517, 31, 490, 479, 222, 425, 278, 466, 321, 191, 123, 181, 190, 358, 73, 291, 402, 189, 390, 498, 451, 242, 381, 110, 49, 102, 519, 77, 403, 433, 445, 407, 372, 369, 272, 313, 270, 372, 319, 431, 399, 213, 422, 204, 43, 379, 411, 620, 261, 468, 618, 330, 364, 425, 631, 542, 38
              |178, 266, 348, 274, 124, 396, 401, 489, 108, 101, 255, 434, 469, 174, 167, 517, 366, 382, 295, 449, 274, 491, 273, 216, 388, 66, 417, 329, 286, 294, 255, 231, 113, 175, 389, 189, 201, 339, 424, 349, 274, 264, 170, 206, 251, 338, 240, 224, 189, 420, 170, 446, 206, 67, 275, 28, 197, 305, 385, 165, 336, 373, 311, 273, 158, 349, 494, 333, 317, 480, 139, 130, 247, 507, 419, 270
              |334, 233, 332, 255, 396, 111, 176, 362, 391, 457, 290, 306, 22, 511, 344, 377, 119, 177, 190, 233, 444, 108, 481, 270, 167, 445, 188, 157, 241, 313, 260, 269, 541, 415, 144, 465, 293, 199, 238, 280, 215, 305, 371, 404, 330, 445, 356, 404, 577, 144, 528, 63, 375, 439, 221, 487, 394, 186, 183, 512, 221, 188, 227, 467, 474, 212, 388, 172, 369, 409, 416, 496, 407, 392, 342, 403
              |352, 305, 241, 423, 184, 484, 526, 354, 302, 149, 240, 327, 509, 69, 214, 377, 433, 366, 383, 382, 501, 485, 69, 331, 376, 193, 381, 386, 429, 476, 400, 369, 151, 397, 496, 75, 342, 332, 357, 277, 380, 224, 370, 424, 439, 154, 439, 125, 101, 409, 78, 518, 157, 198, 318, 215, 139, 354, 364, 77, 477, 354, 451, 505, 91, 326, 346, 439, 192, 321, 148, 112, 125, 358, 294, 486
              |201, 82, 229, 153, 242, 102, 168, 315, 247, 304, 149, 247, 137, 362, 191, 338, 47, 106, 56, 201, 347, 169, 346, 126, 104, 292, 146, 5, 144, 230, 146, 140, 388, 292, 127, 318, 155, 90, 189, 181, 85, 170, 242, 289, 228, 328, 251, 263, 426, 119, 378, 131, 230, 286, 69, 334, 248, 33, 115, 362, 159, 109, 146, 368, 324, 113, 336, 91, 252, 346, 264, 344, 271, 345, 268, 308
              |381, 209, 145, 357, 332, 279, 358, 127, 403, 382, 199, 78, 215, 397, 287, 143, 230, 100, 258, 4, 545, 138, 320, 302, 102, 393, 60, 210, 349, 435, 346, 331, 459, 474, 315, 344, 334, 132, 30, 113, 284, 193, 423, 479, 428, 255, 448, 274, 465, 100, 417, 270, 265, 390, 210, 443, 283, 204, 91, 402, 364, 100, 352, 564, 368, 112, 153, 294, 194, 175, 332, 402, 264, 157, 118, 508
              |155, 23, 184, 163, 142, 193, 239, 305, 175, 204, 70, 238, 236, 262, 91, 332, 144, 142, 93, 225, 327, 248, 259, 80, 147, 195, 181, 98, 163, 238, 144, 119, 288, 246, 206, 220, 111, 100, 203, 152, 98, 96, 196, 254, 218, 258, 233, 171, 326, 178, 277, 230, 135, 189, 33, 240, 152, 68, 147, 262, 202, 136, 179, 343, 224, 117, 321, 151, 189, 321, 163, 243, 184, 332, 243, 293
              |78, 130, 305, 44, 201, 155, 158, 420, 142, 256, 191, 352, 246, 334, 167, 446, 141, 229, 75, 323, 218, 299, 362, 50, 229, 227, 271, 126, 49, 117, 23, 15, 330, 162, 143, 306, 45, 197, 305, 269, 46, 216, 115, 158, 101, 375, 121, 275, 388, 249, 345, 207, 237, 220, 123, 256, 249, 123, 236, 332, 98, 227, 72, 238, 298, 219, 438, 89, 309, 441, 235, 303, 292, 448, 362, 181
              |47, 167, 308, 140, 125, 263, 266, 442, 33, 165, 192, 377, 346, 250, 120, 470, 240, 287, 168, 371, 206, 382, 308, 89, 291, 128, 327, 210, 151, 173, 120, 96, 228, 109, 254, 235, 67, 246, 348, 289, 144, 212, 66, 127, 133, 344, 132, 228, 293, 319, 256, 315, 194, 121, 170, 148, 198, 192, 293, 245, 201, 281, 176, 216, 217, 263, 454, 199, 294, 449, 161, 212, 250, 466, 376, 183
              |359, 197, 40, 365, 263, 332, 404, 103, 361, 301, 148, 51, 300, 298, 229, 132, 276, 148, 274, 112, 533, 241, 210, 287, 156, 322, 135, 239, 361, 443, 348, 326, 370, 447, 362, 246, 318, 147, 92, 58, 293, 129, 399, 459, 425, 141, 441, 179, 364, 178, 318, 340, 182, 320, 204, 370, 196, 218, 140, 304, 390, 138, 372, 549, 274, 124, 115, 325, 86, 114, 252, 311, 164, 126, 36, 501
              |204, 34, 145, 202, 173, 198, 257, 258, 224, 232, 55, 190, 216, 276, 122, 284, 142, 97, 116, 175, 375, 212, 251, 127, 104, 231, 134, 96, 199, 280, 185, 164, 316, 296, 219, 229, 160, 54, 153, 106, 131, 75, 246, 304, 263, 234, 280, 169, 344, 137, 294, 225, 139, 226, 42, 278, 158, 66, 101, 278, 232, 89, 211, 392, 240, 67, 275, 171, 160, 277, 186, 265, 176, 285, 198, 340
              |123, 206, 384, 39, 278, 154, 114, 491, 193, 329, 272, 422, 261, 411, 249, 516, 170, 288, 131, 384, 179, 333, 445, 133, 286, 296, 329, 177, 41, 50, 61, 92, 397, 167, 124, 386, 119, 264, 370, 344, 109, 298, 138, 148, 69, 458, 95, 358, 460, 299, 420, 205, 320, 288, 198, 316, 331, 188, 297, 407, 47, 290, 39, 203, 375, 287, 511, 100, 391, 516, 313, 377, 375, 520, 437, 138
              |339, 261, 375, 252, 420, 107, 152, 410, 401, 482, 323, 354, 68, 540, 370, 425, 137, 220, 204, 281, 431, 155, 518, 284, 211, 466, 235, 181, 238, 300, 261, 275, 564, 414, 130, 496, 302, 238, 286, 323, 225, 341, 372, 399, 322, 486, 348, 438, 605, 190, 557, 54, 407, 459, 248, 504, 426, 212, 227, 541, 208, 231, 220, 455, 503, 253, 436, 173, 410, 456, 443, 522, 443, 441, 388, 390
              |325, 263, 196, 389, 157, 442, 487, 314, 281, 137, 196, 284, 464, 78, 179, 339, 390, 319, 343, 337, 482, 439, 38, 296, 329, 180, 334, 343, 394, 447, 367, 335, 165, 378, 456, 50, 310, 287, 312, 231, 341, 179, 347, 403, 412, 120, 414, 81, 134, 362, 96, 475, 115, 183, 276, 211, 99, 311, 317, 87, 441, 308, 416, 488, 80, 280, 309, 400, 147, 286, 121, 113, 79, 321, 252, 464
              |257, 152, 109, 299, 120, 330, 382, 248, 237, 152, 81, 199, 347, 160, 104, 276, 276, 204, 237, 235, 429, 324, 117, 206, 214, 176, 223, 229, 301, 367, 278, 248, 223, 332, 347, 107, 228, 170, 208, 125, 241, 62, 290, 350, 338, 122, 347, 38, 228, 247, 179, 360, 35, 175, 165, 223, 47, 198, 203, 164, 344, 192, 320, 440, 130, 164, 253, 294, 76, 239, 104, 165, 41, 265, 179, 403
              |324, 201, 284, 256, 365, 124, 200, 313, 375, 426, 251, 257, 29, 475, 313, 328, 108, 130, 176, 184, 450, 67, 438, 253, 120, 418, 139, 133, 243, 322, 257, 260, 510, 410, 162, 427, 280, 157, 189, 233, 204, 265, 363, 403, 333, 398, 358, 363, 542, 95, 492, 92, 337, 412, 191, 462, 356, 157, 135, 476, 233, 141, 233, 473, 438, 167, 339, 173, 323, 359, 382, 463, 365, 344, 292, 410
              |93, 246, 417, 99, 261, 242, 203, 538, 146, 299, 298, 470, 347, 385, 248, 565, 249, 349, 193, 443, 98, 412, 442, 154, 349, 259, 391, 244, 112, 55, 103, 117, 353, 84, 214, 371, 124, 317, 426, 385, 165, 322, 76, 59, 22, 471, 6, 359, 423, 368, 390, 294, 323, 252, 242, 266, 330, 244, 357, 380, 137, 348, 125, 119, 353, 339, 555, 182, 413, 555, 297, 346, 380, 565, 477, 60
              |191, 79, 143, 223, 103, 258, 307, 278, 186, 159, 31, 216, 289, 203, 57, 307, 207, 166, 161, 226, 365, 284, 191, 131, 174, 164, 197, 160, 225, 293, 202, 173, 243, 274, 273, 157, 156, 124, 201, 128, 164, 46, 227, 288, 267, 196, 278, 104, 270, 208, 220, 293, 69, 160, 93, 213, 87, 128, 168, 204, 267, 156, 243, 379, 166, 129, 289, 219, 133, 284, 112, 191, 117, 301, 211, 336
              |93, 115, 245, 156, 86, 248, 270, 380, 86, 142, 129, 316, 315, 219, 62, 408, 213, 234, 144, 313, 265, 338, 257, 70, 240, 118, 273, 174, 164, 211, 134, 102, 220, 171, 248, 193, 74, 192, 290, 227, 128, 149, 126, 187, 177, 285, 183, 173, 274, 270, 230, 295, 137, 112, 121, 157, 144, 150, 239, 216, 214, 227, 187, 278, 183, 207, 392, 190, 232, 386, 120, 189, 194, 403, 313, 239
              |319, 269, 403, 226, 420, 94, 111, 451, 385, 481, 337, 391, 111, 546, 372, 467, 142, 251, 199, 322, 393, 203, 534, 274, 243, 461, 272, 189, 212, 263, 239, 258, 562, 386, 102, 505, 287, 262, 323, 351, 215, 358, 349, 369, 291, 510, 316, 451, 608, 227, 561, 60, 418, 454, 256, 496, 436, 221, 259, 546, 175, 261, 191, 417, 508, 280, 476, 155, 434, 494, 446, 524, 459, 482, 423, 353
              |74, 245, 395, 151, 204, 296, 274, 528, 78, 230, 278, 462, 393, 316, 207, 555, 288, 361, 221, 449, 123, 444, 388, 154, 364, 187, 402, 269, 166, 139, 142, 136, 274, 21, 276, 310, 122, 323, 428, 373, 192, 298, 32, 45, 98, 430, 80, 313, 347, 388, 318, 350, 280, 182, 245, 186, 282, 259, 368, 309, 206, 357, 187, 131, 288, 342, 541, 231, 382, 536, 239, 274, 335, 552, 462, 109
              |263, 92, 129, 246, 230, 202, 274, 211, 287, 287, 99, 142, 187, 321, 181, 236, 145, 39, 150, 113, 429, 160, 275, 184, 49, 290, 71, 110, 240, 325, 233, 216, 369, 356, 232, 270, 217, 17, 93, 77, 173, 105, 306, 361, 314, 238, 333, 203, 389, 83, 339, 215, 181, 285, 92, 338, 201, 93, 40, 324, 263, 28, 247, 448, 286, 7, 231, 196, 161, 240, 238, 316, 203, 240, 161, 393
              |180, 85, 246, 129, 237, 94, 152, 337, 230, 299, 156, 268, 149, 360, 187, 360, 46, 130, 33, 225, 323, 190, 353, 109, 128, 283, 170, 19, 120, 206, 122, 118, 381, 270, 113, 319, 135, 110, 212, 199, 62, 179, 221, 266, 204, 340, 227, 268, 424, 143, 376, 132, 233, 277, 72, 323, 250, 40, 139, 360, 137, 132, 123, 344, 323, 134, 358, 70, 265, 366, 261, 340, 277, 367, 288, 284
              |171, 121, 185, 227, 47, 292, 329, 325, 148, 105, 87, 266, 336, 161, 17, 353, 245, 221, 188, 282, 341, 338, 180, 134, 229, 108, 253, 200, 232, 288, 205, 174, 189, 242, 300, 123, 149, 179, 256, 180, 182, 95, 201, 262, 255, 209, 261, 95, 224, 263, 176, 332, 59, 104, 134, 157, 66, 169, 223, 160, 280, 211, 254, 351, 123, 185, 333, 243, 163, 323, 62, 142, 116, 345, 255, 316
              |359, 225, 67, 389, 225, 389, 453, 165, 343, 246, 156, 140, 376, 222, 209, 190, 332, 221, 311, 205, 533, 328, 121, 300, 231, 277, 220, 289, 388, 462, 369, 341, 303, 437, 413, 174, 326, 204, 183, 118, 323, 130, 394, 455, 436, 49, 447, 119, 283, 258, 242, 406, 140, 277, 236, 321, 146, 261, 216, 230, 426, 210, 404, 545, 206, 187, 162, 367, 37, 141, 203, 244, 97, 174, 104, 505
              |90, 89, 241, 130, 117, 213, 237, 370, 108, 176, 122, 304, 280, 250, 81, 397, 177, 209, 108, 293, 265, 308, 277, 37, 213, 154, 249, 140, 135, 193, 107, 76, 255, 179, 213, 219, 54, 168, 271, 216, 93, 146, 130, 190, 165, 296, 175, 190, 307, 242, 262, 260, 152, 147, 93, 192, 163, 118, 215, 248, 184, 203, 158, 280, 213, 185, 384, 155, 236, 381, 149, 222, 209, 395, 305, 234
              |199, 204, 244, 279, 41, 367, 394, 384, 146, 21, 167, 333, 418, 98, 92, 412, 324, 304, 261, 358, 346, 422, 170, 193, 312, 45, 334, 280, 287, 324, 256, 226, 106, 242, 370, 88, 196, 262, 332, 252, 250, 169, 214, 268, 286, 229, 284, 115, 150, 346, 106, 410, 101, 47, 215, 88, 89, 251, 306, 94, 337, 294, 311, 351, 65, 267, 388, 312, 209, 373, 32, 65, 138, 400, 315, 330
              |207, 58, 193, 175, 221, 138, 204, 284, 244, 283, 116, 215, 158, 335, 170, 308, 81, 82, 77, 177, 364, 171, 313, 128, 83, 275, 125, 38, 168, 254, 164, 152, 367, 300, 163, 289, 160, 56, 162, 146, 103, 136, 250, 301, 247, 292, 268, 231, 401, 107, 351, 163, 200, 269, 47, 320, 218, 23, 90, 336, 190, 82, 174, 384, 297, 80, 305, 123, 216, 313, 240, 320, 238, 314, 234, 327
              |304, 290, 268, 384, 142, 463, 496, 395, 247, 92, 235, 359, 502, 11, 185, 421, 416, 371, 359, 404, 442, 491, 122, 297, 380, 134, 392, 370, 392, 430, 362, 331, 83, 338, 470, 63, 301, 333, 378, 295, 350, 226, 316, 366, 390, 205, 387, 133, 58, 414, 11, 503, 150, 140, 303, 148, 131, 339, 370, 12, 442, 359, 415, 444, 48, 331, 392, 412, 222, 369, 111, 47, 144, 404, 330, 430
              |259, 128, 234, 203, 291, 106, 185, 294, 305, 353, 181, 229, 88, 403, 240, 314, 59, 84, 112, 170, 399, 112, 374, 184, 77, 344, 114, 63, 192, 277, 199, 197, 437, 348, 142, 356, 212, 94, 164, 182, 141, 198, 299, 344, 280, 343, 304, 296, 470, 75, 420, 109, 267, 338, 117, 388, 286, 84, 93, 405, 196, 93, 189, 421, 366, 111, 317, 128, 266, 332, 310, 390, 300, 324, 258, 359
              |244, 279, 311, 334, 115, 436, 456, 448, 179, 55, 244, 401, 493, 88, 167, 475, 396, 381, 331, 432, 363, 498, 198, 258, 389, 71, 410, 354, 344, 368, 313, 284, 32, 261, 436, 118, 254, 339, 406, 324, 316, 244, 248, 291, 326, 274, 319, 173, 100, 423, 80, 481, 171, 78, 290, 64, 155, 325, 382, 79, 395, 370, 369, 363, 85, 343, 448, 378, 271, 430, 105, 48, 193, 461, 379, 356
              |291, 122, 77, 287, 225, 254, 325, 170, 303, 275, 93, 102, 234, 296, 181, 197, 197, 79, 195, 103, 463, 193, 235, 215, 89, 287, 87, 159, 283, 366, 272, 251, 354, 382, 283, 243, 247, 67, 77, 25, 215, 86, 332, 391, 351, 189, 368, 174, 364, 119, 315, 266, 160, 283, 127, 336, 179, 138, 74, 300, 311, 68, 293, 479, 264, 46, 188, 245, 114, 192, 225, 297, 168, 198, 113, 428
              |110, 241, 416, 79, 278, 213, 169, 532, 171, 321, 299, 463, 320, 406, 259, 558, 226, 336, 178, 431, 120, 389, 455, 154, 335, 283, 378, 227, 90, 20, 91, 113, 380, 119, 183, 388, 129, 307, 415, 381, 151, 324, 105, 95, 24, 478, 41, 371, 448, 351, 412, 265, 333, 276, 235, 294, 342, 232, 344, 401, 105, 336, 97, 143, 373, 330, 550, 157, 417, 552, 314, 368, 390, 560, 474, 79
              |239, 109, 96, 267, 134, 285, 341, 234, 232, 180, 36, 176, 298, 203, 99, 262, 230, 157, 196, 198, 414, 278, 164, 177, 167, 195, 179, 183, 268, 340, 247, 219, 258, 322, 304, 152, 204, 122, 172, 91, 203, 14, 276, 337, 315, 152, 326, 86, 272, 201, 222, 313, 65, 192, 121, 244, 84, 152, 156, 207, 307, 146, 284, 428, 170, 117, 243, 253, 85, 236, 130, 202, 89, 255, 165, 385
              |334, 163, 78, 326, 265, 278, 353, 130, 347, 312, 135, 61, 242, 325, 223, 156, 223, 91, 231, 69, 505, 185, 251, 257, 99, 326, 77, 191, 321, 405, 312, 292, 388, 425, 310, 272, 289, 98, 43, 41, 253, 125, 375, 433, 391, 192, 409, 202, 393, 120, 345, 283, 195, 323, 168, 375, 212, 174, 83, 330, 345, 82, 329, 522, 296, 75, 150, 277, 125, 159, 262, 331, 193, 159, 82, 470
              |283, 125, 186, 243, 283, 162, 240, 238, 319, 342, 157, 173, 125, 382, 231, 258, 111, 31, 146, 115, 437, 102, 338, 204, 22, 340, 60, 95, 234, 320, 235, 226, 425, 376, 197, 332, 236, 60, 108, 134, 174, 168, 325, 376, 318, 298, 340, 267, 450, 31, 400, 162, 242, 335, 119, 387, 262, 98, 38, 384, 245, 42, 235, 457, 346, 67, 262, 176, 223, 277, 295, 374, 267, 269, 203, 398
              |242, 111, 94, 270, 136, 287, 343, 232, 234, 181, 38, 174, 299, 203, 101, 260, 231, 158, 197, 197, 416, 278, 162, 180, 167, 196, 179, 185, 270, 342, 249, 221, 259, 324, 306, 152, 206, 122, 171, 90, 205, 15, 278, 339, 317, 150, 328, 85, 272, 201, 222, 314, 66, 194, 123, 245, 84, 154, 157, 207, 310, 146, 286, 430, 170, 118, 241, 255, 83, 234, 131, 203, 87, 254, 163, 387
              |190, 155, 318, 105, 290, 43, 79, 403, 253, 350, 227, 335, 145, 420, 245, 425, 58, 191, 72, 284, 296, 216, 422, 141, 187, 328, 228, 87, 91, 167, 112, 127, 430, 266, 41, 382, 154, 180, 275, 271, 82, 251, 223, 254, 180, 413, 206, 336, 480, 192, 433, 96, 300, 321, 142, 362, 316, 113, 200, 419, 80, 196, 79, 319, 382, 203, 425, 23, 338, 436, 319, 395, 347, 433, 358, 255
              |90, 259, 422, 131, 247, 277, 243, 549, 123, 278, 303, 481, 380, 364, 242, 576, 279, 369, 217, 461, 85, 440, 430, 165, 370, 236, 411, 268, 145, 96, 130, 135, 325, 44, 252, 355, 133, 334, 442, 395, 188, 325, 57, 18, 60, 466, 36, 351, 398, 391, 367, 330, 317, 230, 256, 237, 321, 264, 376, 358, 176, 366, 162, 100, 334, 355, 564, 215, 413, 562, 282, 323, 373, 575, 485, 61
              |238, 198, 196, 306, 70, 373, 411, 333, 196, 68, 143, 286, 410, 82, 97, 360, 324, 280, 270, 321, 396, 400, 114, 214, 289, 103, 304, 278, 312, 361, 284, 252, 135, 293, 382, 42, 225, 241, 295, 212, 264, 136, 260, 317, 325, 171, 327, 59, 150, 323, 100, 411, 60, 105, 211, 145, 42, 247, 280, 84, 361, 269, 335, 403, 46, 241, 335, 325, 156, 318, 35, 77, 80, 347, 264, 377
              |290, 223, 354, 202, 377, 57, 109, 406, 352, 439, 290, 345, 75, 501, 328, 423, 96, 203, 159, 278, 383, 168, 487, 237, 195, 421, 226, 142, 188, 252, 211, 226, 521, 364, 81, 459, 253, 213, 278, 302, 178, 310, 323, 350, 273, 462, 299, 404, 565, 182, 516, 11, 371, 414, 210, 458, 389, 174, 211, 501, 160, 213, 170, 407, 463, 231, 431, 123, 385, 448, 402, 481, 411, 437, 376, 342
              |225, 188, 343, 135, 328, 19, 61, 417, 290, 388, 259, 351, 126, 457, 282, 438, 72, 206, 108, 294, 318, 209, 456, 179, 200, 366, 238, 113, 121, 187, 145, 163, 468, 297, 19, 418, 192, 201, 288, 293, 120, 282, 256, 283, 206, 442, 232, 370, 517, 198, 471, 66, 334, 359, 174, 400, 351, 142, 215, 456, 95, 212, 103, 341, 419, 223, 440, 60, 367, 453, 356, 433, 380, 448, 377, 277
              |135, 92, 202, 184, 75, 252, 286, 338, 126, 136, 88, 275, 304, 202, 28, 366, 208, 205, 147, 278, 308, 316, 223, 90, 212, 126, 241, 165, 188, 246, 161, 130, 220, 215, 258, 167, 107, 162, 253, 186, 139, 106, 169, 230, 216, 245, 224, 136, 263, 244, 216, 294, 99, 120, 102, 171, 109, 136, 209, 201, 236, 197, 210, 321, 164, 174, 349, 200, 189, 343, 101, 178, 155, 361, 270, 281
              |48, 169, 310, 141, 125, 265, 267, 444, 31, 165, 193, 379, 348, 250, 121, 472, 242, 289, 170, 373, 205, 384, 308, 91, 293, 127, 329, 212, 153, 173, 122, 97, 227, 107, 255, 235, 69, 248, 350, 290, 145, 213, 66, 126, 133, 345, 132, 229, 293, 321, 256, 317, 195, 120, 172, 147, 199, 194, 295, 245, 203, 283, 178, 215, 217, 265, 456, 201, 296, 451, 161, 212, 251, 468, 377, 182
              |212, 104, 247, 155, 263, 82, 153, 326, 262, 325, 171, 258, 118, 384, 213, 348, 25, 114, 64, 208, 351, 160, 368, 141, 110, 312, 152, 24, 144, 229, 151, 149, 409, 301, 110, 340, 167, 105, 198, 197, 93, 192, 252, 296, 231, 348, 255, 285, 448, 119, 400, 109, 252, 306, 91, 353, 270, 55, 123, 384, 152, 119, 142, 372, 346, 128, 348, 83, 272, 359, 286, 366, 293, 356, 282, 311
              |293, 278, 260, 372, 130, 451, 484, 389, 237, 82, 224, 351, 491, 4, 173, 414, 404, 360, 346, 394, 433, 480, 119, 284, 369, 124, 382, 358, 380, 419, 350, 319, 83, 329, 458, 54, 290, 321, 368, 285, 338, 215, 306, 357, 379, 201, 377, 123, 69, 403, 19, 490, 139, 130, 291, 142, 120, 327, 359, 5, 430, 348, 404, 435, 36, 320, 386, 400, 214, 364, 99, 39, 136, 398, 323, 420
              |127, 184, 361, 30, 270, 128, 99, 465, 197, 324, 252, 396, 234, 403, 236, 489, 142, 260, 104, 356, 206, 304, 431, 119, 258, 293, 301, 149, 21, 79, 51, 82, 396, 185, 101, 375, 111, 237, 342, 320, 85, 277, 149, 169, 92, 439, 118, 343, 456, 270, 414, 180, 305, 286, 174, 318, 317, 161, 269, 400, 32, 262, 11, 229, 367, 261, 485, 72, 370, 491, 304, 371, 359, 494, 411, 166
              |216, 285, 345, 312, 128, 427, 437, 484, 147, 85, 262, 433, 494, 141, 177, 512, 393, 395, 324, 456, 317, 509, 248, 246, 402, 68, 428, 353, 323, 335, 292, 265, 71, 218, 422, 166, 235, 352, 430, 351, 305, 267, 212, 249, 292, 320, 282, 212, 148, 436, 134, 475, 202, 73, 294, 24, 189, 327, 398, 132, 373, 386, 348, 315, 133, 360, 487, 365, 308, 471, 132, 99, 234, 500, 415, 313
              |68, 220, 359, 163, 159, 301, 291, 494, 33, 184, 244, 430, 390, 270, 167, 522, 284, 340, 213, 424, 169, 432, 342, 137, 343, 141, 380, 258, 177, 172, 148, 132, 230, 65, 286, 264, 109, 299, 402, 341, 186, 263, 48, 92, 129, 386, 118, 269, 302, 371, 272, 354, 237, 135, 223, 143, 238, 243, 346, 263, 223, 334, 201, 175, 241, 316, 506, 235, 342, 499, 193, 228, 292, 518, 427, 155
              |381, 299, 401, 293, 459, 149, 189, 424, 443, 521, 358, 372, 91, 578, 408, 436, 177, 246, 246, 296, 470, 162, 551, 325, 236, 506, 255, 220, 279, 339, 303, 318, 604, 455, 171, 532, 344, 269, 304, 349, 267, 375, 414, 440, 363, 514, 389, 473, 643, 212, 594, 96, 443, 500, 286, 545, 462, 250, 252, 579, 248, 258, 261, 494, 540, 282, 450, 215, 439, 472, 481, 561, 477, 453, 408, 429
              |386, 219, 186, 351, 357, 257, 337, 166, 416, 410, 223, 123, 181, 431, 309, 178, 213, 100, 253, 46, 544, 96, 361, 307, 97, 417, 59, 203, 341, 427, 342, 332, 490, 479, 294, 379, 339, 140, 67, 148, 281, 221, 429, 481, 425, 298, 447, 309, 500, 80, 451, 240, 296, 413, 216, 466, 315, 203, 93, 436, 350, 105, 341, 564, 400, 126, 193, 281, 234, 217, 360, 433, 301, 195, 163, 505
              |94, 251, 388, 184, 182, 326, 310, 524, 60, 198, 273, 460, 418, 283, 195, 552, 311, 370, 241, 455, 154, 461, 362, 167, 374, 155, 411, 287, 198, 181, 172, 159, 235, 53, 308, 282, 138, 330, 432, 371, 214, 292, 62, 83, 139, 411, 122, 293, 309, 401, 283, 379, 263, 150, 253, 147, 262, 273, 376, 276, 242, 365, 221, 157, 257, 347, 535, 260, 369, 528, 214, 240, 316, 547, 456, 148
              |36, 186, 332, 133, 148, 266, 261, 464, 34, 184, 214, 399, 353, 270, 145, 492, 247, 304, 176, 390, 182, 395, 331, 100, 308, 145, 345, 221, 146, 156, 116, 97, 242, 85, 253, 257, 73, 264, 368, 311, 150, 235, 43, 102, 115, 368, 111, 252, 310, 334, 275, 318, 218, 138, 187, 158, 222, 206, 310, 264, 195, 299, 171, 192, 238, 282, 477, 200, 318, 472, 183, 231, 274, 489, 398, 160
              |99, 138, 315, 31, 224, 134, 134, 425, 165, 280, 204, 356, 230, 357, 188, 450, 127, 227, 69, 322, 223, 288, 382, 71, 226, 251, 269, 119, 29, 110, 22, 39, 354, 177, 120, 327, 69, 199, 306, 277, 43, 229, 132, 169, 103, 390, 127, 294, 411, 244, 368, 187, 256, 244, 130, 280, 269, 123, 235, 354, 76, 227, 50, 244, 320, 222, 444, 68, 322, 448, 257, 327, 310, 454, 369, 184
              |259, 90, 149, 234, 239, 182, 255, 226, 287, 297, 111, 157, 167, 335, 189, 250, 126, 30, 136, 119, 421, 146, 293, 179, 36, 298, 70, 93, 227, 313, 222, 208, 381, 352, 213, 285, 212, 14, 103, 98, 161, 121, 301, 355, 304, 258, 325, 220, 404, 70, 354, 194, 196, 293, 88, 346, 216, 81, 35, 338, 248, 25, 233, 440, 300, 26, 247, 180, 182, 257, 250, 328, 221, 256, 180, 384
              |293, 144, 212, 245, 305, 148, 227, 255, 334, 365, 183, 193, 98, 407, 253, 274, 103, 57, 150, 128, 440, 81, 365, 216, 47, 362, 75, 99, 234, 320, 239, 233, 449, 385, 184, 358, 246, 86, 126, 160, 179, 194, 335, 383, 321, 325, 344, 293, 475, 32, 425, 141, 268, 356, 136, 407, 288, 110, 63, 410, 240, 68, 232, 461, 372, 94, 280, 171, 250, 297, 319, 398, 294, 286, 225, 400
              |215, 132, 279, 145, 285, 50, 123, 355, 271, 347, 201, 288, 108, 409, 236, 376, 8, 143, 71, 234, 340, 169, 398, 151, 138, 331, 178, 52, 132, 214, 145, 151, 430, 299, 80, 367, 173, 137, 226, 229, 96, 222, 253, 291, 222, 380, 247, 314, 473, 141, 424, 83, 280, 324, 119, 370, 298, 84, 152, 409, 130, 149, 125, 362, 371, 159, 378, 64, 304, 390, 310, 389, 322, 385, 313, 300
              |345, 356, 341, 433, 199, 524, 551, 465, 280, 139, 306, 431, 570, 84, 247, 490, 480, 442, 419, 477, 461, 563, 184, 351, 452, 170, 465, 435, 442, 469, 411, 381, 74, 361, 528, 137, 351, 404, 451, 368, 408, 298, 349, 391, 428, 270, 421, 206, 17, 486, 64, 566, 222, 177, 369, 162, 203, 405, 442, 80, 493, 431, 466, 460, 117, 403, 460, 470, 294, 436, 173, 94, 217, 472, 402, 456
              |290, 118, 104, 278, 241, 232, 305, 179, 309, 294, 107, 110, 207, 319, 194, 204, 176, 51, 182, 90, 459, 166, 262, 212, 61, 302, 62, 142, 272, 356, 264, 245, 374, 383, 263, 267, 245, 49, 66, 52, 204, 106, 332, 389, 344, 217, 363, 199, 388, 91, 339, 241, 182, 298, 121, 351, 201, 125, 46, 323, 296, 40, 279, 477, 287, 25, 199, 228, 142, 208, 244, 319, 195, 208, 130, 423
              |446, 275, 158, 430, 375, 357, 437, 63, 461, 417, 248, 67, 290, 416, 336, 69, 308, 175, 332, 82, 615, 205, 323, 368, 179, 435, 137, 286, 423, 509, 418, 401, 488, 538, 393, 364, 401, 202, 93, 151, 357, 235, 488, 545, 500, 245, 519, 297, 481, 178, 436, 347, 298, 433, 277, 484, 313, 277, 167, 422, 441, 173, 428, 633, 392, 179, 88, 371, 203, 117, 367, 429, 282, 89, 98, 579
              |113, 249, 423, 87, 282, 221, 175, 540, 173, 324, 306, 471, 328, 409, 264, 565, 234, 344, 186, 439, 112, 398, 460, 161, 343, 285, 386, 235, 98, 23, 98, 120, 381, 116, 191, 392, 134, 315, 423, 388, 159, 331, 105, 91, 26, 484, 38, 376, 450, 359, 415, 272, 339, 278, 242, 295, 347, 240, 352, 404, 112, 344, 105, 136, 376, 338, 557, 165, 423, 559, 318, 371, 396, 568, 481, 71
              |371, 200, 149, 345, 328, 265, 345, 140, 395, 379, 194, 88, 202, 397, 282, 157, 217, 88, 246, 11, 534, 127, 324, 292, 89, 389, 47, 198, 337, 423, 334, 321, 458, 464, 301, 344, 324, 122, 30, 112, 273, 190, 414, 468, 417, 261, 437, 274, 465, 86, 417, 256, 264, 385, 200, 438, 281, 193, 80, 401, 351, 89, 339, 553, 367, 104, 166, 282, 197, 187, 329, 400, 265, 171, 128, 497
              |345, 238, 329, 268, 401, 124, 190, 354, 401, 463, 292, 300, 23, 515, 350, 368, 128, 174, 200, 225, 457, 96, 481, 280, 165, 452, 183, 164, 254, 327, 272, 280, 547, 427, 158, 468, 303, 200, 232, 277, 226, 307, 382, 417, 343, 443, 369, 406, 581, 139, 532, 77, 378, 446, 226, 494, 397, 191, 180, 516, 235, 186, 240, 480, 478, 211, 380, 184, 367, 401, 421, 501, 408, 384, 336, 416
              |340, 168, 106, 324, 284, 264, 341, 137, 358, 334, 151, 70, 219, 350, 240, 159, 211, 75, 227, 44, 508, 157, 279, 262, 82, 346, 52, 183, 318, 403, 311, 294, 412, 432, 298, 298, 294, 95, 18, 66, 251, 145, 382, 439, 393, 221, 412, 228, 419, 96, 370, 264, 218, 342, 170, 395, 236, 170, 66, 355, 338, 70, 323, 526, 321, 72, 159, 269, 153, 174, 284, 355, 219, 167, 102, 472
              |333, 186, 19, 353, 218, 343, 409, 149, 326, 250, 122, 106, 328, 243, 191, 177, 286, 172, 270, 162, 508, 280, 157, 267, 182, 275, 172, 244, 351, 428, 334, 308, 317, 416, 369, 191, 296, 157, 138, 69, 284, 98, 370, 431, 406, 97, 419, 126, 309, 210, 263, 359, 134, 274, 196, 322, 146, 218, 167, 250, 386, 161, 365, 522, 220, 139, 154, 325, 31, 143, 203, 258, 109, 166, 80, 478
              |321, 162, 20, 331, 224, 310, 379, 143, 321, 264, 109, 86, 290, 268, 189, 172, 253, 135, 243, 128, 495, 243, 190, 250, 145, 284, 134, 213, 328, 408, 314, 289, 336, 408, 338, 215, 280, 123, 104, 32, 260, 89, 360, 420, 389, 135, 403, 146, 335, 172, 288, 323, 145, 281, 171, 332, 160, 189, 129, 273, 360, 124, 340, 510, 241, 103, 154, 297, 64, 151, 215, 277, 134, 166, 75, 463
              |497, 328, 178, 491, 403, 429, 508, 38, 502, 436, 288, 105, 365, 420, 370, 10, 378, 243, 395, 155, 669, 281, 314, 421, 248, 461, 208, 352, 485, 570, 477, 457, 499, 586, 464, 371, 453, 262, 160, 192, 418, 270, 537, 596, 557, 230, 574, 310, 480, 251, 439, 421, 320, 459, 333, 508, 331, 338, 234, 427, 507, 239, 492, 686, 402, 239, 37, 438, 212, 67, 389, 440, 290, 27, 107, 635
              |317, 161, 17, 330, 217, 312, 380, 149, 316, 256, 105, 94, 295, 259, 183, 178, 255, 140, 243, 136, 492, 249, 183, 247, 150, 276, 141, 214, 327, 406, 312, 287, 328, 403, 339, 207, 277, 126, 112, 37, 259, 84, 356, 416, 386, 129, 400, 138, 327, 178, 280, 327, 138, 274, 170, 325, 152, 189, 135, 265, 360, 129, 340, 506, 233, 107, 159, 297, 57, 154, 207, 269, 126, 171, 81, 460
              |242, 202, 198, 310, 74, 377, 415, 334, 199, 69, 147, 288, 414, 78, 102, 361, 329, 284, 274, 324, 400, 404, 111, 219, 293, 105, 308, 282, 317, 365, 288, 256, 133, 296, 387, 38, 229, 245, 298, 215, 269, 140, 264, 321, 329, 170, 331, 60, 146, 327, 96, 415, 63, 107, 215, 145, 45, 251, 284, 80, 365, 272, 339, 406, 42, 244, 335, 329, 157, 318, 38, 75, 81, 348, 266, 381
              |364, 344, 300, 444, 202, 520, 555, 416, 305, 151, 285, 388, 554, 69, 243, 439, 472, 417, 416, 440, 497, 537, 132, 356, 426, 192, 435, 425, 451, 489, 421, 390, 119, 394, 528, 110, 361, 381, 415, 333, 409, 273, 375, 423, 449, 216, 446, 175, 48, 460, 60, 558, 199, 198, 357, 199, 180, 393, 416, 72, 501, 405, 475, 498, 106, 377, 408, 470, 251, 383, 169, 105, 180, 420, 355, 487
              |106, 146, 323, 26, 235, 128, 123, 431, 173, 291, 213, 362, 226, 368, 199, 456, 125, 231, 72, 326, 222, 287, 392, 81, 230, 262, 272, 122, 20, 105, 27, 49, 365, 181, 111, 338, 80, 204, 311, 284, 48, 238, 138, 171, 103, 400, 127, 304, 422, 245, 379, 181, 266, 255, 137, 290, 279, 128, 239, 365, 65, 231, 39, 243, 331, 227, 450, 62, 331, 455, 268, 337, 320, 460, 376, 182
              |105, 161, 270, 188, 67, 294, 309, 409, 62, 108, 161, 348, 362, 192, 76, 437, 260, 278, 190, 353, 260, 385, 250, 113, 284, 76, 315, 222, 198, 230, 167, 137, 179, 159, 291, 176, 107, 235, 328, 259, 172, 176, 124, 181, 192, 292, 191, 175, 239, 315, 199, 342, 143, 69, 168, 109, 144, 198, 282, 187, 249, 271, 222, 269, 158, 248, 418, 233, 250, 410, 102, 156, 197, 430, 340, 240
              |407, 241, 89, 407, 314, 361, 436, 53, 412, 350, 198, 28, 314, 342, 280, 81, 306, 172, 314, 106, 581, 243, 246, 334, 179, 373, 147, 274, 403, 486, 392, 371, 417, 496, 393, 291, 365, 182, 96, 103, 334, 180, 448, 507, 470, 168, 487, 226, 406, 192, 362, 362, 232, 371, 247, 421, 245, 257, 163, 349, 428, 165, 411, 597, 321, 158, 67, 361, 130, 76, 302, 358, 209, 78, 21, 547
              |196, 61, 136, 217, 127, 240, 292, 266, 199, 183, 17, 202, 266, 226, 78, 294, 187, 142, 147, 206, 371, 260, 207, 129, 150, 187, 174, 140, 217, 290, 197, 170, 267, 283, 257, 179, 157, 100, 181, 113, 153, 41, 235, 295, 267, 203, 280, 122, 293, 184, 243, 272, 90, 182, 74, 235, 108, 108, 144, 228, 257, 132, 234, 385, 189, 106, 279, 204, 134, 276, 136, 215, 132, 291, 200, 340
              |363, 256, 342, 285, 420, 141, 203, 361, 420, 481, 309, 309, 42, 532, 368, 373, 147, 188, 219, 233, 474, 99, 497, 298, 178, 471, 194, 183, 271, 343, 290, 299, 565, 445, 173, 485, 322, 216, 242, 291, 244, 323, 400, 434, 360, 456, 386, 422, 599, 151, 550, 91, 395, 465, 245, 513, 414, 210, 193, 534, 251, 200, 257, 497, 496, 226, 387, 202, 382, 409, 439, 519, 424, 390, 346, 433
              |260, 165, 123, 307, 114, 344, 394, 260, 235, 139, 96, 213, 363, 142, 105, 288, 291, 221, 249, 251, 430, 342, 103, 213, 231, 166, 240, 244, 310, 373, 286, 255, 208, 331, 360, 90, 234, 187, 225, 142, 251, 79, 291, 351, 343, 119, 350, 21, 211, 265, 162, 375, 31, 166, 178, 213, 35, 212, 220, 147, 354, 210, 329, 441, 113, 181, 263, 306, 85, 248, 93, 149, 29, 276, 191, 406
              |262, 136, 245, 202, 300, 98, 178, 302, 310, 361, 191, 238, 79, 413, 248, 322, 55, 94, 114, 177, 399, 110, 385, 189, 86, 352, 122, 67, 191, 275, 200, 199, 445, 351, 135, 366, 216, 105, 172, 193, 143, 208, 302, 346, 279, 354, 304, 306, 480, 81, 430, 99, 277, 346, 125, 395, 296, 91, 102, 414, 192, 103, 186, 420, 376, 122, 326, 125, 277, 341, 319, 399, 310, 333, 267, 358
              |136, 307, 457, 198, 258, 344, 311, 590, 133, 275, 340, 524, 446, 358, 267, 618, 343, 422, 278, 512, 85, 501, 440, 215, 425, 231, 464, 328, 212, 162, 194, 193, 304, 42, 320, 359, 183, 385, 491, 436, 249, 360, 93, 50, 129, 487, 103, 369, 380, 448, 357, 398, 337, 226, 307, 218, 338, 320, 429, 351, 244, 419, 230, 82, 334, 404, 603, 281, 442, 598, 291, 315, 391, 614, 524, 94
              |6, 167, 328, 93, 169, 227, 220, 455, 74, 214, 208, 388, 318, 298, 153, 482, 212, 281, 142, 371, 179, 364, 348, 74, 284, 177, 323, 190, 105, 124, 75, 59, 278, 99, 212, 279, 42, 244, 351, 301, 114, 231, 48, 104, 87, 376, 92, 265, 343, 308, 305, 280, 228, 170, 166, 196, 235, 179, 288, 293, 154, 278, 130, 194, 264, 264, 470, 161, 320, 467, 205, 261, 285, 481, 391, 149
              |356, 268, 371, 271, 429, 125, 176, 398, 416, 491, 327, 344, 61, 547, 378, 411, 147, 216, 217, 269, 453, 139, 519, 297, 206, 477, 227, 189, 257, 322, 279, 292, 574, 433, 151, 501, 317, 238, 276, 319, 240, 343, 391, 420, 343, 484, 369, 441, 612, 182, 563, 71, 411, 470, 255, 516, 430, 219, 222, 548, 230, 227, 240, 477, 509, 251, 424, 190, 408, 445, 450, 530, 445, 428, 380, 412
              |218, 282, 339, 312, 124, 425, 437, 478, 149, 78, 258, 427, 492, 134, 173, 505, 391, 391, 322, 451, 321, 506, 241, 245, 399, 64, 424, 351, 323, 337, 292, 265, 66, 222, 421, 159, 235, 348, 425, 346, 304, 262, 214, 252, 295, 313, 285, 206, 143, 432, 127, 473, 196, 70, 291, 25, 183, 324, 394, 125, 374, 382, 348, 320, 126, 356, 481, 364, 302, 464, 126, 92, 227, 493, 408, 317
              |377, 233, 60, 400, 250, 389, 457, 135, 365, 274, 168, 115, 368, 252, 230, 160, 332, 214, 318, 185, 552, 314, 149, 314, 223, 304, 207, 291, 399, 475, 381, 355, 332, 458, 416, 204, 341, 203, 166, 112, 332, 144, 413, 474, 452, 71, 464, 147, 313, 248, 272, 403, 165, 303, 244, 349, 173, 265, 207, 260, 434, 203, 413, 565, 236, 183, 131, 373, 55, 112, 230, 274, 126, 144, 77, 523
              |97, 75, 240, 116, 140, 188, 216, 363, 128, 199, 122, 296, 256, 271, 98, 390, 153, 192, 84, 280, 269, 286, 291, 23, 196, 179, 233, 116, 119, 186, 95, 65, 279, 190, 190, 238, 53, 153, 259, 209, 70, 147, 139, 197, 162, 303, 176, 203, 329, 223, 284, 235, 165, 172, 75, 217, 178, 96, 198, 269, 166, 187, 140, 285, 233, 172, 379, 132, 239, 378, 170, 244, 220, 390, 301, 236
              |141, 148, 233, 214, 28, 302, 328, 373, 104, 85, 131, 314, 359, 161, 42, 401, 262, 259, 197, 325, 302, 372, 209, 127, 266, 70, 293, 220, 222, 265, 192, 160, 166, 201, 304, 138, 132, 216, 300, 227, 184, 142, 165, 223, 228, 250, 230, 132, 216, 299, 172, 347, 101, 65, 158, 117, 101, 191, 262, 158, 272, 250, 245, 311, 125, 225, 381, 246, 209, 371, 64, 131, 155, 393, 303, 281
              |269, 164, 281, 198, 325, 72, 151, 336, 323, 387, 224, 273, 56, 443, 274, 354, 51, 130, 122, 208, 392, 120, 419, 201, 122, 375, 155, 86, 185, 265, 199, 204, 471, 354, 110, 397, 225, 141, 206, 229, 149, 242, 307, 345, 275, 390, 300, 339, 508, 112, 459, 62, 308, 368, 151, 416, 327, 115, 138, 444, 177, 140, 176, 415, 405, 158, 360, 115, 313, 376, 346, 426, 344, 366, 303, 352
              |427, 257, 119, 420, 342, 362, 439, 38, 435, 380, 221, 34, 306, 374, 306, 61, 309, 174, 324, 93, 598, 229, 279, 351, 179, 401, 143, 281, 414, 499, 406, 386, 449, 517, 396, 323, 383, 191, 92, 123, 347, 205, 468, 526, 486, 200, 504, 258, 439, 187, 395, 358, 262, 399, 262, 450, 276, 267, 165, 381, 436, 169, 421, 615, 352, 168, 62, 368, 162, 84, 331, 390, 241, 69, 54, 564
              |321, 149, 110, 303, 271, 246, 322, 157, 340, 322, 137, 89, 206, 344, 225, 180, 191, 57, 206, 58, 488, 152, 279, 242, 64, 332, 43, 162, 297, 382, 291, 274, 402, 413, 278, 291, 275, 74, 35, 63, 230, 134, 363, 419, 372, 225, 391, 222, 412, 84, 363, 248, 208, 328, 150, 381, 227, 150, 48, 348, 318, 50, 303, 506, 312, 52, 179, 249, 154, 191, 273, 345, 215, 187, 117, 451
              |167, 206, 275, 254, 51, 355, 374, 415, 108, 47, 184, 360, 417, 133, 98, 443, 318, 316, 251, 379, 305, 430, 212, 176, 323, 12, 349, 277, 263, 292, 232, 203, 114, 201, 354, 130, 172, 273, 353, 276, 235, 191, 177, 228, 252, 269, 248, 153, 174, 356, 137, 402, 133, 7, 216, 60, 125, 249, 319, 127, 314, 306, 288, 310, 105, 281, 421, 296, 244, 407, 68, 93, 176, 433, 345, 291
              |186, 225, 284, 274, 65, 376, 395, 424, 124, 36, 199, 371, 437, 119, 115, 452, 338, 333, 272, 393, 318, 448, 207, 197, 340, 11, 365, 297, 284, 311, 253, 224, 92, 214, 376, 124, 193, 290, 367, 289, 256, 204, 193, 242, 270, 270, 265, 156, 155, 374, 121, 423, 141, 18, 235, 47, 130, 269, 336, 112, 335, 324, 309, 321, 95, 298, 428, 318, 250, 414, 72, 77, 179, 441, 354, 306
              |282, 218, 174, 344, 116, 397, 442, 303, 243, 111, 153, 264, 423, 85, 134, 330, 346, 282, 297, 309, 443, 403, 67, 251, 292, 150, 301, 299, 349, 403, 322, 290, 161, 341, 410, 33, 265, 247, 283, 201, 296, 139, 307, 364, 369, 127, 372, 40, 152, 326, 105, 431, 70, 152, 232, 188, 53, 267, 281, 91, 396, 271, 370, 451, 65, 242, 302, 354, 128, 282, 82, 103, 49, 315, 237, 423
              |214, 97, 122, 247, 112, 276, 327, 260, 206, 162, 30, 200, 299, 195, 73, 288, 223, 166, 181, 217, 389, 287, 171, 155, 175, 173, 193, 176, 248, 317, 226, 197, 243, 296, 292, 146, 180, 127, 191, 114, 186, 29, 250, 311, 291, 171, 302, 86, 263, 210, 213, 308, 56, 170, 110, 222, 75, 144, 167, 197, 290, 155, 266, 402, 160, 128, 269, 239, 109, 262, 112, 188, 96, 282, 191, 360
              |161, 205, 381, 65, 303, 112, 67, 477, 231, 358, 276, 409, 221, 437, 268, 501, 140, 268, 120, 363, 223, 298, 460, 150, 265, 328, 307, 159, 54, 92, 85, 115, 430, 214, 79, 407, 145, 250, 352, 337, 108, 301, 182, 195, 117, 464, 142, 372, 490, 273, 447, 161, 334, 320, 194, 352, 347, 176, 277, 434, 4, 272, 30, 246, 400, 274, 498, 72, 393, 506, 337, 405, 387, 507, 427, 182
              |148, 319, 477, 190, 288, 334, 292, 607, 162, 310, 359, 540, 439, 394, 291, 634, 339, 430, 279, 522, 45, 500, 471, 225, 431, 266, 472, 329, 203, 140, 190, 196, 343, 64, 306, 393, 192, 394, 502, 452, 250, 380, 108, 48, 114, 514, 88, 397, 419, 453, 395, 386, 364, 261, 317, 256, 366, 325, 437, 387, 228, 427, 217, 46, 368, 415, 621, 273, 465, 618, 322, 352, 420, 632, 542, 59
              |76, 246, 407, 128, 230, 275, 245, 535, 106, 261, 288, 468, 376, 347, 225, 562, 273, 358, 209, 449, 100, 432, 413, 153, 360, 219, 400, 260, 142, 104, 124, 125, 309, 36, 251, 338, 120, 322, 430, 381, 180, 310, 40, 25, 64, 449, 44, 334, 381, 382, 350, 328, 300, 213, 244, 221, 304, 254, 365, 341, 177, 355, 161, 114, 317, 343, 549, 211, 397, 547, 265, 306, 356, 561, 471, 78
              |373, 228, 264, 315, 387, 191, 269, 264, 417, 446, 261, 217, 93, 484, 336, 275, 165, 124, 226, 139, 511, 3, 431, 297, 115, 445, 111, 177, 303, 385, 313, 311, 530, 463, 229, 433, 327, 163, 152, 216, 255, 268, 414, 459, 392, 379, 416, 366, 552, 80, 502, 160, 344, 439, 220, 491, 364, 193, 125, 487, 298, 135, 296, 533, 449, 164, 290, 235, 308, 314, 399, 478, 363, 293, 256, 470
              |366, 199, 68, 364, 283, 319, 393, 93, 374, 324, 160, 27, 278, 326, 245, 120, 263, 130, 270, 82, 539, 214, 241, 291, 138, 343, 111, 231, 359, 442, 349, 328, 396, 456, 350, 274, 323, 138, 64, 62, 291, 144, 407, 466, 428, 172, 445, 206, 392, 155, 346, 322, 205, 340, 204, 392, 220, 213, 122, 332, 384, 122, 368, 555, 301, 114, 111, 317, 116, 119, 275, 337, 192, 121, 43, 505
              |214, 48, 168, 193, 208, 164, 230, 263, 244, 268, 93, 194, 177, 315, 156, 288, 107, 73, 98, 164, 377, 178, 289, 134, 77, 264, 115, 64, 187, 272, 180, 163, 352, 307, 189, 268, 167, 37, 145, 121, 120, 111, 256, 311, 261, 266, 281, 208, 382, 107, 333, 188, 178, 258, 43, 310, 197, 41, 80, 317, 213, 69, 195, 396, 278, 60, 283, 147, 190, 290, 223, 303, 213, 293, 211, 340
              |52, 223, 383, 114, 210, 259, 236, 512, 91, 245, 265, 444, 358, 331, 204, 539, 254, 335, 189, 427, 123, 412, 393, 130, 337, 204, 377, 239, 128, 105, 106, 104, 297, 49, 238, 320, 97, 299, 407, 357, 160, 287, 21, 48, 62, 428, 50, 313, 368, 360, 335, 313, 278, 198, 221, 211, 283, 232, 343, 325, 167, 332, 148, 137, 300, 320, 526, 195, 375, 524, 246, 291, 335, 537, 448, 97
              |127, 142, 239, 200, 43, 291, 315, 377, 94, 98, 132, 317, 351, 175, 45, 406, 252, 255, 186, 326, 290, 366, 222, 115, 262, 78, 291, 211, 208, 251, 178, 147, 177, 190, 292, 152, 118, 212, 301, 229, 172, 145, 152, 211, 214, 261, 217, 144, 229, 294, 185, 336, 111, 72, 151, 122, 113, 184, 259, 172, 258, 247, 232, 300, 139, 223, 386, 234, 217, 377, 78, 144, 166, 399, 309, 268
              |145, 297, 469, 140, 310, 272, 220, 589, 190, 345, 350, 520, 380, 431, 299, 615, 288, 396, 238, 491, 62, 451, 492, 206, 396, 303, 438, 288, 151, 70, 150, 168, 393, 108, 240, 420, 177, 366, 474, 436, 211, 374, 121, 77, 68, 523, 54, 411, 466, 412, 435, 322, 375, 297, 292, 305, 381, 291, 404, 425, 162, 396, 158, 86, 400, 388, 606, 218, 465, 607, 346, 390, 432, 616, 529, 23
              |114, 127, 305, 47, 227, 118, 127, 411, 178, 285, 196, 342, 212, 360, 188, 436, 108, 210, 52, 306, 241, 269, 379, 73, 209, 259, 252, 102, 40, 125, 41, 51, 361, 195, 108, 328, 80, 183, 290, 264, 29, 221, 150, 187, 122, 383, 145, 291, 416, 226, 372, 171, 253, 252, 118, 290, 267, 107, 219, 358, 77, 211, 53, 262, 323, 207, 430, 53, 314, 435, 259, 331, 306, 440, 356, 202
              |428, 265, 101, 433, 325, 390, 465, 45, 428, 357, 216, 58, 344, 341, 295, 71, 335, 201, 340, 135, 602, 272, 239, 356, 208, 382, 177, 302, 428, 511, 416, 394, 420, 515, 422, 292, 387, 209, 126, 125, 360, 196, 467, 528, 494, 157, 509, 230, 403, 222, 361, 392, 241, 381, 272, 429, 252, 283, 193, 349, 455, 194, 438, 618, 323, 186, 47, 389, 133, 47, 310, 361, 211, 60, 33, 569
              |329, 269, 396, 237, 423, 99, 126, 439, 394, 484, 336, 381, 98, 547, 374, 455, 142, 243, 204, 310, 408, 188, 532, 280, 234, 466, 262, 189, 223, 278, 249, 267, 566, 398, 113, 505, 295, 256, 313, 344, 221, 355, 360, 382, 304, 505, 330, 450, 611, 217, 563, 56, 417, 459, 256, 502, 436, 221, 250, 547, 188, 253, 203, 432, 510, 273, 465, 163, 429, 484, 448, 527, 457, 470, 414, 368
              |127, 250, 362, 224, 142, 355, 352, 501, 60, 144, 255, 441, 438, 226, 169, 529, 332, 369, 261, 446, 214, 471, 314, 181, 374, 101, 407, 301, 237, 235, 207, 186, 174, 113, 344, 231, 159, 327, 422, 353, 236, 269, 111, 144, 192, 370, 179, 252, 249, 404, 225, 407, 226, 98, 255, 86, 222, 281, 374, 219, 285, 362, 261, 215, 204, 341, 510, 290, 337, 499, 169, 183, 275, 522, 432, 208
              |222, 183, 195, 289, 54, 357, 394, 334, 181, 66, 132, 285, 396, 96, 81, 362, 309, 270, 253, 316, 381, 390, 129, 197, 279, 94, 296, 263, 295, 344, 266, 235, 140, 278, 366, 59, 208, 230, 289, 207, 247, 128, 244, 302, 308, 180, 311, 64, 162, 313, 113, 396, 54, 95, 196, 139, 39, 232, 271, 97, 344, 259, 317, 388, 59, 231, 337, 308, 159, 322, 21, 85, 87, 350, 265, 361
              |167, 123, 291, 94, 257, 70, 109, 383, 227, 318, 196, 315, 158, 387, 212, 407, 55, 174, 38, 269, 290, 218, 390, 111, 172, 297, 214, 64, 82, 167, 94, 102, 398, 249, 74, 349, 128, 157, 257, 245, 52, 220, 203, 241, 171, 383, 196, 303, 447, 182, 400, 120, 267, 290, 111, 332, 283, 85, 183, 386, 91, 178, 79, 312, 349, 180, 404, 23, 309, 413, 286, 362, 315, 413, 335, 250
              |330, 159, 92, 318, 270, 266, 341, 139, 346, 319, 137, 70, 227, 335, 226, 163, 211, 77, 222, 60, 500, 170, 264, 253, 85, 331, 62, 180, 312, 397, 305, 286, 396, 422, 298, 282, 285, 89, 33, 50, 245, 130, 372, 430, 385, 207, 404, 212, 403, 104, 355, 269, 202, 327, 162, 380, 220, 165, 69, 339, 335, 70, 320, 517, 305, 66, 160, 267, 138, 171, 268, 339, 204, 169, 96, 464
              |328, 224, 118, 374, 175, 400, 456, 235, 300, 183, 151, 204, 406, 152, 173, 260, 345, 255, 310, 261, 497, 371, 57, 281, 265, 219, 264, 299, 376, 441, 353, 322, 234, 397, 420, 105, 302, 228, 236, 159, 315, 128, 358, 418, 411, 55, 418, 64, 213, 297, 172, 426, 98, 220, 237, 260, 95, 268, 252, 160, 419, 243, 395, 507, 138, 217, 231, 368, 69, 210, 146, 176, 41, 244, 172, 473
              |420, 257, 92, 425, 316, 384, 458, 52, 420, 348, 208, 55, 340, 334, 286, 79, 329, 195, 332, 132, 594, 269, 233, 348, 203, 374, 172, 295, 421, 503, 408, 386, 412, 507, 416, 284, 378, 202, 122, 117, 352, 188, 459, 519, 485, 152, 501, 222, 396, 217, 354, 386, 233, 372, 264, 421, 244, 276, 187, 342, 448, 188, 430, 609, 315, 179, 56, 381, 125, 55, 301, 353, 204, 68, 25, 561
              |325, 294, 253, 400, 158, 471, 508, 374, 271, 117, 234, 342, 503, 32, 195, 399, 422, 366, 368, 392, 468, 486, 94, 310, 375, 160, 385, 375, 407, 450, 378, 346, 115, 364, 480, 59, 318, 330, 366, 284, 362, 222, 340, 392, 412, 179, 410, 124, 74, 409, 42, 508, 148, 165, 307, 179, 129, 343, 365, 41, 457, 354, 430, 471, 62, 326, 369, 423, 205, 346, 124, 76, 131, 381, 311, 455
              |216, 221, 252, 297, 59, 385, 412, 390, 160, 9, 182, 341, 436, 81, 109, 418, 342, 319, 280, 370, 358, 437, 163, 212, 327, 51, 348, 298, 305, 341, 275, 244, 89, 254, 389, 80, 214, 278, 344, 263, 268, 182, 229, 281, 302, 228, 299, 118, 131, 362, 89, 428, 110, 55, 233, 86, 96, 268, 320, 76, 356, 309, 329, 362, 52, 281, 393, 330, 214, 377, 43, 46, 140, 406, 321, 344
              |207, 262, 318, 299, 103, 409, 423, 458, 139, 59, 237, 406, 473, 124, 153, 485, 373, 370, 305, 430, 321, 485, 226, 228, 378, 44, 403, 332, 310, 329, 279, 251, 69, 220, 406, 143, 220, 328, 404, 325, 287, 241, 207, 249, 287, 296, 279, 186, 142, 411, 120, 456, 175, 50, 272, 22, 163, 305, 373, 116, 361, 361, 335, 321, 110, 335, 461, 348, 282, 445, 106, 81, 208, 473, 388, 314
              |76, 108, 282, 71, 176, 167, 180, 400, 129, 233, 166, 332, 250, 309, 140, 427, 144, 215, 73, 308, 234, 295, 335, 23, 217, 206, 257, 120, 75, 141, 49, 21, 308, 167, 161, 279, 31, 180, 289, 248, 47, 191, 117, 167, 121, 349, 138, 248, 364, 240, 320, 218, 210, 198, 104, 237, 222, 111, 223, 306, 124, 213, 98, 252, 272, 202, 417, 104, 284, 419, 209, 279, 265, 428, 340, 198
              |166, 8, 180, 166, 156, 184, 234, 297, 189, 218, 71, 228, 222, 273, 105, 323, 133, 128, 89, 212, 336, 233, 265, 88, 133, 210, 167, 87, 164, 243, 148, 125, 302, 258, 199, 230, 121, 86, 190, 144, 98, 96, 208, 265, 225, 259, 241, 178, 338, 163, 289, 219, 144, 204, 19, 255, 161, 55, 133, 274, 201, 122, 179, 353, 236, 104, 313, 146, 188, 315, 176, 256, 189, 324, 236, 302
              |49, 178, 349, 52, 211, 196, 179, 470, 119, 259, 231, 401, 295, 342, 189, 496, 192, 282, 129, 376, 165, 352, 386, 86, 283, 223, 324, 180, 66, 82, 43, 49, 324, 112, 177, 321, 59, 249, 357, 317, 100, 256, 70, 104, 52, 409, 69, 301, 389, 303, 350, 250, 264, 216, 173, 242, 272, 177, 290, 338, 111, 281, 89, 184, 307, 271, 486, 132, 348, 487, 247, 306, 320, 497, 409, 129
              |63, 160, 294, 151, 108, 268, 275, 429, 37, 149, 178, 365, 346, 234, 104, 457, 241, 280, 169, 361, 223, 378, 290, 89, 284, 114, 319, 208, 162, 188, 130, 103, 215, 124, 261, 218, 73, 238, 338, 276, 147, 197, 84, 144, 150, 327, 150, 211, 279, 313, 241, 318, 177, 107, 164, 138, 180, 188, 285, 229, 212, 273, 186, 233, 200, 254, 441, 204, 279, 435, 144, 197, 233, 452, 362, 200
              |60, 186, 358, 47, 224, 193, 171, 477, 130, 271, 241, 409, 294, 354, 201, 504, 192, 287, 132, 381, 160, 353, 398, 96, 288, 235, 329, 183, 61, 70, 43, 56, 335, 115, 171, 333, 70, 255, 364, 325, 103, 266, 77, 104, 43, 420, 63, 313, 401, 307, 362, 246, 275, 228, 180, 253, 284, 182, 295, 350, 103, 286, 82, 180, 320, 277, 494, 129, 358, 496, 259, 318, 332, 505, 417, 122
              |265, 225, 371, 173, 369, 45, 68, 434, 331, 430, 295, 371, 115, 497, 323, 453, 101, 226, 149, 307, 346, 206, 492, 221, 219, 408, 254, 146, 158, 215, 185, 204, 510, 334, 48, 458, 233, 229, 305, 320, 162, 317, 295, 317, 239, 474, 265, 407, 558, 211, 511, 47, 373, 401, 211, 442, 390, 178, 235, 496, 124, 235, 138, 370, 459, 249, 459, 102, 398, 474, 397, 474, 417, 465, 399, 306
              |110, 67, 242, 106, 163, 163, 194, 359, 149, 224, 128, 291, 231, 294, 119, 386, 127, 177, 58, 268, 274, 265, 307, 30, 180, 204, 219, 93, 106, 180, 86, 62, 304, 203, 167, 258, 62, 141, 249, 207, 48, 153, 152, 206, 162, 314, 179, 219, 353, 205, 307, 210, 182, 197, 63, 242, 196, 76, 184, 292, 149, 174, 124, 292, 256, 162, 376, 109, 246, 378, 192, 268, 235, 387, 299, 239
              |97, 233, 358, 194, 146, 328, 321, 496, 36, 161, 246, 433, 413, 246, 164, 524, 307, 352, 236, 433, 191, 450, 326, 157, 357, 117, 392, 278, 207, 204, 178, 158, 201, 88, 315, 245, 133, 311, 410, 345, 210, 263, 80, 117, 161, 376, 149, 257, 274, 386, 247, 380, 229, 113, 237, 113, 227, 260, 358, 239, 254, 346, 231, 195, 220, 327, 506, 262, 337, 497, 177, 203, 281, 518, 427, 182
              |248, 103, 205, 204, 266, 129, 205, 273, 289, 327, 151, 206, 118, 374, 214, 294, 74, 61, 107, 154, 398, 125, 343, 171, 56, 320, 98, 56, 194, 281, 196, 189, 411, 340, 161, 327, 201, 64, 144, 153, 136, 167, 290, 339, 279, 312, 302, 265, 442, 68, 392, 139, 237, 315, 93, 365, 256, 65, 70, 376, 206, 67, 195, 419, 338, 82, 296, 137, 236, 308, 282, 362, 269, 303, 232, 359
              |358, 306, 235, 427, 189, 485, 529, 345, 309, 157, 239, 321, 508, 78, 217, 369, 433, 363, 385, 377, 508, 482, 62, 335, 373, 201, 377, 386, 433, 482, 405, 373, 162, 404, 498, 79, 346, 330, 352, 273, 382, 223, 377, 431, 445, 145, 445, 125, 112, 406, 89, 518, 157, 206, 319, 224, 141, 354, 361, 87, 481, 351, 455, 513, 98, 323, 338, 441, 186, 312, 153, 121, 122, 349, 286, 493
              |57, 187, 359, 51, 221, 197, 176, 478, 126, 268, 241, 410, 298, 351, 199, 505, 195, 289, 135, 383, 158, 356, 396, 96, 290, 232, 331, 186, 66, 72, 46, 57, 332, 111, 176, 331, 69, 257, 365, 326, 106, 266, 72, 100, 43, 419, 61, 311, 397, 309, 359, 251, 274, 225, 182, 249, 283, 184, 297, 347, 107, 288, 87, 177, 317, 279, 495, 133, 358, 496, 257, 315, 331, 506, 418, 120
              |159, 69, 240, 118, 213, 115, 163, 340, 206, 275, 142, 271, 174, 338, 164, 364, 71, 139, 21, 234, 309, 212, 336, 84, 139, 258, 181, 37, 111, 197, 107, 98, 357, 250, 127, 298, 112, 112, 219, 196, 46, 166, 200, 248, 190, 328, 212, 250, 401, 158, 353, 156, 214, 252, 56, 298, 231, 36, 147, 338, 137, 139, 119, 329, 300, 136, 360, 76, 255, 366, 238, 317, 261, 369, 287, 270
              |166, 80, 248, 117, 226, 102, 152, 344, 216, 287, 153, 275, 163, 351, 177, 368, 59, 140, 19, 235, 310, 205, 348, 94, 139, 271, 181, 32, 109, 195, 109, 103, 370, 255, 116, 311, 120, 116, 221, 203, 48, 177, 206, 252, 191, 339, 214, 262, 414, 156, 366, 143, 226, 264, 67, 310, 243, 42, 149, 351, 131, 141, 114, 331, 313, 140, 365, 66, 265, 372, 251, 330, 273, 374, 293, 271
              |21, 152, 311, 95, 157, 222, 221, 439, 74, 204, 192, 372, 309, 287, 138, 466, 203, 267, 132, 356, 195, 353, 334, 60, 270, 169, 309, 178, 107, 136, 76, 53, 271, 113, 210, 266, 29, 229, 335, 284, 105, 215, 63, 120, 101, 361, 108, 250, 334, 295, 295, 274, 213, 162, 151, 192, 220, 166, 274, 283, 157, 263, 132, 210, 252, 249, 453, 157, 304, 451, 192, 251, 270, 465, 375, 165
              |337, 263, 380, 249, 420, 105, 147, 416, 400, 482, 326, 360, 74, 542, 371, 431, 137, 225, 204, 287, 426, 162, 521, 283, 216, 466, 241, 182, 235, 295, 259, 274, 565, 411, 126, 498, 300, 242, 291, 327, 225, 344, 370, 396, 319, 490, 345, 441, 607, 196, 558, 53, 409, 459, 250, 504, 428, 214, 232, 543, 204, 236, 216, 450, 504, 258, 442, 170, 414, 462, 444, 524, 446, 447, 394, 386
              |234, 96, 98, 257, 139, 271, 328, 234, 231, 188, 24, 173, 285, 215, 99, 262, 216, 145, 183, 190, 409, 266, 178, 169, 154, 200, 169, 170, 257, 331, 238, 210, 268, 318, 291, 164, 196, 108, 164, 86, 192, 1, 271, 332, 307, 164, 319, 99, 284, 188, 234, 299, 76, 197, 109, 249, 95, 139, 144, 218, 296, 133, 273, 423, 181, 105, 245, 241, 94, 239, 138, 212, 102, 257, 166, 378
              |151, 95, 189, 199, 69, 262, 299, 326, 139, 130, 77, 264, 309, 191, 17, 354, 216, 203, 158, 271, 324, 316, 207, 105, 210, 125, 237, 172, 204, 263, 177, 146, 214, 229, 270, 154, 123, 160, 246, 176, 152, 93, 185, 246, 232, 228, 240, 120, 253, 243, 205, 303, 82, 120, 106, 173, 93, 142, 206, 190, 251, 194, 225, 336, 153, 169, 336, 212, 174, 329, 91, 170, 139, 348, 258, 297
              |386, 263, 112, 423, 239, 431, 494, 190, 363, 249, 192, 178, 421, 210, 232, 212, 374, 266, 350, 247, 558, 372, 98, 332, 276, 285, 264, 330, 424, 494, 403, 374, 295, 459, 455, 168, 356, 248, 226, 163, 360, 167, 418, 479, 466, 12, 476, 128, 265, 303, 228, 450, 158, 286, 275, 326, 159, 302, 260, 219, 464, 254, 441, 568, 201, 232, 181, 407, 77, 155, 212, 239, 105, 193, 138, 532
              |205, 206, 242, 284, 45, 370, 398, 381, 152, 20, 168, 331, 421, 92, 94, 409, 327, 305, 265, 358, 352, 423, 164, 198, 313, 50, 334, 283, 292, 330, 262, 231, 104, 248, 374, 82, 201, 263, 331, 251, 254, 169, 220, 274, 291, 225, 290, 111, 145, 347, 101, 413, 99, 52, 218, 92, 86, 253, 306, 88, 342, 295, 316, 357, 59, 268, 385, 316, 206, 369, 30, 60, 133, 397, 312, 336
              |195, 85, 236, 145, 242, 97, 161, 323, 243, 304, 153, 255, 139, 363, 192, 347, 43, 115, 49, 210, 340, 175, 351, 121, 113, 291, 155, 5, 136, 222, 138, 133, 388, 285, 120, 320, 149, 98, 197, 188, 78, 175, 236, 282, 220, 334, 243, 267, 428, 127, 379, 129, 233, 285, 72, 332, 251, 36, 124, 364, 151, 118, 138, 360, 326, 121, 345, 82, 259, 354, 265, 345, 275, 353, 276, 300
              |333, 165, 153, 303, 304, 225, 304, 177, 361, 358, 170, 116, 170, 384, 255, 195, 175, 47, 205, 51, 494, 108, 322, 254, 47, 364, 5, 156, 295, 381, 293, 281, 439, 427, 260, 332, 286, 86, 48, 106, 232, 171, 376, 430, 376, 268, 397, 263, 453, 48, 404, 219, 247, 360, 163, 413, 266, 152, 40, 388, 309, 51, 297, 513, 352, 72, 201, 240, 198, 219, 309, 384, 257, 207, 151, 456
              |188, 18, 160, 187, 164, 191, 247, 275, 208, 225, 59, 206, 218, 274, 112, 301, 137, 110, 103, 191, 358, 221, 256, 110, 116, 221, 148, 90, 184, 264, 169, 147, 309, 280, 210, 228, 143, 67, 169, 122, 116, 82, 229, 287, 246, 244, 263, 172, 340, 148, 291, 222, 139, 215, 28, 267, 158, 59, 115, 275, 218, 103, 197, 375, 237, 83, 291, 160, 171, 293, 180, 260, 180, 302, 215, 323
              |125, 187, 284, 214, 65, 323, 336, 424, 67, 88, 180, 365, 391, 174, 92, 452, 289, 303, 220, 374, 267, 412, 245, 142, 309, 50, 339, 251, 224, 250, 193, 164, 152, 164, 319, 166, 134, 260, 349, 277, 201, 193, 136, 189, 210, 294, 207, 176, 216, 341, 179, 371, 149, 43, 195, 80, 145, 226, 307, 169, 275, 295, 249, 273, 144, 272, 432, 262, 259, 421, 96, 135, 199, 444, 354, 251
              |372, 200, 133, 350, 320, 277, 356, 125, 393, 370, 187, 71, 218, 384, 276, 143, 227, 94, 252, 9, 537, 144, 309, 293, 97, 382, 56, 205, 342, 429, 338, 323, 447, 465, 312, 331, 326, 123, 18, 100, 277, 181, 414, 470, 421, 244, 441, 262, 452, 99, 404, 270, 253, 378, 201, 431, 271, 197, 85, 389, 359, 93, 346, 556, 355, 103, 150, 290, 182, 170, 320, 390, 252, 156, 110, 500
              |86, 106, 247, 142, 101, 233, 254, 379, 91, 158, 129, 314, 301, 234, 71, 407, 198, 226, 129, 307, 261, 327, 268, 54, 231, 134, 265, 161, 149, 200, 120, 88, 236, 170, 232, 206, 61, 184, 285, 225, 112, 150, 123, 184, 168, 293, 175, 183, 289, 260, 245, 280, 146, 127, 111, 171, 155, 138, 231, 231, 199, 220, 172, 274, 197, 200, 392, 174, 237, 388, 134, 204, 203, 403, 313, 233
              |34, 204, 358, 121, 179, 262, 248, 489, 61, 214, 240, 422, 356, 300, 174, 516, 250, 320, 181, 409, 151, 404, 362, 113, 323, 174, 362, 229, 135, 130, 108, 97, 269, 61, 245, 288, 81, 282, 388, 334, 153, 261, 12, 73, 87, 398, 81, 283, 339, 348, 305, 316, 249, 167, 204, 183, 253, 218, 327, 295, 180, 316, 158, 163, 269, 301, 502, 196, 347, 499, 215, 261, 305, 514, 424, 128
              |338, 232, 117, 384, 186, 407, 464, 229, 311, 193, 159, 201, 411, 159, 183, 254, 352, 259, 318, 260, 508, 373, 58, 290, 269, 229, 266, 306, 386, 451, 362, 332, 242, 408, 427, 114, 312, 233, 236, 161, 324, 136, 368, 429, 421, 45, 428, 75, 219, 300, 179, 432, 108, 231, 245, 270, 105, 275, 255, 167, 428, 247, 404, 517, 147, 221, 225, 376, 69, 202, 157, 185, 52, 237, 168, 484
              |476, 307, 159, 470, 384, 409, 487, 19, 482, 419, 268, 83, 347, 405, 351, 12, 357, 222, 374, 135, 648, 264, 303, 400, 227, 442, 188, 331, 464, 549, 456, 436, 484, 565, 443, 356, 432, 241, 139, 171, 396, 250, 516, 575, 535, 219, 553, 293, 467, 231, 425, 402, 302, 441, 312, 490, 314, 317, 213, 413, 486, 217, 471, 664, 386, 217, 33, 417, 196, 65, 371, 424, 275, 30, 89, 613
              |306, 182, 270, 241, 345, 115, 193, 307, 356, 407, 232, 248, 40, 456, 294, 323, 91, 115, 158, 178, 436, 75, 421, 235, 105, 399, 129, 114, 228, 309, 240, 242, 491, 393, 153, 408, 261, 139, 180, 218, 186, 246, 346, 387, 318, 383, 343, 345, 523, 84, 473, 91, 318, 392, 171, 442, 337, 138, 121, 457, 221, 126, 220, 458, 419, 150, 332, 159, 307, 351, 363, 443, 348, 337, 282, 395
              |197, 32, 146, 200, 161, 204, 261, 263, 214, 220, 47, 195, 226, 266, 110, 290, 149, 108, 117, 184, 369, 223, 244, 122, 115, 219, 145, 102, 198, 277, 183, 159, 304, 289, 223, 219, 153, 65, 161, 110, 130, 69, 239, 297, 259, 230, 275, 161, 333, 148, 283, 233, 130, 214, 42, 267, 149, 71, 112, 268, 232, 100, 211, 386, 229, 77, 279, 174, 157, 280, 175, 254, 168, 290, 202, 335
              |231, 101, 225, 181, 265, 105, 180, 298, 277, 326, 160, 231, 113, 379, 213, 320, 49, 86, 86, 179, 376, 139, 355, 156, 82, 317, 123, 36, 171, 257, 175, 170, 410, 322, 137, 333, 185, 82, 169, 174, 115, 178, 273, 319, 257, 330, 280, 275, 445, 91, 396, 122, 244, 311, 90, 360, 263, 56, 95, 380, 181, 92, 170, 397, 342, 103, 321, 112, 253, 333, 284, 364, 280, 329, 256, 337
              |392, 226, 76, 392, 300, 348, 423, 68, 396, 337, 183, 23, 304, 332, 265, 96, 293, 159, 299, 100, 565, 236, 239, 318, 167, 359, 137, 260, 388, 471, 377, 355, 406, 481, 380, 280, 349, 167, 87, 87, 319, 165, 432, 492, 455, 163, 472, 214, 397, 182, 352, 350, 219, 357, 232, 407, 232, 242, 151, 338, 414, 152, 397, 581, 309, 144, 83, 347, 119, 90, 288, 346, 198, 94, 18, 532
              |40, 206, 370, 94, 207, 240, 218, 496, 94, 246, 251, 429, 338, 331, 195, 523, 234, 317, 169, 409, 136, 393, 388, 113, 319, 207, 359, 219, 109, 95, 86, 85, 303, 69, 219, 317, 80, 282, 389, 342, 140, 274, 30, 65, 53, 419, 51, 306, 372, 341, 337, 293, 270, 200, 204, 217, 276, 213, 325, 326, 150, 315, 130, 152, 299, 302, 511, 175, 363, 510, 243, 293, 327, 523, 433, 106
              |26, 182, 332, 123, 155, 257, 251, 464, 45, 193, 214, 398, 345, 278, 148, 492, 239, 300, 168, 387, 178, 388, 337, 94, 303, 154, 341, 214, 136, 146, 106, 88, 252, 85, 243, 264, 65, 261, 365, 310, 141, 236, 38, 99, 105, 372, 103, 257, 320, 329, 284, 309, 222, 147, 183, 169, 227, 200, 306, 273, 184, 295, 160, 189, 246, 279, 477, 191, 321, 473, 190, 240, 279, 489, 398, 154
              |113, 114, 231, 175, 68, 260, 286, 367, 98, 127, 117, 304, 321, 202, 42, 395, 221, 231, 155, 306, 284, 339, 237, 86, 237, 108, 268, 181, 182, 231, 153, 121, 207, 188, 262, 173, 94, 188, 282, 215, 142, 134, 144, 205, 197, 266, 203, 154, 258, 269, 213, 306, 117, 102, 122, 150, 124, 154, 235, 199, 231, 223, 205, 295, 165, 201, 378, 204, 215, 371, 102, 173, 174, 390, 299, 258
              |284, 183, 113, 330, 136, 361, 414, 247, 258, 155, 111, 204, 375, 145, 129, 274, 307, 229, 268, 249, 454, 348, 86, 236, 238, 186, 244, 260, 332, 396, 308, 278, 218, 355, 379, 93, 257, 197, 224, 141, 272, 91, 314, 375, 366, 96, 374, 28, 213, 271, 166, 390, 54, 186, 196, 230, 55, 229, 226, 151, 376, 217, 351, 464, 121, 189, 248, 326, 70, 231, 112, 159, 12, 260, 179, 429
              |189, 70, 224, 147, 228, 112, 173, 316, 234, 290, 138, 247, 151, 348, 178, 339, 58, 110, 48, 206, 339, 182, 336, 113, 109, 278, 152, 11, 139, 225, 138, 129, 374, 280, 133, 305, 142, 88, 192, 177, 76, 160, 231, 279, 220, 320, 242, 251, 413, 127, 364, 144, 218, 271, 56, 320, 236, 21, 119, 349, 158, 112, 143, 359, 311, 112, 336, 91, 245, 345, 250, 330, 260, 345, 266, 300
              |202, 87, 132, 235, 108, 266, 316, 268, 196, 161, 27, 207, 293, 199, 65, 297, 214, 165, 170, 220, 377, 284, 182, 143, 173, 169, 193, 167, 236, 305, 214, 185, 243, 285, 282, 152, 168, 124, 195, 120, 174, 36, 239, 300, 279, 184, 290, 96, 267, 207, 217, 299, 63, 165, 100, 218, 81, 135, 166, 201, 278, 154, 254, 391, 163, 127, 279, 228, 121, 272, 113, 191, 107, 291, 200, 348
              |183, 209, 265, 268, 47, 364, 386, 405, 126, 29, 181, 352, 422, 115, 98, 433, 325, 315, 259, 374, 324, 431, 194, 187, 323, 20, 347, 282, 277, 309, 246, 216, 103, 220, 365, 112, 186, 272, 348, 270, 245, 185, 195, 247, 269, 254, 266, 139, 159, 356, 120, 409, 122, 22, 220, 66, 112, 254, 317, 109, 328, 305, 301, 328, 86, 279, 410, 307, 232, 395, 54, 76, 162, 422, 336, 310
              |76, 237, 379, 166, 180, 307, 292, 514, 54, 202, 263, 449, 400, 287, 188, 542, 294, 356, 224, 442, 150, 445, 362, 151, 359, 159, 397, 271, 180, 165, 153, 141, 244, 46, 290, 284, 121, 316, 420, 361, 196, 283, 44, 74, 122, 407, 107, 290, 318, 386, 289, 361, 258, 153, 239, 156, 259, 257, 362, 281, 224, 351, 203, 155, 260, 334, 526, 242, 363, 520, 213, 245, 312, 538, 447, 138
              |163, 205, 380, 67, 304, 110, 64, 476, 233, 360, 276, 407, 218, 438, 268, 499, 138, 267, 120, 361, 226, 296, 460, 151, 264, 329, 305, 157, 56, 95, 87, 117, 432, 217, 76, 408, 147, 249, 350, 336, 108, 301, 184, 198, 120, 464, 145, 372, 491, 271, 448, 158, 334, 322, 194, 354, 348, 175, 276, 435, 5, 270, 31, 249, 401, 273, 497, 71, 393, 505, 338, 407, 387, 506, 426, 185
              |51, 220, 382, 107, 212, 253, 229, 509, 95, 249, 263, 442, 352, 334, 204, 536, 248, 331, 184, 423, 124, 407, 395, 126, 333, 208, 374, 234, 121, 99, 100, 99, 302, 55, 231, 322, 94, 296, 403, 355, 154, 286, 26, 51, 56, 428, 46, 314, 372, 356, 339, 306, 279, 202, 218, 216, 284, 227, 339, 329, 161, 329, 142, 139, 303, 316, 524, 188, 374, 522, 248, 295, 336, 535, 446, 97
              |153, 97, 188, 202, 67, 265, 302, 325, 140, 128, 77, 263, 312, 188, 15, 353, 219, 204, 161, 271, 326, 318, 204, 109, 211, 124, 238, 174, 207, 266, 180, 149, 212, 231, 273, 151, 126, 161, 246, 175, 155, 92, 187, 248, 235, 226, 243, 117, 250, 244, 202, 306, 80, 119, 109, 171, 90, 144, 207, 187, 254, 195, 228, 338, 150, 170, 335, 216, 172, 328, 88, 167, 136, 347, 257, 299
              |144, 34, 211, 135, 167, 161, 205, 325, 177, 229, 102, 256, 213, 292, 118, 351, 116, 143, 60, 233, 309, 237, 292, 64, 146, 216, 185, 73, 133, 212, 117, 96, 312, 237, 172, 252, 97, 106, 214, 174, 66, 127, 186, 241, 196, 290, 214, 205, 355, 173, 307, 202, 169, 209, 28, 258, 185, 48, 150, 291, 170, 140, 147, 327, 254, 127, 342, 117, 220, 345, 192, 271, 217, 353, 266, 274
              |215, 137, 286, 142, 289, 44, 116, 362, 272, 351, 207, 295, 109, 414, 241, 383, 15, 150, 73, 240, 337, 173, 404, 153, 145, 334, 185, 58, 129, 210, 143, 150, 433, 298, 73, 372, 174, 144, 233, 236, 96, 229, 252, 290, 219, 387, 244, 320, 477, 147, 429, 80, 286, 327, 124, 373, 303, 90, 159, 414, 125, 156, 121, 359, 376, 166, 385, 60, 311, 397, 314, 393, 329, 392, 320, 296
              |170, 82, 247, 121, 229, 99, 152, 342, 220, 291, 154, 273, 159, 354, 181, 366, 55, 137, 24, 232, 315, 200, 350, 99, 135, 275, 178, 27, 112, 199, 113, 108, 373, 260, 115, 314, 125, 114, 218, 201, 53, 177, 211, 257, 196, 339, 218, 264, 417, 151, 369, 140, 229, 268, 68, 314, 246, 41, 145, 354, 133, 138, 117, 335, 316, 138, 362, 67, 265, 370, 254, 333, 274, 371, 291, 276
              |162, 238, 415, 78, 319, 153, 93, 516, 232, 370, 306, 448, 261, 451, 288, 540, 182, 309, 157, 404, 189, 340, 484, 171, 306, 336, 348, 198, 74, 61, 100, 132, 437, 197, 117, 426, 159, 289, 392, 373, 140, 332, 173, 174, 97, 493, 120, 396, 501, 315, 460, 199, 358, 329, 228, 355, 370, 213, 318, 448, 45, 312, 59, 213, 416, 312, 537, 113, 425, 544, 353, 417, 413, 546, 465, 149
              |284, 165, 267, 218, 328, 96, 176, 314, 335, 390, 219, 253, 50, 441, 277, 332, 69, 113, 136, 186, 414, 96, 411, 213, 104, 380, 134, 93, 206, 287, 218, 220, 474, 371, 135, 395, 239, 130, 185, 215, 164, 235, 324, 364, 295, 378, 320, 334, 508, 90, 459, 82, 305, 374, 153, 423, 324, 119, 120, 443, 200, 123, 198, 436, 404, 145, 339, 137, 301, 356, 347, 427, 337, 345, 284, 373
              |337, 204, 57, 367, 205, 370, 433, 175, 322, 229, 134, 141, 362, 212, 187, 201, 313, 207, 290, 200, 511, 318, 119, 278, 217, 258, 209, 270, 367, 440, 347, 319, 290, 416, 394, 162, 304, 188, 177, 105, 301, 109, 372, 433, 414, 61, 425, 102, 276, 246, 232, 390, 120, 258, 215, 304, 127, 241, 202, 219, 405, 195, 383, 523, 193, 172, 174, 347, 16, 157, 185, 231, 81, 187, 109, 483
              |92, 225, 399, 68, 260, 209, 171, 517, 155, 304, 282, 448, 315, 389, 241, 543, 218, 323, 165, 418, 128, 381, 437, 137, 323, 266, 365, 216, 80, 34, 76, 97, 364, 111, 181, 370, 111, 293, 401, 365, 138, 307, 90, 90, 12, 460, 37, 353, 432, 340, 395, 261, 315, 259, 220, 279, 324, 218, 331, 384, 104, 322, 92, 150, 355, 315, 534, 150, 399, 536, 296, 351, 372, 545, 458, 88
              |61, 134, 308, 52, 190, 172, 173, 426, 125, 244, 191, 358, 263, 323, 159, 452, 157, 239, 89, 332, 209, 313, 356, 46, 240, 213, 281, 139, 60, 116, 30, 5, 316, 147, 160, 296, 31, 205, 314, 274, 61, 216, 99, 145, 95, 372, 113, 269, 375, 261, 333, 225, 231, 206, 129, 240, 242, 134, 246, 320, 111, 237, 85, 228, 287, 227, 443, 106, 308, 444, 224, 291, 287, 454, 366, 173
              |259, 227, 215, 331, 90, 401, 438, 349, 211, 66, 171, 306, 438, 53, 125, 375, 353, 307, 298, 345, 411, 428, 106, 240, 317, 108, 331, 307, 338, 383, 309, 277, 116, 307, 410, 22, 249, 269, 319, 236, 292, 163, 278, 333, 346, 174, 346, 76, 121, 351, 71, 440, 87, 111, 240, 142, 68, 276, 307, 56, 387, 296, 361, 417, 19, 268, 349, 352, 172, 330, 55, 56, 93, 361, 281, 394
              |167, 200, 374, 69, 304, 101, 59, 469, 236, 360, 271, 400, 209, 437, 267, 492, 129, 259, 114, 353, 234, 287, 457, 150, 256, 330, 297, 150, 57, 103, 89, 117, 433, 223, 68, 406, 148, 242, 342, 330, 104, 296, 189, 205, 127, 459, 152, 369, 491, 263, 448, 150, 332, 323, 189, 356, 346, 169, 268, 434, 11, 263, 33, 258, 400, 266, 490, 63, 388, 498, 337, 407, 384, 499, 420, 193
              |305, 224, 153, 361, 143, 404, 453, 277, 270, 143, 155, 242, 421, 109, 153, 303, 350, 275, 307, 293, 470, 394, 45, 267, 285, 181, 290, 303, 365, 424, 339, 308, 190, 368, 419, 61, 285, 243, 268, 186, 309, 136, 332, 390, 391, 95, 395, 43, 173, 318, 129, 434, 81, 182, 238, 220, 69, 272, 273, 117, 411, 263, 385, 478, 95, 236, 275, 365, 105, 253, 111, 133, 35, 287, 212, 448
              |52, 224, 379, 127, 199, 271, 251, 510, 76, 231, 261, 443, 368, 317, 196, 537, 263, 339, 196, 428, 130, 419, 382, 132, 341, 189, 380, 245, 141, 122, 117, 111, 281, 41, 251, 307, 99, 301, 408, 355, 167, 283, 10, 51, 79, 419, 67, 304, 353, 365, 321, 325, 270, 183, 223, 194, 273, 236, 345, 311, 182, 335, 162, 142, 287, 321, 523, 206, 368, 520, 234, 276, 326, 535, 445, 109
              |268, 215, 357, 178, 364, 38, 83, 418, 332, 425, 284, 355, 98, 490, 316, 436, 89, 211, 144, 291, 356, 189, 482, 219, 203, 405, 238, 136, 163, 225, 188, 205, 506, 339, 55, 450, 233, 215, 288, 306, 160, 306, 299, 324, 247, 462, 273, 398, 553, 194, 505, 31, 364, 398, 202, 440, 381, 167, 219, 490, 133, 219, 145, 380, 452, 235, 442, 102, 385, 458, 390, 468, 406, 449, 384, 316
              |179, 227, 292, 269, 70, 374, 391, 432, 116, 46, 204, 378, 437, 129, 119, 460, 338, 336, 270, 398, 308, 450, 218, 195, 344, 9, 369, 297, 279, 304, 248, 219, 97, 205, 373, 134, 189, 293, 372, 295, 253, 210, 185, 233, 263, 280, 257, 165, 162, 377, 130, 421, 149, 15, 237, 40, 139, 270, 339, 122, 330, 327, 304, 311, 105, 301, 436, 315, 259, 422, 81, 86, 188, 449, 362, 297
              |424, 252, 162, 401, 366, 321, 401, 98, 443, 412, 235, 75, 251, 419, 323, 108, 274, 144, 303, 49, 589, 166, 334, 345, 146, 427, 104, 255, 393, 479, 390, 375, 487, 516, 358, 367, 377, 175, 68, 141, 329, 226, 466, 522, 472, 261, 492, 298, 486, 141, 440, 309, 294, 424, 253, 476, 310, 248, 136, 425, 408, 144, 396, 608, 393, 155, 125, 339, 210, 152, 362, 429, 285, 126, 115, 552
              |247, 174, 314, 166, 328, 26, 106, 378, 307, 389, 242, 314, 84, 452, 279, 398, 47, 169, 110, 252, 356, 163, 439, 189, 162, 372, 198, 94, 152, 226, 172, 183, 471, 326, 64, 410, 208, 171, 248, 263, 131, 263, 283, 315, 241, 418, 267, 356, 515, 156, 467, 41, 322, 365, 161, 410, 340, 126, 177, 452, 136, 177, 139, 379, 414, 191, 402, 83, 342, 417, 352, 431, 364, 409, 342, 315
              |144, 196, 281, 232, 57, 338, 354, 421, 85, 70, 183, 364, 404, 156, 95, 449, 303, 310, 234, 378, 283, 421, 231, 158, 317, 31, 345, 264, 242, 269, 211, 182, 134, 180, 336, 150, 152, 267, 352, 278, 217, 193, 154, 206, 229, 284, 225, 166, 197, 349, 161, 386, 142, 24, 205, 67, 137, 237, 313, 150, 293, 301, 267, 288, 127, 277, 428, 278, 253, 416, 83, 116, 190, 441, 352, 269
              |246, 185, 169, 307, 84, 363, 405, 305, 210, 95, 124, 259, 393, 101, 96, 333, 312, 259, 262, 296, 410, 379, 102, 213, 268, 127, 281, 266, 312, 366, 284, 253, 162, 308, 375, 52, 228, 221, 269, 187, 259, 114, 272, 331, 332, 148, 336, 32, 170, 302, 120, 398, 38, 128, 198, 171, 19, 234, 258, 105, 359, 247, 333, 418, 69, 219, 307, 318, 129, 291, 54, 103, 55, 320, 237, 389
              |288, 165, 262, 224, 329, 104, 183, 307, 338, 390, 218, 246, 52, 440, 277, 325, 74, 108, 140, 179, 420, 89, 409, 216, 99, 381, 128, 96, 212, 293, 223, 225, 474, 376, 142, 393, 243, 127, 179, 210, 168, 233, 328, 369, 301, 374, 326, 332, 507, 83, 458, 88, 303, 375, 154, 425, 323, 120, 115, 442, 207, 118, 204, 442, 404, 141, 332, 143, 298, 350, 347, 427, 335, 338, 278, 379
              |391, 268, 115, 429, 244, 436, 498, 190, 367, 253, 197, 180, 425, 213, 237, 212, 379, 270, 355, 250, 563, 376, 99, 337, 280, 289, 268, 335, 429, 499, 408, 379, 298, 464, 460, 171, 361, 253, 229, 167, 365, 172, 423, 484, 472, 15, 481, 133, 266, 307, 231, 455, 163, 290, 280, 330, 163, 307, 264, 221, 469, 259, 446, 573, 204, 236, 180, 412, 82, 154, 216, 242, 109, 192, 140, 537
              |91, 114, 247, 153, 89, 246, 267, 381, 86, 145, 130, 316, 313, 222, 64, 408, 210, 234, 141, 313, 263, 337, 260, 67, 239, 121, 272, 172, 160, 208, 131, 99, 223, 170, 245, 196, 71, 191, 290, 227, 125, 150, 124, 185, 175, 288, 181, 176, 277, 269, 233, 293, 140, 114, 120, 159, 147, 148, 239, 220, 210, 227, 184, 276, 186, 206, 393, 187, 234, 388, 123, 192, 197, 405, 314, 237
              |175, 344, 505, 207, 319, 348, 300, 634, 192, 340, 387, 567, 454, 424, 321, 661, 357, 453, 300, 546, 24, 520, 501, 251, 454, 296, 495, 351, 220, 148, 210, 220, 371, 94, 318, 423, 218, 419, 527, 480, 271, 409, 136, 75, 130, 544, 106, 427, 447, 474, 424, 399, 394, 291, 342, 284, 396, 348, 461, 417, 240, 451, 231, 16, 398, 440, 648, 290, 495, 646, 352, 381, 450, 660, 570, 58
              |154, 325, 484, 195, 296, 338, 295, 614, 169, 317, 366, 547, 444, 401, 299, 641, 344, 436, 284, 528, 40, 506, 478, 232, 438, 273, 478, 335, 208, 143, 196, 203, 349, 71, 310, 399, 199, 401, 509, 459, 256, 387, 115, 55, 119, 521, 93, 404, 425, 459, 401, 391, 371, 268, 323, 262, 373, 331, 444, 394, 232, 434, 222, 39, 375, 422, 628, 278, 473, 625, 329, 358, 427, 639, 549, 59
              |369, 231, 280, 306, 393, 177, 252, 285, 416, 453, 269, 237, 74, 493, 341, 297, 156, 135, 221, 160, 501, 23, 445, 295, 125, 449, 128, 174, 293, 374, 305, 306, 537, 457, 214, 443, 323, 172, 171, 231, 250, 279, 409, 452, 383, 396, 408, 377, 562, 92, 512, 142, 354, 443, 222, 495, 374, 193, 137, 496, 285, 147, 285, 524, 458, 175, 312, 224, 324, 335, 407, 486, 376, 315, 276, 461
              |165, 332, 496, 190, 316, 329, 280, 623, 189, 341, 377, 555, 436, 426, 315, 650, 340, 439, 284, 533, 11, 503, 499, 239, 440, 297, 481, 335, 202, 128, 195, 206, 376, 93, 299, 422, 206, 406, 514, 469, 256, 400, 129, 68, 113, 539, 89, 423, 452, 459, 427, 380, 389, 292, 329, 289, 392, 334, 447, 419, 220, 437, 213, 28, 399, 427, 638, 272, 487, 636, 350, 383, 445, 649, 560, 38
              |293, 241, 378, 201, 391, 65, 95, 432, 358, 452, 309, 370, 99, 517, 343, 449, 114, 228, 170, 303, 375, 192, 507, 246, 220, 432, 252, 161, 187, 244, 213, 231, 533, 362, 77, 476, 259, 236, 303, 326, 186, 330, 324, 346, 269, 484, 294, 423, 579, 207, 532, 36, 389, 425, 227, 467, 407, 192, 236, 516, 153, 237, 167, 399, 479, 255, 457, 128, 407, 474, 417, 495, 431, 462, 401, 334
              |100, 165, 278, 186, 74, 294, 308, 416, 54, 113, 168, 355, 365, 197, 84, 444, 262, 283, 192, 359, 253, 389, 257, 113, 289, 78, 321, 225, 196, 225, 164, 135, 181, 151, 290, 182, 105, 241, 335, 266, 172, 184, 117, 174, 186, 300, 185, 182, 242, 320, 204, 343, 151, 71, 172, 108, 151, 201, 288, 192, 246, 276, 220, 261, 164, 254, 426, 233, 257, 417, 109, 160, 205, 438, 348, 234
              |103, 86, 228, 147, 103, 224, 252, 359, 112, 163, 110, 294, 287, 235, 64, 387, 186, 206, 119, 287, 278, 309, 260, 54, 211, 144, 245, 146, 152, 210, 124, 93, 244, 189, 227, 203, 71, 164, 264, 205, 107, 132, 141, 202, 181, 279, 191, 173, 293, 241, 247, 270, 135, 137, 92, 184, 146, 121, 211, 233, 200, 199, 174, 292, 197, 180, 372, 168, 221, 369, 134, 208, 192, 384, 294, 249
              |254, 231, 227, 328, 86, 403, 438, 362, 203, 54, 178, 318, 444, 49, 125, 388, 356, 315, 299, 355, 403, 436, 118, 239, 324, 97, 340, 311, 336, 378, 306, 275, 103, 299, 411, 34, 246, 276, 329, 246, 292, 172, 271, 325, 341, 188, 340, 88, 115, 359, 65, 443, 95, 101, 243, 129, 77, 279, 315, 50, 385, 304, 359, 407, 11, 276, 362, 353, 185, 343, 52, 44, 106, 374, 294, 387
              |466, 298, 150, 461, 375, 401, 479, 11, 472, 410, 258, 74, 341, 397, 341, 21, 349, 214, 365, 129, 639, 260, 295, 391, 219, 433, 181, 322, 455, 540, 447, 427, 475, 556, 436, 347, 423, 232, 131, 161, 388, 241, 507, 566, 526, 212, 544, 285, 459, 224, 417, 395, 293, 432, 303, 481, 305, 308, 205, 405, 477, 209, 462, 655, 378, 209, 32, 409, 187, 63, 362, 416, 266, 32, 79, 604
              |327, 156, 120, 307, 282, 243, 320, 157, 349, 334, 148, 91, 199, 356, 236, 179, 190, 55, 209, 49, 493, 141, 290, 248, 61, 343, 33, 164, 300, 386, 295, 279, 414, 420, 277, 303, 281, 79, 30, 74, 234, 145, 370, 426, 377, 236, 397, 234, 424, 76, 375, 243, 220, 339, 156, 392, 239, 153, 46, 360, 319, 50, 305, 512, 324, 59, 180, 250, 165, 195, 284, 357, 227, 188, 122, 456
              |351, 190, 197, 309, 339, 211, 291, 205, 386, 395, 207, 152, 138, 426, 289, 220, 168, 71, 213, 76, 504, 64, 367, 272, 65, 399, 45, 162, 299, 385, 302, 294, 478, 444, 248, 374, 304, 114, 86, 151, 241, 211, 393, 444, 384, 313, 407, 305, 495, 38, 445, 195, 288, 394, 185, 446, 307, 166, 69, 429, 305, 81, 298, 524, 393, 108, 231, 237, 243, 252, 347, 423, 301, 235, 190, 464
              |293, 226, 173, 354, 127, 405, 451, 301, 253, 120, 160, 264, 429, 86, 143, 327, 353, 287, 306, 311, 453, 407, 57, 260, 297, 159, 304, 306, 359, 413, 331, 300, 166, 351, 419, 37, 275, 252, 285, 203, 305, 144, 317, 374, 379, 120, 382, 45, 152, 330, 106, 438, 78, 161, 239, 196, 62, 274, 285, 93, 405, 275, 380, 461, 70, 247, 299, 363, 127, 278, 92, 108, 50, 311, 235, 434
              |138, 212, 389, 49, 291, 144, 99, 493, 208, 343, 279, 424, 253, 424, 260, 518, 166, 288, 133, 383, 189, 327, 456, 143, 286, 310, 328, 177, 47, 58, 72, 104, 412, 182, 113, 398, 131, 265, 370, 348, 114, 305, 153, 162, 84, 466, 109, 368, 474, 297, 433, 194, 330, 303, 202, 331, 342, 190, 297, 421, 34, 290, 35, 213, 388, 289, 513, 96, 398, 519, 326, 391, 385, 523, 440, 148
              |96, 202, 378, 36, 257, 175, 142, 491, 165, 305, 263, 422, 281, 388, 231, 517, 184, 293, 135, 388, 161, 347, 428, 119, 292, 270, 335, 184, 47, 44, 50, 77, 371, 139, 149, 365, 99, 265, 373, 341, 109, 288, 108, 121, 44, 445, 70, 342, 436, 308, 396, 228, 304, 263, 194, 289, 314, 190, 301, 384, 74, 293, 59, 183, 353, 288, 509, 116, 381, 513, 292, 353, 360, 519, 434, 121
              |430, 261, 122, 423, 345, 365, 442, 35, 439, 383, 225, 38, 308, 377, 309, 58, 312, 177, 327, 95, 602, 230, 281, 354, 182, 405, 145, 285, 418, 502, 409, 390, 452, 520, 399, 326, 386, 194, 95, 126, 350, 208, 471, 530, 489, 202, 507, 261, 442, 189, 398, 360, 265, 402, 266, 453, 279, 270, 168, 384, 440, 172, 425, 619, 355, 171, 60, 371, 165, 83, 335, 393, 244, 66, 57, 567
              |276, 272, 269, 357, 118, 442, 472, 401, 217, 63, 223, 360, 486, 27, 164, 427, 397, 360, 337, 400, 411, 480, 139, 272, 369, 104, 384, 352, 366, 401, 335, 304, 65, 308, 447, 65, 275, 320, 374, 291, 327, 217, 287, 336, 361, 218, 358, 131, 73, 403, 28, 483, 140, 110, 285, 119, 121, 321, 360, 19, 416, 349, 390, 414, 36, 321, 400, 389, 225, 379, 90, 17, 146, 412, 334, 400
              |465, 303, 135, 471, 356, 427, 502, 44, 463, 385, 253, 93, 377, 363, 329, 56, 372, 238, 378, 165, 640, 301, 255, 394, 245, 412, 211, 340, 467, 549, 455, 432, 444, 552, 459, 315, 424, 247, 160, 164, 398, 232, 504, 565, 532, 170, 547, 258, 422, 256, 382, 427, 272, 411, 310, 459, 282, 322, 229, 371, 494, 231, 476, 655, 347, 224, 24, 427, 162, 11, 339, 385, 237, 34, 71, 607
              |76, 99, 255, 118, 126, 209, 229, 383, 101, 183, 136, 316, 281, 259, 93, 410, 177, 218, 106, 304, 251, 313, 290, 29, 222, 158, 259, 143, 124, 179, 95, 64, 261, 167, 207, 230, 40, 178, 282, 229, 88, 160, 117, 176, 150, 310, 161, 204, 315, 249, 271, 258, 166, 151, 101, 194, 176, 123, 224, 257, 173, 213, 147, 266, 222, 196, 397, 149, 250, 395, 159, 229, 222, 409, 319, 220
              |73, 244, 404, 127, 227, 274, 245, 532, 103, 258, 285, 465, 374, 344, 222, 559, 271, 356, 207, 447, 104, 431, 410, 150, 357, 216, 398, 258, 142, 105, 122, 123, 306, 35, 251, 335, 117, 320, 427, 378, 178, 307, 36, 27, 65, 446, 46, 331, 378, 380, 347, 327, 297, 210, 242, 218, 301, 252, 363, 338, 177, 353, 160, 117, 314, 340, 547, 210, 394, 544, 262, 303, 353, 558, 468, 81
              |385, 260, 106, 421, 240, 428, 490, 185, 363, 251, 189, 172, 416, 214, 232, 207, 371, 261, 347, 241, 557, 367, 102, 330, 271, 287, 259, 327, 422, 493, 401, 372, 299, 459, 451, 171, 355, 244, 220, 158, 357, 164, 418, 479, 465, 17, 475, 129, 269, 298, 233, 446, 159, 288, 272, 328, 160, 299, 255, 222, 461, 250, 438, 568, 204, 227, 176, 404, 73, 150, 214, 242, 106, 187, 133, 532
              |273, 286, 295, 359, 126, 451, 477, 428, 211, 65, 242, 386, 501, 52, 175, 455, 409, 380, 346, 423, 399, 499, 166, 277, 388, 98, 406, 364, 368, 398, 337, 307, 37, 297, 454, 92, 277, 339, 397, 314, 334, 238, 280, 326, 357, 246, 352, 156, 68, 423, 42, 494, 162, 105, 298, 101, 144, 334, 380, 43, 419, 369, 393, 400, 61, 341, 427, 396, 252, 407, 104, 25, 173, 440, 361, 391
              |280, 309, 325, 370, 146, 470, 491, 458, 214, 84, 268, 416, 524, 79, 197, 485, 429, 406, 364, 452, 395, 525, 195, 292, 414, 107, 433, 385, 380, 403, 349, 320, 9, 295, 471, 122, 289, 365, 426, 343, 350, 266, 283, 325, 362, 275, 354, 186, 68, 449, 64, 514, 190, 114, 321, 95, 173, 356, 407, 70, 431, 395, 405, 394, 91, 368, 457, 412, 282, 437, 129, 54, 203, 470, 391, 389
              |225, 214, 375, 130, 344, 54, 26, 453, 293, 403, 287, 386, 156, 475, 301, 473, 106, 241, 130, 329, 298, 242, 481, 191, 235, 378, 274, 144, 116, 167, 145, 168, 481, 288, 19, 439, 198, 235, 323, 327, 135, 310, 252, 271, 193, 472, 218, 394, 534, 234, 488, 90, 358, 371, 201, 409, 374, 172, 250, 474, 77, 247, 93, 322, 438, 257, 476, 73, 397, 488, 374, 449, 406, 483, 411, 257
              |428, 261, 114, 425, 338, 371, 448, 31, 434, 374, 220, 38, 318, 366, 304, 58, 318, 182, 330, 106, 601, 242, 268, 354, 188, 397, 153, 288, 420, 504, 410, 390, 442, 518, 405, 315, 385, 197, 102, 124, 352, 203, 469, 528, 490, 189, 507, 251, 430, 198, 386, 369, 257, 395, 266, 445, 270, 273, 174, 373, 443, 177, 427, 618, 345, 173, 52, 375, 154, 71, 326, 383, 233, 60, 45, 567
              |166, 39, 210, 142, 193, 141, 194, 314, 204, 255, 111, 245, 186, 314, 143, 339, 91, 122, 51, 215, 326, 210, 307, 87, 124, 243, 164, 46, 137, 221, 128, 112, 338, 259, 157, 272, 119, 88, 197, 167, 69, 135, 208, 261, 210, 297, 229, 221, 378, 148, 330, 178, 186, 237, 25, 285, 203, 20, 129, 314, 167, 120, 147, 345, 276, 111, 333, 107, 224, 338, 216, 295, 231, 343, 259, 289|];

Incompatibilities = 4459;
IncompatiblePairs = [| 1, 2 | 1, 3 | 1, 11 | 1, 12 | 1, 15 | 1, 18 | 1, 20 | 1, 25 | 1, 27 | 1, 38 | 1, 40 | 1, 48 | 1, 53 | 1, 55 | 1, 66 | 1, 73 | 1, 75 | 1, 82 | 1, 86 | 1, 90 | 1, 100 | 1, 103 | 1, 110 | 1, 114 | 1, 122 | 1, 132 | 1, 140 | 1, 141 | 1, 147 | 1, 159 | 1, 160 | 1, 163 | 1, 166 | 1, 168 | 1, 169 | 1, 170 | 1, 172 | 1, 177 | 1, 180 | 1, 186 | 1, 191 | 1, 206 | 1, 218 | 1, 225 | 2, 26 | 2, 34 | 2, 37 | 2, 43 | 2, 44 | 2, 45 | 2, 47 | 2, 54 | 2, 56 | 2, 64 | 2, 76 | 2, 80 | 2, 88 | 2, 89 | 2, 96 | 2, 106 | 2, 113 | 2, 123 | 2, 125 | 2, 143 | 2, 148 | 2, 156 | 2, 176 | 2, 183 | 2, 202 | 2, 208 | 2, 219 | 2, 221 | 2, 224 | 3, 5 | 3, 10 | 3, 15 | 3, 26 | 3, 33 | 3, 36 | 3, 49 | 3, 51 | 3, 53 | 3, 54 | 3, 57 | 3, 71 | 3, 73 | 3, 81 | 3, 99 | 3, 118 | 3, 119 | 3, 128 | 3, 131 | 3, 133 | 3, 135 | 3, 144 | 3, 152 | 3, 173 | 3, 180 | 3, 185 | 3, 192 | 3, 193 | 3, 194 | 3, 203 | 3, 209 | 3, 212 | 3, 214 | 3, 215 | 3, 226 | 4, 8 | 4, 11 | 4, 12 | 4, 20 | 4, 23 | 4, 38 | 4, 42 | 4, 46 | 4, 48 | 4, 57 | 4, 62 | 4, 66 | 4, 69 | 4, 70 | 4, 75 | 4, 79 | 4, 82 | 4, 97 | 4, 100 | 4, 102 | 4, 103 | 4, 104 | 4, 114 | 4, 115 | 4, 119 | 4, 122 | 4, 126 | 4, 129 | 4, 136 | 4, 138 | 4, 168 | 4, 169 | 4, 170 | 4, 178 | 4, 180 | 4, 186 | 4, 190 | 4, 191 | 4, 195 | 4, 200 | 4, 211 | 4, 212 | 4, 213 | 5, 6 | 5, 13 | 5, 52 | 5, 85 | 5, 94 | 5, 107 | 5, 117 | 5, 120 | 5, 145 | 5, 146 | 5, 154 | 5, 167 | 5, 179 | 5, 207 | 5, 222 | 6, 11 | 6, 24 | 6, 25 | 6, 28 | 6, 29 | 6, 31 | 6, 32 | 6, 37 | 6, 41 | 6, 52 | 6, 58 | 6, 59 | 6, 61 | 6, 62 | 6, 63 | 6, 68 | 6, 84 | 6, 91 | 6, 94 | 6, 96 | 6, 109 | 6, 111 | 6, 123 | 6, 126 | 6, 127 | 6, 130 | 6, 132 | 6, 134 | 6, 142 | 6, 145 | 6, 146 | 6, 147 | 6, 149 | 6, 151 | 6, 158 | 6, 159 | 6, 175 | 6, 178 | 6, 181 | 6, 187 | 6, 189 | 6, 196 | 6, 201 | 6, 210 | 6, 218 | 6, 221 | 6, 223 | 6, 227 | 7, 13 | 7, 19 | 7, 28 | 7, 29 | 7, 35 | 7, 41 | 7, 52 | 7, 61 | 7, 63 | 7, 68 | 7, 83 | 7, 84 | 7, 94 | 7, 117 | 7, 124 | 7, 127 | 7, 142 | 7, 145 | 7, 149 | 7, 151 | 7, 154 | 7, 158 | 7, 167 | 7, 175 | 7, 181 | 7, 184 | 7, 196 | 7, 207 | 8, 16 | 8, 25 | 8, 27 | 8, 38 | 8, 39 | 8, 40 | 8, 42 | 8, 46 | 8, 53 | 8, 59 | 8, 62 | 8, 66 | 8, 69 | 8, 70 | 8, 73 | 8, 74 | 8, 79 | 8, 82 | 8, 86 | 8, 90 | 8, 97 | 8, 103 | 8, 110 | 8, 114 | 8, 115 | 8, 119 | 8, 122 | 8, 126 | 8, 129 | 8, 136 | 8, 138 | 8, 139 | 8, 159 | 8, 163 | 8, 164 | 8, 169 | 8, 171 | 8, 172 | 8, 177 | 8, 178 | 8, 180 | 8, 186 | 8, 191 | 8, 195 | 8, 200 | 8, 206 | 8, 211 | 8, 212 | 8, 213 | 9, 26 | 9, 34 | 9, 37 | 9, 43 | 9, 44 | 9, 47 | 9, 54 | 9, 56 | 9, 80 | 9, 88 | 9, 89 | 9, 106 | 9, 113 | 9, 123 | 9, 125 | 9, 143 | 9, 148 | 9, 156 | 9, 176 | 9, 183 | 9, 188 | 9, 202 | 9, 208 | 9, 216 | 9, 219 | 9, 224 | 10, 21 | 10, 24 | 10, 26 | 10, 31 | 10, 32 | 10, 34 | 10, 37 | 10, 43 | 10, 44 | 10, 56 | 10, 76 | 10, 80 | 10, 87 | 10, 88 | 10, 89 | 10, 91 | 10, 93 | 10, 96 | 10, 101 | 10, 106 | 10, 113 | 10, 121 | 10, 123 | 10, 125 | 10, 130 | 10, 137 | 10, 143 | 10, 147 | 10, 153 | 10, 156 | 10, 176 | 10, 182 | 10, 187 | 10, 188 | 10, 192 | 10, 197 | 10, 198 | 10, 202 | 10, 203 | 10, 204 | 10, 208 | 10, 217 | 10, 220 | 10, 221 | 10, 227 | 11, 24 | 11, 29 | 11, 32 | 11, 41 | 11, 43 | 11, 44 | 11, 45 | 11, 47 | 11, 61 | 11, 63 | 11, 76 | 11, 77 | 11, 87 | 11, 89 | 11, 91 | 11, 101 | 11, 105 | 11, 112 | 11, 113 | 11, 116 | 11, 121 | 11, 125 | 11, 130 | 11, 137 | 11, 148 | 11, 151 | 11, 153 | 11, 156 | 11, 157 | 11, 175 | 11, 176 | 11, 182 | 11, 183 | 11, 187 | 11, 196 | 11, 202 | 11, 219 | 11, 220 | 11, 221 | 11, 223 | 11, 224 | 11, 227 | 12, 16 | 12, 18 | 12, 38 | 12, 39 | 12, 40 | 12, 42 | 12, 46 | 12, 53 | 12, 59 | 12, 62 | 12, 66 | 12, 70 | 12, 73 | 12, 74 | 12, 79 | 12, 90 | 12, 100 | 12, 103 | 12, 110 | 12, 114 | 12, 115 | 12, 119 | 12, 122 | 12, 126 | 12, 129 | 12, 136 | 12, 138 | 12, 139 | 12, 141 | 12, 159 | 12, 163 | 12, 164 | 12, 169 | 12, 171 | 12, 172 | 12, 177 | 12, 178 | 12, 180 | 12, 186 | 12, 190 | 12, 191 | 12, 195 | 12, 200 | 12, 206 | 12, 212 | 13, 15 | 13, 24 | 13, 26 | 13, 29 | 13, 32 | 13, 43 | 13, 45 | 13, 47 | 13, 54 | 13, 58 | 13, 63 | 13, 68 | 13, 71 | 13, 87 | 13, 89 | 13, 91 | 13, 92 | 13, 101 | 13, 103 | 13, 109 | 13, 111 | 13, 112 | 13, 113 | 13, 115 | 13, 116 | 13, 121 | 13, 125 | 13, 127 | 13, 128 | 13, 130 | 13, 137 | 13, 143 | 13, 147 | 13, 148 | 13, 149 | 13, 153 | 13, 156 | 13, 157 | 13, 175 | 13, 176 | 13, 178 | 13, 183 | 13, 187 | 13, 192 | 13, 195 | 13, 198 | 13, 202 | 13, 203 | 13, 205 | 13, 219 | 13, 220 | 13, 223 | 13, 224 | 13, 227 | 14, 17 | 14, 18 | 14, 24 | 14, 25 | 14, 27 | 14, 29 | 14, 32 | 14, 35 | 14, 38 | 14, 41 | 14, 50 | 14, 55 | 14, 58 | 14, 59 | 14, 61 | 14, 62 | 14, 63 | 14, 66 | 14, 68 | 14, 85 | 14, 91 | 14, 92 | 14, 95 | 14, 97 | 14, 100 | 14, 107 | 14, 109 | 14, 111 | 14, 112 | 14, 115 | 14, 120 | 14, 126 | 14, 127 | 14, 130 | 14, 132 | 14, 140 | 14, 142 | 14, 145 | 14, 146 | 14, 149 | 14, 151 | 14, 159 | 14, 161 | 14, 163 | 14, 167 | 14, 175 | 14, 178 | 14, 189 | 14, 196 | 14, 205 | 14, 222 | 14, 223 | 14, 225 | 15, 24 | 15, 29 | 15, 30 | 15, 31 | 15, 34 | 15, 37 | 15, 43 | 15, 44 | 15, 45 | 15, 47 | 15, 63 | 15, 64 | 15, 68 | 15, 76 | 15, 88 | 15, 89 | 15, 112 | 15, 116 | 15, 125 | 15, 143 | 15, 158 | 15, 175 | 15, 183 | 15, 202 | 15, 204 | 15, 205 | 15, 210 | 15, 217 | 15, 219 | 15, 221 | 16, 17 | 16, 18 | 16, 19 | 16, 22 | 16, 25 | 16, 28 | 16, 38 | 16, 41 | 16, 52 | 16, 55 | 16, 83 | 16, 84 | 16, 85 | 16, 94 | 16, 107 | 16, 109 | 16, 120 | 16, 124 | 16, 132 | 16, 140 | 16, 142 | 16, 149 | 16, 159 | 16, 160 | 16, 179 | 16, 181 | 16, 184 | 16, 189 | 16, 210 | 16, 222 | 16, 225 | 17, 20 | 17, 25 | 17, 27 | 17, 28 | 17, 39 | 17, 40 | 17, 50 | 17, 52 | 17, 58 | 17, 59 | 17, 94 | 17, 95 | 17, 97 | 17, 98 | 17, 109 | 17, 126 | 17, 127 | 17, 132 | 17, 134 | 17, 136 | 17, 139 | 17, 149 | 17, 159 | 17, 160 | 17, 163 | 17, 166 | 17, 167 | 17, 168 | 17, 199 | 17, 201 | 17, 211 | 18, 19 | 18, 24 | 18, 26 | 18, 31 | 18, 32 | 18, 41 | 18, 43 | 18, 56 | 18, 57 | 18, 58 | 18, 71 | 18, 80 | 18, 87 | 18, 88 | 18, 89 | 18, 91 | 18, 96 | 18, 106 | 18, 111 | 18, 113 | 18, 123 | 18, 125 | 18, 128 | 18, 130 | 18, 131 | 18, 143 | 18, 144 | 18, 147 | 18, 156 | 18, 157 | 18, 158 | 18, 175 | 18, 176 | 18, 178 | 18, 187 | 18, 188 | 18, 192 | 18, 195 | 18, 198 | 18, 203 | 18, 208 | 18, 215 | 18, 216 | 18, 217 | 18, 218 | 18, 220 | 18, 223 | 18, 227 | 19, 22 | 19, 25 | 19, 27 | 19, 38 | 19, 39 | 19, 40 | 19, 42 | 19, 50 | 19, 55 | 19, 58 | 19, 59 | 19, 62 | 19, 66 | 19, 79 | 19, 82 | 19, 86 | 19, 90 | 19, 92 | 19, 95 | 19, 97 | 19, 100 | 19, 110 | 19, 114 | 19, 115 | 19, 126 | 19, 132 | 19, 136 | 19, 138 | 19, 139 | 19, 141 | 19, 149 | 19, 155 | 19, 160 | 19, 164 | 19, 169 | 19, 172 | 19, 177 | 19, 178 | 19, 190 | 19, 191 | 19, 199 | 19, 200 | 19, 201 | 19, 206 | 19, 211 | 19, 213 | 19, 225 | 20, 22 | 20, 25 | 20, 38 | 20, 50 | 20, 59 | 20, 62 | 20, 66 | 20, 95 | 20, 97 | 20, 107 | 20, 110 | 20, 120 | 20, 126 | 20, 136 | 20, 140 | 20, 155 | 20, 160 | 20, 163 | 20, 164 | 20, 167 | 20, 179 | 20, 189 | 20, 191 | 20, 199 | 20, 211 | 20, 225 | 21, 33 | 21, 36 | 21, 49 | 21, 51 | 21, 57 | 21, 71 | 21, 72 | 21, 73 | 21, 81 | 21, 99 | 21, 108 | 21, 118 | 21, 131 | 21, 133 | 21, 135 | 21, 162 | 21, 173 | 21, 194 | 21, 209 | 21, 212 | 21, 214 | 21, 215 | 21, 226 | 22, 25 | 22, 28 | 22, 39 | 22, 41 | 22, 42 | 22, 48 | 22, 57 | 22, 58 | 22, 62 | 22, 69 | 22, 73 | 22, 79 | 22, 84 | 22, 86 | 22, 90 | 22, 91 | 22, 95 | 22, 96 | 22, 97 | 22, 109 | 22, 111 | 22, 119 | 22, 123 | 22, 126 | 22, 127 | 22, 130 | 22, 132 | 22, 134 | 22, 136 | 22, 138 | 22, 139 | 22, 141 | 22, 147 | 22, 149 | 22, 160 | 22, 168 | 22, 170 | 22, 172 | 22, 181 | 22, 187 | 22, 195 | 22, 201 | 22, 203 | 22, 211 | 22, 217 | 22, 218 | 22, 223 | 23, 24 | 23, 32 | 23, 43 | 23, 45 | 23, 47 | 23, 61 | 23, 77 | 23, 89 | 23, 91 | 23, 93 | 23, 113 | 23, 116 | 23, 121 | 23, 137 | 23, 143 | 23, 148 | 23, 151 | 23, 153 | 23, 156 | 23, 157 | 23, 165 | 23, 182 | 23, 183 | 23, 196 | 23, 197 | 23, 198 | 23, 202 | 23, 205 | 23, 221 | 23, 227 | 24, 40 | 24, 67 | 24, 70 | 24, 74 | 24, 86 | 24, 90 | 24, 102 | 24, 110 | 24, 114 | 24, 164 | 24, 168 | 24, 169 | 24, 170 | 24, 172 | 24, 177 | 24, 186 | 24, 206 | 25, 26 | 25, 36 | 25, 38 | 25, 42 | 25, 48 | 25, 53 | 25, 54 | 25, 55 | 25, 57 | 25, 58 | 25, 65 | 25, 66 | 25, 79 | 25, 82 | 25, 96 | 25, 100 | 25, 103 | 25, 104 | 25, 111 | 25, 115 | 25, 118 | 25, 119 | 25, 122 | 25, 123 | 25, 126 | 25, 128 | 25, 129 | 25, 136 | 25, 138 | 25, 169 | 25, 170 | 25, 173 | 25, 176 | 25, 178 | 25, 180 | 25, 188 | 25, 193 | 25, 194 | 25, 201 | 25, 203 | 25, 209 | 25, 212 | 25, 218 | 26, 36 | 26, 40 | 26, 48 | 26, 53 | 26, 73 | 26, 81 | 26, 82 | 26, 86 | 26, 90 | 26, 102 | 26, 103 | 26, 104 | 26, 108 | 26, 114 | 26, 141 | 26, 144 | 26, 169 | 26, 170 | 26, 172 | 26, 177 | 26, 180 | 26, 186 | 26, 194 | 26, 206 | 26, 212 | 27, 30 | 27, 43 | 27, 44 | 27, 45 | 27, 47 | 27, 64 | 27, 76 | 27, 80 | 27, 88 | 27, 89 | 27, 125 | 27, 143 | 27, 156 | 27, 183 | 27, 202 | 27, 219 | 27, 221 | 27, 224 | 28, 33 | 28, 54 | 28, 71 | 28, 72 | 28, 87 | 28, 113 | 28, 125 | 28, 131 | 28, 135 | 28, 148 | 28, 152 | 28, 153 | 28, 156 | 28, 176 | 28, 185 | 28, 192 | 28, 193 | 28, 203 | 28, 209 | 28, 215 | 28, 220 | 28, 224 | 29, 35 | 29, 52 | 29, 83 | 29, 85 | 29, 92 | 29, 94 | 29, 98 | 29, 107 | 29, 109 | 29, 120 | 29, 124 | 29, 134 | 29, 140 | 29, 142 | 29, 149 | 29, 160 | 29, 179 | 29, 181 | 29, 184 | 29, 222 | 29, 225 | 30, 33 | 30, 36 | 30, 46 | 30, 49 | 30, 51 | 30, 53 | 30, 57 | 30, 71 | 30, 72 | 30, 73 | 30, 81 | 30, 99 | 30, 108 | 30, 118 | 30, 119 | 30, 131 | 30, 133 | 30, 135 | 30, 162 | 30, 173 | 30, 180 | 30, 194 | 30, 209 | 30, 212 | 30, 214 | 30, 215 | 30, 226 | 31, 32 | 31, 35 | 31, 38 | 31, 41 | 31, 50 | 31, 55 | 31, 58 | 31, 59 | 31, 61 | 31, 62 | 31, 63 | 31, 66 | 31, 68 | 31, 85 | 31, 91 | 31, 92 | 31, 95 | 31, 97 | 31, 100 | 31, 107 | 31, 112 | 31, 115 | 31, 126 | 31, 130 | 31, 132 | 31, 136 | 31, 140 | 31, 142 | 31, 145 | 31, 146 | 31, 149 | 31, 159 | 31, 160 | 31, 161 | 31, 163 | 31, 167 | 31, 178 | 31, 187 | 31, 191 | 31, 196 | 31, 201 | 31, 205 | 31, 222 | 31, 223 | 32, 38 | 32, 39 | 32, 50 | 32, 59 | 32, 62 | 32, 66 | 32, 67 | 32, 75 | 32, 79 | 32, 82 | 32, 95 | 32, 97 | 32, 114 | 32, 126 | 32, 136 | 32, 139 | 32, 155 | 32, 164 | 32, 166 | 32, 168 | 32, 169 | 32, 170 | 32, 190 | 32, 191 | 32, 199 | 32, 200 | 32, 211 | 32, 213 | 32, 225 | 33, 37 | 33, 38 | 33, 41 | 33, 53 | 33, 55 | 33, 66 | 33, 84 | 33, 91 | 33, 92 | 33, 96 | 33, 100 | 33, 103 | 33, 109 | 33, 112 | 33, 115 | 33, 122 | 33, 123 | 33, 130 | 33, 132 | 33, 134 | 33, 140 | 33, 141 | 33, 142 | 33, 147 | 33, 148 | 33, 149 | 33, 158 | 33, 161 | 33, 163 | 33, 180 | 33, 181 | 33, 183 | 33, 188 | 33, 205 | 33, 210 | 33, 217 | 33, 218 | 33, 220 | 33, 223 | 33, 225 | 34, 35 | 34, 41 | 34, 43 | 34, 44 | 34, 45 | 34, 47 | 34, 55 | 34, 58 | 34, 61 | 34, 68 | 34, 89 | 34, 91 | 34, 92 | 34, 93 | 34, 101 | 34, 109 | 34, 111 | 34, 112 | 34, 113 | 34, 115 | 34, 116 | 34, 121 | 34, 125 | 34, 127 | 34, 130 | 34, 132 | 34, 137 | 34, 142 | 34, 143 | 34, 146 | 34, 147 | 34, 148 | 34, 149 | 34, 151 | 34, 157 | 34, 161 | 34, 165 | 34, 183 | 34, 187 | 34, 196 | 34, 198 | 34, 201 | 34, 202 | 34, 203 | 34, 205 | 34, 219 | 34, 220 | 34, 221 | 34, 223 | 34, 227 | 35, 43 | 35, 44 | 35, 45 | 35, 47 | 35, 54 | 35, 56 | 35, 80 | 35, 88 | 35, 89 | 35, 96 | 35, 106 | 35, 111 | 35, 112 | 35, 113 | 35, 123 | 35, 125 | 35, 128 | 35, 148 | 35, 156 | 35, 158 | 35, 175 | 35, 176 | 35, 183 | 35, 187 | 35, 188 | 35, 193 | 35, 202 | 35, 203 | 35, 205 | 35, 208 | 35, 216 | 35, 217 | 35, 218 | 35, 219 | 35, 221 | 35, 224 | 36, 40 | 36, 42 | 36, 46 | 36, 59 | 36, 62 | 36, 67 | 36, 69 | 36, 73 | 36, 74 | 36, 75 | 36, 86 | 36, 90 | 36, 97 | 36, 104 | 36, 110 | 36, 119 | 36, 129 | 36, 136 | 36, 139 | 36, 159 | 36, 163 | 36, 166 | 36, 168 | 36, 170 | 36, 171 | 36, 172 | 36, 177 | 36, 178 | 36, 195 | 36, 200 | 36, 206 | 36, 211 | 36, 213 | 37, 38 | 37, 39 | 37, 40 | 37, 41 | 37, 42 | 37, 50 | 37, 53 | 37, 55 | 37, 58 | 37, 59 | 37, 66 | 37, 69 | 37, 79 | 37, 82 | 37, 86 | 37, 90 | 37, 91 | 37, 92 | 37, 95 | 37, 97 | 37, 100 | 37, 103 | 37, 109 | 37, 111 | 37, 112 | 37, 114 | 37, 115 | 37, 126 | 37, 127 | 37, 130 | 37, 132 | 37, 136 | 37, 138 | 37, 141 | 37, 147 | 37, 149 | 37, 159 | 37, 160 | 37, 161 | 37, 163 | 37, 169 | 37, 172 | 37, 178 | 37, 180 | 37, 187 | 37, 191 | 37, 195 | 37, 200 | 37, 201 | 37, 203 | 37, 211 | 37, 223 | 37, 225 | 38, 41 | 38, 43 | 38, 44 | 38, 61 | 38, 63 | 38, 68 | 38, 76 | 38, 84 | 38, 89 | 38, 91 | 38, 93 | 38, 101 | 38, 125 | 38, 127 | 38, 142 | 38, 143 | 38, 151 | 38, 158 | 38, 165 | 38, 187 | 38, 198 | 38, 202 | 38, 204 | 38, 210 | 38, 217 | 38, 221 | 38, 223 | 38, 227 | 39, 83 | 39, 85 | 39, 94 | 39, 107 | 39, 120 | 39, 124 | 39, 134 | 39, 142 | 39, 149 | 39, 160 | 39, 161 | 39, 179 | 39, 181 | 39, 184 | 39, 189 | 39, 222 | 40, 46 | 40, 48 | 40, 51 | 40, 53 | 40, 57 | 40, 60 | 40, 65 | 40, 69 | 40, 81 | 40, 103 | 40, 104 | 40, 118 | 40, 119 | 40, 129 | 40, 133 | 40, 138 | 40, 150 | 40, 162 | 40, 174 | 40, 180 | 40, 194 | 40, 212 | 41, 46 | 41, 48 | 41, 53 | 41, 55 | 41, 57 | 41, 60 | 41, 65 | 41, 66 | 41, 69 | 41, 79 | 41, 81 | 41, 82 | 41, 100 | 41, 103 | 41, 104 | 41, 111 | 41, 114 | 41, 115 | 41, 118 | 41, 119 | 41, 122 | 41, 123 | 41, 126 | 41, 128 | 41, 129 | 41, 136 | 41, 138 | 41, 150 | 41, 169 | 41, 173 | 41, 178 | 41, 186 | 41, 188 | 41, 194 | 41, 195 | 41, 203 | 41, 209 | 41, 212 | 41, 218 | 42, 83 | 42, 92 | 42, 94 | 42, 98 | 42, 107 | 42, 109 | 42, 120 | 42, 124 | 42, 132 | 42, 134 | 42, 140 | 42, 142 | 42, 149 | 42, 155 | 42, 159 | 42, 160 | 42, 161 | 42, 179 | 42, 181 | 42, 184 | 42, 189 | 42, 210 | 42, 225 | 43, 45 | 43, 47 | 43, 61 | 43, 64 | 43, 77 | 43, 80 | 43, 87 | 43, 88 | 43, 91 | 43, 93 | 43, 101 | 43, 105 | 43, 112 | 43, 116 | 43, 121 | 43, 137 | 43, 151 | 43, 157 | 43, 158 | 43, 165 | 43, 182 | 43, 183 | 43, 196 | 43, 197 | 43, 198 | 43, 205 | 43, 217 | 43, 219 | 43, 220 | 43, 224 | 43, 227 | 44, 48 | 44, 53 | 44, 54 | 44, 55 | 44, 66 | 44, 71 | 44, 73 | 44, 82 | 44, 86 | 44, 90 | 44, 96 | 44, 100 | 44, 103 | 44, 109 | 44, 115 | 44, 122 | 44, 123 | 44, 130 | 44, 132 | 44, 141 | 44, 144 | 44, 147 | 44, 159 | 44, 163 | 44, 169 | 44, 172 | 44, 180 | 44, 188 | 44, 192 | 44, 212 | 44, 215 | 44, 217 | 44, 218 | 44, 220 | 44, 223 | 45, 56 | 45, 57 | 45, 58 | 45, 71 | 45, 80 | 45, 84 | 45, 87 | 45, 88 | 45, 89 | 45, 91 | 45, 96 | 45, 106 | 45, 113 | 45, 123 | 45, 125 | 45, 128 | 45, 130 | 45, 131 | 45, 138 | 45, 141 | 45, 144 | 45, 147 | 45, 153 | 45, 156 | 45, 158 | 45, 173 | 45, 175 | 45, 176 | 45, 178 | 45, 187 | 45, 188 | 45, 192 | 45, 195 | 45, 198 | 45, 201 | 45, 203 | 45, 208 | 45, 209 | 45, 215 | 45, 216 | 45, 217 | 45, 220 | 45, 221 | 45, 223 | 45, 227 | 46, 52 | 46, 83 | 46, 94 | 46, 107 | 46, 120 | 46, 124 | 46, 142 | 46, 161 | 46, 179 | 46, 181 | 46, 184 | 46, 210 | 46, 222 | 47, 64 | 47, 76 | 47, 77 | 47, 80 | 47, 87 | 47, 88 | 47, 89 | 47, 91 | 47, 96 | 47, 101 | 47, 105 | 47, 106 | 47, 113 | 47, 121 | 47, 125 | 47, 130 | 47, 137 | 47, 143 | 47, 153 | 47, 157 | 47, 158 | 47, 165 | 47, 176 | 47, 182 | 47, 197 | 47, 198 | 47, 202 | 47, 204 | 47, 208 | 47, 220 | 47, 221 | 47, 227 | 48, 50 | 48, 55 | 48, 58 | 48, 59 | 48, 62 | 48, 69 | 48, 79 | 48, 82 | 48, 86 | 48, 90 | 48, 92 | 48, 95 | 48, 97 | 48, 103 | 48, 109 | 48, 110 | 48, 111 | 48, 114 | 48, 119 | 48, 120 | 48, 122 | 48, 126 | 48, 127 | 48, 132 | 48, 136 | 48, 138 | 48, 139 | 48, 140 | 48, 141 | 48, 149 | 48, 155 | 48, 160 | 48, 161 | 48, 163 | 48, 169 | 48, 172 | 48, 177 | 48, 178 | 48, 189 | 48, 195 | 48, 199 | 48, 200 | 48, 201 | 48, 211 | 48, 223 | 48, 225 | 49, 50 | 49, 52 | 49, 55 | 49, 58 | 49, 59 | 49, 62 | 49, 63 | 49, 66 | 49, 68 | 49, 84 | 49, 85 | 49, 92 | 49, 94 | 49, 95 | 49, 100 | 49, 107 | 49, 111 | 49, 112 | 49, 115 | 49, 116 | 49, 122 | 49, 126 | 49, 127 | 49, 134 | 49, 140 | 49, 145 | 49, 146 | 49, 158 | 49, 161 | 49, 175 | 49, 178 | 49, 181 | 49, 187 | 49, 201 | 49, 205 | 49, 210 | 49, 217 | 49, 218 | 49, 219 | 49, 222 | 49, 225 | 50, 53 | 50, 54 | 50, 55 | 50, 56 | 50, 60 | 50, 65 | 50, 71 | 50, 72 | 50, 73 | 50, 81 | 50, 96 | 50, 100 | 50, 115 | 50, 122 | 50, 123 | 50, 130 | 50, 131 | 50, 135 | 50, 141 | 50, 144 | 50, 147 | 50, 148 | 50, 150 | 50, 157 | 50, 180 | 50, 188 | 50, 192 | 50, 193 | 50, 212 | 50, 215 | 50, 216 | 50, 217 | 50, 218 | 50, 220 | 50, 223 | 51, 57 | 51, 73 | 51, 75 | 51, 79 | 51, 86 | 51, 90 | 51, 102 | 51, 104 | 51, 118 | 51, 129 | 51, 136 | 51, 138 | 51, 141 | 51, 170 | 51, 172 | 51, 177 | 51, 190 | 51, 195 | 51, 200 | 51, 206 | 51, 211 | 51, 213 | 52, 53 | 52, 54 | 52, 55 | 52, 57 | 52, 58 | 52, 63 | 52, 68 | 52, 71 | 52, 89 | 52, 91 | 52, 100 | 52, 109 | 52, 111 | 52, 112 | 52, 115 | 52, 122 | 52, 125 | 52, 128 | 52, 130 | 52, 132 | 52, 138 | 52, 141 | 52, 147 | 52, 148 | 52, 149 | 52, 151 | 52, 153 | 52, 156 | 52, 157 | 52, 175 | 52, 176 | 52, 178 | 52, 183 | 52, 187 | 52, 193 | 52, 195 | 52, 201 | 52, 202 | 52, 203 | 52, 205 | 52, 209 | 52, 220 | 52, 223 | 52, 224 | 52, 227 | 53, 56 | 53, 57 | 53, 60 | 53, 65 | 53, 71 | 53, 72 | 53, 96 | 53, 106 | 53, 108 | 53, 113 | 53, 118 | 53, 119 | 53, 123 | 53, 128 | 53, 130 | 53, 131 | 53, 133 | 53, 135 | 53, 138 | 53, 144 | 53, 147 | 53, 150 | 53, 152 | 53, 173 | 53, 176 | 53, 178 | 53, 185 | 53, 188 | 53, 192 | 53, 195 | 53, 208 | 53, 209 | 53, 214 | 53, 215 | 53, 216 | 53, 220 | 53, 226 | 54, 58 | 54, 59 | 54, 62 | 54, 84 | 54, 91 | 54, 94 | 54, 97 | 54, 109 | 54, 126 | 54, 127 | 54, 130 | 54, 132 | 54, 134 | 54, 136 | 54, 138 | 54, 139 | 54, 141 | 54, 142 | 54, 147 | 54, 149 | 54, 158 | 54, 160 | 54, 163 | 54, 168 | 54, 175 | 54, 178 | 54, 181 | 54, 187 | 54, 189 | 54, 195 | 54, 201 | 54, 210 | 54, 211 | 54, 217 | 54, 218 | 54, 223 | 55, 57 | 55, 60 | 55, 65 | 55, 71 | 55, 72 | 55, 73 | 55, 108 | 55, 118 | 55, 133 | 55, 135 | 55, 144 | 55, 150 | 55, 152 | 55, 174 | 55, 185 | 55, 192 | 55, 209 | 55, 215 | 55, 216 | 56, 58 | 56, 59 | 56, 62 | 56, 66 | 56, 92 | 56, 95 | 56, 100 | 56, 107 | 56, 109 | 56, 111 | 56, 115 | 56, 120 | 56, 126 | 56, 127 | 56, 132 | 56, 136 | 56, 140 | 56, 142 | 56, 145 | 56, 146 | 56, 149 | 56, 155 | 56, 159 | 56, 160 | 56, 161 | 56, 163 | 56, 167 | 56, 179 | 56, 184 | 56, 189 | 56, 191 | 56, 199 | 56, 201 | 56, 205 | 56, 207 | 56, 211 | 56, 222 | 56, 223 | 56, 225 | 57, 60 | 57, 65 | 57, 71 | 57, 72 | 57, 81 | 57, 99 | 57, 106 | 57, 108 | 57, 131 | 57, 135 | 57, 144 | 57, 150 | 57, 152 | 57, 162 | 57, 174 | 57, 185 | 57, 188 | 57, 192 | 57, 193 | 57, 194 | 57, 208 | 57, 214 | 57, 215 | 57, 216 | 58, 66 | 58, 82 | 58, 86 | 58, 90 | 58, 98 | 58, 100 | 58, 102 | 58, 103 | 58, 104 | 58, 109 | 58, 110 | 58, 114 | 58, 115 | 58, 122 | 58, 132 | 58, 134 | 58, 141 | 58, 155 | 58, 159 | 58, 160 | 58, 163 | 58, 164 | 58, 166 | 58, 168 | 58, 169 | 58, 170 | 58, 172 | 58, 177 | 58, 180 | 58, 186 | 58, 191 | 58, 206 | 58, 218 | 59, 61 | 59, 64 | 59, 77 | 59, 88 | 59, 91 | 59, 93 | 59, 101 | 59, 105 | 59, 112 | 59, 116 | 59, 121 | 59, 137 | 59, 148 | 59, 151 | 59, 157 | 59, 165 | 59, 182 | 59, 183 | 59, 196 | 59, 197 | 59, 204 | 59, 205 | 59, 217 | 59, 219 | 60, 62 | 60, 66 | 60, 69 | 60, 71 | 60, 73 | 60, 79 | 60, 82 | 60, 86 | 60, 90 | 60, 97 | 60, 100 | 60, 103 | 60, 111 | 60, 114 | 60, 115 | 60, 118 | 60, 119 | 60, 126 | 60, 128 | 60, 129 | 60, 131 | 60, 132 | 60, 136 | 60, 138 | 60, 139 | 60, 141 | 60, 144 | 60, 147 | 60, 163 | 60, 169 | 60, 172 | 60, 178 | 60, 180 | 60, 187 | 60, 191 | 60, 194 | 60, 195 | 60, 200 | 60, 203 | 60, 209 | 60, 211 | 60, 223 | 61, 66 | 61, 69 | 61, 70 | 61, 75 | 61, 79 | 61, 82 | 61, 95 | 61, 97 | 61, 98 | 61, 100 | 61, 102 | 61, 114 | 61, 115 | 61, 126 | 61, 129 | 61, 136 | 61, 138 | 61, 139 | 61, 140 | 61, 155 | 61, 164 | 61, 166 | 61, 168 | 61, 169 | 61, 170 | 61, 171 | 61, 178 | 61, 186 | 61, 190 | 61, 191 | 61, 195 | 61, 200 | 61, 201 | 61, 211 | 61, 213 | 62, 66 | 62, 84 | 62, 92 | 62, 94 | 62, 98 | 62, 100 | 62, 107 | 62, 109 | 62, 110 | 62, 115 | 62, 120 | 62, 132 | 62, 134 | 62, 140 | 62, 149 | 62, 155 | 62, 159 | 62, 160 | 62, 163 | 62, 166 | 62, 168 | 62, 179 | 62, 181 | 62, 189 | 62, 191 | 62, 210 | 62, 218 | 62, 225 | 63, 66 | 63, 71 | 63, 73 | 63, 75 | 63, 82 | 63, 86 | 63, 90 | 63, 100 | 63, 103 | 63, 104 | 63, 114 | 63, 115 | 63, 122 | 63, 123 | 63, 130 | 63, 131 | 63, 132 | 63, 141 | 63, 144 | 63, 147 | 63, 159 | 63, 163 | 63, 168 | 63, 169 | 63, 172 | 63, 180 | 63, 186 | 63, 188 | 63, 191 | 63, 194 | 63, 212 | 63, 218 | 63, 223 | 64, 68 | 64, 85 | 64, 92 | 64, 93 | 64, 109 | 64, 111 | 64, 112 | 64, 116 | 64, 117 | 64, 120 | 64, 124 | 64, 127 | 64, 132 | 64, 142 | 64, 145 | 64, 146 | 64, 149 | 64, 151 | 64, 160 | 64, 161 | 64, 167 | 64, 175 | 64, 187 | 64, 189 | 64, 196 | 64, 201 | 64, 205 | 64, 207 | 64, 219 | 64, 221 | 64, 222 | 64, 223 | 64, 227 | 65, 87 | 65, 91 | 65, 93 | 65, 101 | 65, 105 | 65, 112 | 65, 113 | 65, 116 | 65, 121 | 65, 137 | 65, 143 | 65, 148 | 65, 151 | 65, 153 | 65, 156 | 65, 165 | 65, 175 | 65, 182 | 65, 197 | 65, 198 | 65, 202 | 65, 219 | 65, 220 | 65, 221 | 65, 224 | 65, 227 | 66, 69 | 66, 71 | 66, 72 | 66, 73 | 66, 104 | 66, 108 | 66, 118 | 66, 119 | 66, 123 | 66, 131 | 66, 133 | 66, 135 | 66, 138 | 66, 141 | 66, 144 | 66, 147 | 66, 152 | 66, 174 | 66, 176 | 66, 178 | 66, 185 | 66, 192 | 66, 195 | 66, 209 | 66, 214 | 66, 215 | 66, 216 | 66, 226 | 67, 68 | 67, 83 | 67, 85 | 67, 92 | 67, 107 | 67, 109 | 67, 117 | 67, 120 | 67, 124 | 67, 127 | 67, 142 | 67, 145 | 67, 146 | 67, 149 | 67, 154 | 67, 160 | 67, 161 | 67, 167 | 67, 179 | 67, 184 | 67, 189 | 67, 196 | 67, 207 | 67, 222 | 68, 84 | 68, 85 | 68, 92 | 68, 94 | 68, 107 | 68, 109 | 68, 112 | 68, 116 | 68, 120 | 68, 124 | 68, 132 | 68, 134 | 68, 142 | 68, 149 | 68, 151 | 68, 161 | 68, 179 | 68, 181 | 68, 184 | 68, 189 | 68, 196 | 68, 205 | 68, 210 | 68, 217 | 68, 222 | 68, 223 | 68, 225 | 69, 71 | 69, 73 | 69, 84 | 69, 88 | 69, 91 | 69, 96 | 69, 103 | 69, 112 | 69, 115 | 69, 122 | 69, 123 | 69, 130 | 69, 131 | 69, 132 | 69, 141 | 69, 144 | 69, 147 | 69, 148 | 69, 153 | 69, 157 | 69, 158 | 69, 180 | 69, 188 | 69, 192 | 69, 193 | 69, 205 | 69, 215 | 69, 217 | 69, 218 | 69, 219 | 69, 223 | 69, 224 | 70, 87 | 70, 88 | 70, 89 | 70, 91 | 70, 96 | 70, 101 | 70, 111 | 70, 113 | 70, 121 | 70, 123 | 70, 125 | 70, 128 | 70, 130 | 70, 131 | 70, 137 | 70, 143 | 70, 147 | 70, 153 | 70, 156 | 70, 157 | 70, 158 | 70, 165 | 70, 175 | 70, 176 | 70, 182 | 70, 187 | 70, 188 | 70, 192 | 70, 198 | 70, 202 | 70, 203 | 70, 208 | 70, 216 | 70, 217 | 70, 218 | 70, 220 | 70, 221 | 70, 223 | 70, 227 | 71, 84 | 71, 92 | 71, 94 | 71, 95 | 71, 97 | 71, 100 | 71, 107 | 71, 111 | 71, 112 | 71, 115 | 71, 117 | 71, 120 | 71, 126 | 71, 127 | 71, 134 | 71, 140 | 71, 145 | 71, 146 | 71, 158 | 71, 161 | 71, 167 | 71, 175 | 71, 178 | 71, 179 | 71, 181 | 71, 187 | 71, 199 | 71, 201 | 71, 205 | 71, 207 | 71, 210 | 71, 217 | 71, 218 | 71, 222 | 71, 225 | 72, 81 | 72, 99 | 72, 118 | 72, 119 | 72, 128 | 72, 133 | 72, 150 | 72, 162 | 72, 173 | 72, 174 | 72, 180 | 72, 188 | 72, 193 | 72, 194 | 72, 209 | 72, 212 | 72, 216 | 73, 84 | 73, 89 | 73, 92 | 73, 112 | 73, 116 | 73, 127 | 73, 143 | 73, 146 | 73, 158 | 73, 161 | 73, 175 | 73, 183 | 73, 187 | 73, 202 | 73, 210 | 73, 217 | 73, 221 | 74, 81 | 74, 106 | 74, 133 | 74, 150 | 74, 156 | 74, 162 | 74, 173 | 74, 188 | 74, 193 | 74, 203 | 74, 208 | 74, 209 | 74, 216 | 74, 224 | 75, 76 | 75, 87 | 75, 89 | 75, 105 | 75, 112 | 75, 121 | 75, 125 | 75, 130 | 75, 137 | 75, 143 | 75, 147 | 75, 148 | 75, 152 | 75, 153 | 75, 156 | 75, 157 | 75, 165 | 75, 176 | 75, 183 | 75, 187 | 75, 192 | 75, 193 | 75, 197 | 75, 198 | 75, 202 | 75, 203 | 75, 219 | 75, 220 | 75, 221 | 75, 224 | 75, 227 | 76, 83 | 76, 85 | 76, 94 | 76, 107 | 76, 179 | 76, 189 | 76, 222 | 77, 95 | 77, 97 | 77, 98 | 77, 114 | 77, 120 | 77, 134 | 77, 139 | 77, 140 | 77, 155 | 77, 164 | 77, 166 | 77, 168 | 77, 181 | 77, 190 | 77, 191 | 77, 199 | 77, 200 | 77, 211 | 78, 80 | 78, 87 | 78, 91 | 78, 96 | 78, 101 | 78, 105 | 78, 106 | 78, 121 | 78, 123 | 78, 130 | 78, 137 | 78, 152 | 78, 153 | 78, 157 | 78, 165 | 78, 182 | 78, 183 | 78, 188 | 78, 192 | 78, 193 | 78, 197 | 78, 198 | 78, 204 | 78, 208 | 78, 219 | 78, 220 | 78, 224 | 78, 227 | 79, 80 | 79, 87 | 79, 88 | 79, 91 | 79, 93 | 79, 96 | 79, 101 | 79, 105 | 79, 106 | 79, 112 | 79, 116 | 79, 121 | 79, 123 | 79, 130 | 79, 137 | 79, 147 | 79, 148 | 79, 151 | 79, 153 | 79, 157 | 79, 158 | 79, 165 | 79, 183 | 79, 188 | 79, 192 | 79, 193 | 79, 197 | 79, 198 | 79, 204 | 79, 208 | 79, 217 | 79, 219 | 79, 220 | 79, 223 | 79, 224 | 79, 227 | 80, 85 | 80, 89 | 80, 91 | 80, 92 | 80, 93 | 80, 101 | 80, 109 | 80, 111 | 80, 112 | 80, 113 | 80, 116 | 80, 121 | 80, 125 | 80, 127 | 80, 130 | 80, 132 | 80, 137 | 80, 142 | 80, 146 | 80, 147 | 80, 148 | 80, 151 | 80, 157 | 80, 161 | 80, 165 | 80, 183 | 80, 187 | 80, 196 | 80, 198 | 80, 201 | 80, 202 | 80, 205 | 80, 219 | 80, 220 | 80, 221 | 80, 223 | 80, 227 | 81, 84 | 81, 86 | 81, 90 | 81, 94 | 81, 95 | 81, 97 | 81, 98 | 81, 109 | 81, 110 | 81, 111 | 81, 126 | 81, 127 | 81, 132 | 81, 134 | 81, 138 | 81, 139 | 81, 149 | 81, 159 | 81, 160 | 81, 163 | 81, 168 | 81, 170 | 81, 172 | 81, 178 | 81, 181 | 81, 187 | 81, 195 | 81, 199 | 81, 200 | 81, 201 | 81, 210 | 81, 211 | 81, 218 | 81, 223 | 82, 84 | 82, 94 | 82, 95 | 82, 97 | 82, 98 | 82, 109 | 82, 110 | 82, 117 | 82, 126 | 82, 132 | 82, 134 | 82, 136 | 82, 139 | 82, 142 | 82, 145 | 82, 149 | 82, 159 | 82, 160 | 82, 163 | 82, 166 | 82, 167 | 82, 168 | 82, 181 | 82, 189 | 82, 201 | 82, 210 | 82, 211 | 82, 218 | 83, 84 | 83, 85 | 83, 92 | 83, 94 | 83, 95 | 83, 107 | 83, 111 | 83, 112 | 83, 115 | 83, 116 | 83, 120 | 83, 126 | 83, 127 | 83, 134 | 83, 140 | 83, 145 | 83, 146 | 83, 158 | 83, 161 | 83, 167 | 83, 175 | 83, 179 | 83, 181 | 83, 187 | 83, 201 | 83, 205 | 83, 207 | 83, 210 | 83, 217 | 83, 218 | 83, 222 | 83, 225 | 84, 99 | 84, 108 | 84, 118 | 84, 131 | 84, 133 | 84, 135 | 84, 144 | 84, 152 | 84, 162 | 84, 173 | 84, 193 | 84, 214 | 84, 226 | 85, 86 | 85, 90 | 85, 95 | 85, 97 | 85, 98 | 85, 109 | 85, 110 | 85, 119 | 85, 126 | 85, 127 | 85, 132 | 85, 134 | 85, 136 | 85, 138 | 85, 139 | 85, 141 | 85, 159 | 85, 160 | 85, 163 | 85, 166 | 85, 168 | 85, 170 | 85, 172 | 85, 177 | 85, 178 | 85, 181 | 85, 190 | 85, 195 | 85, 200 | 85, 201 | 85, 206 | 85, 211 | 85, 213 | 86, 97 | 86, 98 | 86, 102 | 86, 114 | 86, 139 | 86, 155 | 86, 164 | 86, 166 | 86, 168 | 86, 170 | 86, 171 | 86, 190 | 86, 191 | 86, 200 | 86, 211 | 86, 213 | 87, 88 | 87, 89 | 87, 113 | 87, 116 | 87, 125 | 87, 143 | 87, 148 | 87, 156 | 87, 158 | 87, 175 | 87, 183 | 87, 202 | 87, 204 | 87, 205 | 87, 217 | 87, 221 | 88, 90 | 88, 95 | 88, 97 | 88, 110 | 88, 114 | 88, 126 | 88, 136 | 88, 139 | 88, 140 | 88, 155 | 88, 159 | 88, 160 | 88, 163 | 88, 164 | 88, 171 | 88, 172 | 88, 177 | 88, 190 | 88, 191 | 88, 199 | 88, 200 | 88, 201 | 88, 206 | 88, 211 | 88, 225 | 89, 92 | 89, 94 | 89, 98 | 89, 109 | 89, 120 | 89, 124 | 89, 134 | 89, 140 | 89, 142 | 89, 149 | 89, 160 | 89, 161 | 89, 179 | 89, 181 | 89, 184 | 89, 189 | 89, 222 | 89, 225 | 90, 95 | 90, 97 | 90, 98 | 90, 100 | 90, 102 | 90, 114 | 90, 115 | 90, 126 | 90, 134 | 90, 136 | 90, 138 | 90, 139 | 90, 140 | 90, 155 | 90, 164 | 90, 166 | 90, 168 | 90, 169 | 90, 170 | 90, 178 | 90, 186 | 90, 190 | 90, 199 | 90, 200 | 90, 201 | 90, 211 | 90, 213 | 91, 97 | 91, 100 | 91, 103 | 91, 104 | 91, 114 | 91, 115 | 91, 119 | 91, 122 | 91, 126 | 91, 129 | 91, 136 | 91, 138 | 91, 139 | 91, 168 | 91, 169 | 91, 170 | 91, 178 | 91, 180 | 91, 186 | 91, 190 | 91, 191 | 91, 194 | 91, 195 | 91, 200 | 91, 211 | 91, 212 | 91, 213 | 92, 102 | 92, 110 | 92, 119 | 92, 126 | 92, 129 | 92, 136 | 92, 138 | 92, 139 | 92, 141 | 92, 163 | 92, 168 | 92, 170 | 92, 172 | 92, 177 | 92, 190 | 92, 195 | 92, 200 | 92, 201 | 92, 211 | 92, 213 | 92, 218 | 93, 102 | 93, 114 | 93, 164 | 93, 166 | 93, 171 | 93, 190 | 93, 200 | 93, 213 | 94, 97 | 94, 100 | 94, 103 | 94, 114 | 94, 115 | 94, 119 | 94, 122 | 94, 126 | 94, 136 | 94, 138 | 94, 139 | 94, 141 | 94, 159 | 94, 163 | 94, 164 | 94, 169 | 94, 172 | 94, 177 | 94, 178 | 94, 180 | 94, 186 | 94, 190 | 94, 191 | 94, 195 | 94, 200 | 94, 201 | 94, 206 | 94, 211 | 94, 213 | 95, 99 | 95, 103 | 95, 104 | 95, 108 | 95, 122 | 95, 123 | 95, 131 | 95, 135 | 95, 141 | 95, 144 | 95, 147 | 95, 150 | 95, 152 | 95, 162 | 95, 174 | 95, 185 | 95, 188 | 95, 192 | 95, 193 | 95, 194 | 95, 212 | 95, 214 | 95, 215 | 95, 216 | 95, 226 | 96, 99 | 96, 108 | 96, 118 | 96, 133 | 96, 135 | 96, 162 | 96, 173 | 96, 194 | 96, 209 | 96, 214 | 96, 215 | 96, 226 | 97, 101 | 97, 109 | 97, 112 | 97, 116 | 97, 121 | 97, 123 | 97, 130 | 97, 132 | 97, 137 | 97, 142 | 97, 148 | 97, 149 | 97, 151 | 97, 158 | 97, 161 | 97, 165 | 97, 183 | 97, 196 | 97, 198 | 97, 205 | 97, 210 | 97, 217 | 97, 220 | 97, 222 | 97, 223 | 97, 227 | 98, 103 | 98, 111 | 98, 112 | 98, 113 | 98, 122 | 98, 125 | 98, 128 | 98, 130 | 98, 131 | 98, 135 | 98, 144 | 98, 147 | 98, 148 | 98, 152 | 98, 153 | 98, 156 | 98, 157 | 98, 173 | 98, 178 | 98, 183 | 98, 185 | 98, 187 | 98, 192 | 98, 193 | 98, 195 | 98, 198 | 98, 202 | 98, 203 | 98, 209 | 98, 215 | 98, 219 | 98, 220 | 98, 223 | 98, 224 | 99, 102 | 99, 104 | 99, 110 | 99, 126 | 99, 129 | 99, 136 | 99, 139 | 99, 163 | 99, 166 | 99, 168 | 99, 170 | 99, 172 | 99, 177 | 99, 190 | 99, 200 | 99, 206 | 99, 211 | 99, 213 | 100, 104 | 100, 109 | 100, 111 | 100, 119 | 100, 123 | 100, 126 | 100, 127 | 100, 128 | 100, 130 | 100, 131 | 100, 132 | 100, 136 | 100, 138 | 100, 141 | 100, 144 | 100, 147 | 100, 149 | 100, 159 | 100, 163 | 100, 168 | 100, 170 | 100, 172 | 100, 173 | 100, 176 | 100, 178 | 100, 187 | 100, 195 | 100, 201 | 100, 203 | 100, 209 | 100, 211 | 100, 217 | 100, 218 | 100, 220 | 100, 223 | 101, 107 | 101, 117 | 101, 120 | 101, 134 | 101, 140 | 101, 145 | 101, 146 | 101, 161 | 101, 167 | 101, 179 | 101, 181 | 101, 199 | 101, 207 | 101, 222 | 101, 225 | 102, 103 | 102, 108 | 102, 111 | 102, 114 | 102, 115 | 102, 118 | 102, 119 | 102, 122 | 102, 128 | 102, 129 | 102, 131 | 102, 133 | 102, 136 | 102, 138 | 102, 141 | 102, 144 | 102, 147 | 102, 169 | 102, 172 | 102, 173 | 102, 178 | 102, 180 | 102, 186 | 102, 192 | 102, 194 | 102, 195 | 102, 203 | 102, 209 | 102, 212 | 102, 214 | 102, 215 | 102, 226 | 103, 109 | 103, 111 | 103, 117 | 103, 124 | 103, 126 | 103, 134 | 103, 142 | 103, 146 | 103, 149 | 103, 159 | 103, 160 | 103, 163 | 103, 167 | 103, 184 | 103, 189 | 103, 199 | 103, 201 | 103, 207 | 103, 210 | 103, 218 | 103, 223 | 104, 105 | 104, 113 | 104, 125 | 104, 137 | 104, 143 | 104, 148 | 104, 153 | 104, 156 | 104, 157 | 104, 165 | 104, 182 | 104, 183 | 104, 197 | 104, 198 | 104, 202 | 104, 219 | 104, 221 | 104, 224 | 104, 227 | 105, 111 | 105, 112 | 105, 113 | 105, 116 | 105, 123 | 105, 125 | 105, 143 | 105, 156 | 105, 158 | 105, 175 | 105, 176 | 105, 183 | 105, 187 | 105, 188 | 105, 202 | 105, 203 | 105, 204 | 105, 205 | 105, 208 | 105, 217 | 105, 218 | 105, 219 | 105, 221 | 105, 224 | 106, 107 | 106, 117 | 106, 120 | 106, 124 | 106, 146 | 106, 149 | 106, 154 | 106, 160 | 106, 161 | 106, 167 | 106, 179 | 106, 184 | 106, 189 | 106, 199 | 106, 207 | 106, 222 | 107, 131 | 107, 133 | 107, 135 | 107, 144 | 107, 150 | 107, 152 | 107, 173 | 107, 185 | 107, 192 | 107, 203 | 107, 208 | 107, 209 | 107, 215 | 107, 216 | 107, 220 | 108, 114 | 108, 119 | 108, 129 | 108, 136 | 108, 138 | 108, 139 | 108, 168 | 108, 169 | 108, 170 | 108, 180 | 108, 186 | 108, 190 | 108, 191 | 108, 195 | 108, 200 | 108, 211 | 108, 212 | 108, 213 | 109, 112 | 109, 113 | 109, 115 | 109, 116 | 109, 122 | 109, 127 | 109, 138 | 109, 148 | 109, 161 | 109, 175 | 109, 176 | 109, 178 | 109, 183 | 109, 187 | 109, 188 | 109, 201 | 109, 203 | 109, 205 | 109, 210 | 109, 217 | 109, 218 | 109, 219 | 109, 224 | 109, 225 | 110, 111 | 110, 115 | 110, 119 | 110, 122 | 110, 128 | 110, 138 | 110, 148 | 110, 150 | 110, 156 | 110, 173 | 110, 176 | 110, 178 | 110, 180 | 110, 183 | 110, 187 | 110, 188 | 110, 193 | 110, 195 | 110, 203 | 110, 209 | 110, 216 | 110, 217 | 110, 218 | 110, 224 | 111, 120 | 111, 124 | 111, 132 | 111, 134 | 111, 140 | 111, 142 | 111, 149 | 111, 159 | 111, 161 | 111, 179 | 111, 184 | 111, 205 | 111, 222 | 111, 225 | 112, 129 | 112, 136 | 112, 139 | 112, 163 | 112, 166 | 112, 168 | 112, 170 | 112, 171 | 112, 172 | 112, 190 | 112, 200 | 112, 206 | 112, 211 | 112, 213 | 113, 114 | 113, 115 | 113, 132 | 113, 134 | 113, 140 | 113, 141 | 113, 155 | 113, 159 | 113, 163 | 113, 164 | 113, 166 | 113, 168 | 113, 169 | 113, 170 | 113, 177 | 113, 181 | 113, 186 | 113, 191 | 113, 218 | 114, 123 | 114, 128 | 114, 130 | 114, 131 | 114, 133 | 114, 144 | 114, 147 | 114, 150 | 114, 152 | 114, 153 | 114, 156 | 114, 157 | 114, 173 | 114, 176 | 114, 185 | 114, 192 | 114, 195 | 114, 203 | 114, 208 | 114, 209 | 114, 214 | 114, 215 | 114, 216 | 114, 220 | 115, 128 | 115, 130 | 115, 131 | 115, 133 | 115, 135 | 115, 144 | 115, 147 | 115, 150 | 115, 152 | 115, 153 | 115, 156 | 115, 157 | 115, 173 | 115, 188 | 115, 192 | 115, 208 | 115, 209 | 115, 214 | 115, 215 | 115, 216 | 115, 220 | 116, 118 | 116, 119 | 116, 128 | 116, 129 | 116, 131 | 116, 133 | 116, 135 | 116, 138 | 116, 144 | 116, 147 | 116, 150 | 116, 173 | 116, 178 | 116, 188 | 116, 192 | 116, 195 | 116, 203 | 116, 209 | 116, 214 | 116, 215 | 116, 226 | 117, 123 | 117, 131 | 117, 132 | 117, 141 | 117, 144 | 117, 147 | 117, 163 | 117, 169 | 117, 170 | 117, 172 | 117, 180 | 117, 186 | 117, 188 | 117, 191 | 117, 192 | 117, 194 | 117, 212 | 117, 215 | 117, 218 | 117, 223 | 118, 121 | 118, 137 | 118, 142 | 118, 149 | 118, 151 | 118, 158 | 118, 161 | 118, 165 | 118, 196 | 118, 204 | 118, 205 | 118, 210 | 118, 217 | 118, 219 | 118, 222 | 118, 223 | 118, 227 | 119, 121 | 119, 137 | 119, 153 | 119, 157 | 119, 182 | 119, 183 | 119, 197 | 119, 198 | 119, 204 | 119, 224 | 119, 227 | 120, 121 | 120, 123 | 120, 125 | 120, 137 | 120, 143 | 120, 151 | 120, 153 | 120, 156 | 120, 158 | 120, 165 | 120, 175 | 120, 176 | 120, 182 | 120, 197 | 120, 198 | 120, 202 | 120, 208 | 120, 217 | 120, 220 | 120, 221 | 120, 227 | 121, 126 | 121, 134 | 121, 140 | 121, 154 | 121, 155 | 121, 166 | 121, 167 | 121, 179 | 121, 181 | 121, 191 | 121, 199 | 121, 225 | 122, 126 | 122, 129 | 122, 136 | 122, 138 | 122, 139 | 122, 141 | 122, 159 | 122, 163 | 122, 166 | 122, 168 | 122, 170 | 122, 171 | 122, 172 | 122, 177 | 122, 200 | 122, 206 | 122, 211 | 122, 213 | 123, 126 | 123, 127 | 123, 128 | 123, 130 | 123, 132 | 123, 136 | 123, 138 | 123, 139 | 123, 141 | 123, 142 | 123, 147 | 123, 149 | 123, 159 | 123, 160 | 123, 161 | 123, 163 | 123, 172 | 123, 178 | 123, 187 | 123, 189 | 123, 191 | 123, 195 | 123, 201 | 123, 205 | 123, 211 | 123, 223 | 123, 225 | 124, 125 | 124, 143 | 124, 148 | 124, 156 | 124, 158 | 124, 175 | 124, 176 | 124, 187 | 124, 202 | 124, 204 | 124, 205 | 124, 208 | 124, 217 | 124, 219 | 124, 221 | 124, 224 | 125, 131 | 125, 135 | 125, 141 | 125, 144 | 125, 147 | 125, 148 | 125, 152 | 125, 153 | 125, 157 | 125, 183 | 125, 185 | 125, 192 | 125, 193 | 125, 194 | 125, 208 | 125, 216 | 125, 217 | 125, 218 | 125, 220 | 125, 224 | 126, 137 | 126, 151 | 126, 153 | 126, 157 | 126, 165 | 126, 182 | 126, 183 | 126, 196 | 126, 198 | 126, 204 | 126, 219 | 126, 227 | 127, 130 | 127, 132 | 127, 134 | 127, 137 | 127, 142 | 127, 147 | 127, 148 | 127, 149 | 127, 151 | 127, 157 | 127, 158 | 127, 161 | 127, 165 | 127, 181 | 127, 183 | 127, 196 | 127, 198 | 127, 210 | 127, 217 | 127, 218 | 127, 220 | 127, 222 | 127, 223 | 127, 225 | 127, 227 | 128, 163 | 128, 164 | 128, 166 | 128, 168 | 128, 169 | 128, 170 | 128, 172 | 128, 177 | 128, 186 | 128, 191 | 128, 206 | 129, 134 | 129, 142 | 129, 149 | 129, 161 | 129, 179 | 129, 184 | 129, 189 | 129, 222 | 130, 143 | 130, 148 | 130, 176 | 130, 183 | 130, 188 | 130, 193 | 130, 203 | 130, 208 | 130, 216 | 130, 224 | 131, 133 | 131, 150 | 131, 173 | 131, 174 | 131, 176 | 131, 178 | 131, 180 | 131, 188 | 131, 193 | 131, 194 | 131, 195 | 131, 209 | 131, 212 | 131, 216 | 132, 134 | 132, 140 | 132, 146 | 132, 161 | 132, 175 | 132, 181 | 132, 183 | 132, 187 | 132, 201 | 132, 205 | 132, 210 | 132, 217 | 132, 218 | 132, 219 | 132, 221 | 132, 222 | 132, 225 | 133, 134 | 133, 140 | 133, 141 | 133, 155 | 133, 159 | 133, 160 | 133, 163 | 133, 164 | 133, 166 | 133, 168 | 133, 169 | 133, 170 | 133, 177 | 133, 186 | 133, 191 | 133, 206 | 133, 218 | 133, 225 | 134, 138 | 134, 141 | 134, 169 | 134, 172 | 134, 173 | 134, 178 | 134, 180 | 134, 186 | 134, 194 | 134, 195 | 134, 209 | 134, 212 | 134, 226 | 135, 136 | 135, 139 | 135, 164 | 135, 166 | 135, 168 | 135, 169 | 135, 170 | 135, 190 | 135, 191 | 135, 200 | 135, 211 | 136, 144 | 136, 150 | 136, 162 | 136, 174 | 136, 180 | 136, 192 | 136, 193 | 136, 194 | 136, 214 | 136, 215 | 136, 216 | 136, 226 | 137, 150 | 137, 162 | 137, 176 | 137, 180 | 137, 188 | 137, 193 | 137, 194 | 137, 195 | 137, 203 | 137, 208 | 137, 209 | 137, 216 | 138, 148 | 138, 150 | 138, 152 | 138, 153 | 138, 162 | 138, 185 | 138, 188 | 138, 192 | 138, 193 | 138, 208 | 138, 214 | 138, 215 | 138, 216 | 138, 220 | 139, 142 | 139, 147 | 139, 148 | 139, 149 | 139, 151 | 139, 153 | 139, 157 | 139, 165 | 139, 183 | 139, 188 | 139, 196 | 139, 198 | 139, 205 | 139, 210 | 139, 217 | 139, 218 | 139, 219 | 139, 220 | 139, 223 | 139, 224 | 139, 227 | 140, 141 | 140, 142 | 140, 147 | 140, 149 | 140, 158 | 140, 159 | 140, 160 | 140, 163 | 140, 170 | 140, 172 | 140, 175 | 140, 176 | 140, 181 | 140, 187 | 140, 188 | 140, 195 | 140, 201 | 140, 203 | 140, 210 | 140, 211 | 140, 217 | 140, 218 | 140, 220 | 140, 223 | 141, 143 | 141, 156 | 141, 158 | 141, 175 | 141, 176 | 141, 183 | 141, 187 | 141, 202 | 141, 204 | 141, 205 | 141, 210 | 141, 217 | 141, 219 | 141, 221 | 141, 224 | 142, 148 | 142, 156 | 142, 158 | 142, 175 | 142, 176 | 142, 178 | 142, 183 | 142, 187 | 142, 188 | 142, 193 | 142, 202 | 142, 203 | 142, 205 | 142, 208 | 142, 209 | 142, 216 | 142, 217 | 142, 218 | 142, 221 | 142, 224 | 143, 148 | 143, 153 | 143, 157 | 143, 158 | 143, 165 | 143, 182 | 143, 183 | 143, 196 | 143, 198 | 143, 204 | 143, 205 | 143, 217 | 143, 219 | 143, 220 | 143, 223 | 143, 224 | 143, 227 | 144, 145 | 144, 146 | 144, 161 | 144, 167 | 144, 175 | 144, 179 | 144, 181 | 144, 205 | 144, 207 | 144, 210 | 145, 147 | 145, 148 | 145, 157 | 145, 158 | 145, 159 | 145, 161 | 145, 181 | 145, 183 | 145, 188 | 145, 196 | 145, 205 | 145, 210 | 145, 217 | 145, 218 | 145, 220 | 145, 223 | 145, 225 | 145, 227 | 146, 148 | 146, 152 | 146, 153 | 146, 157 | 146, 182 | 146, 183 | 146, 185 | 146, 188 | 146, 192 | 146, 197 | 146, 208 | 146, 216 | 146, 217 | 146, 219 | 146, 220 | 146, 224 | 147, 155 | 147, 161 | 147, 166 | 147, 167 | 147, 168 | 147, 178 | 147, 179 | 147, 181 | 147, 187 | 147, 191 | 147, 199 | 147, 205 | 147, 211 | 147, 218 | 147, 225 | 148, 150 | 148, 173 | 148, 174 | 148, 209 | 148, 214 | 148, 226 | 149, 156 | 149, 175 | 149, 176 | 149, 205 | 149, 210 | 149, 217 | 149, 219 | 149, 221 | 149, 224 | 150, 151 | 150, 159 | 150, 160 | 150, 161 | 150, 175 | 150, 178 | 150, 187 | 150, 189 | 150, 195 | 150, 201 | 150, 205 | 150, 219 | 150, 221 | 150, 222 | 150, 223 | 150, 225 | 151, 158 | 151, 161 | 151, 175 | 151, 178 | 151, 181 | 151, 183 | 151, 187 | 151, 201 | 151, 205 | 151, 210 | 151, 217 | 151, 218 | 151, 219 | 151, 221 | 151, 222 | 151, 225 | 152, 156 | 152, 158 | 152, 175 | 152, 176 | 152, 183 | 152, 187 | 152, 188 | 152, 202 | 152, 203 | 152, 204 | 152, 205 | 152, 208 | 152, 210 | 152, 217 | 152, 218 | 152, 219 | 152, 221 | 152, 224 | 153, 154 | 153, 161 | 153, 167 | 153, 179 | 153, 181 | 153, 199 | 153, 207 | 153, 222 | 154, 159 | 154, 168 | 154, 169 | 154, 170 | 154, 172 | 154, 180 | 154, 188 | 154, 191 | 154, 212 | 154, 218 | 154, 223 | 155, 157 | 155, 173 | 155, 176 | 155, 178 | 155, 187 | 155, 188 | 155, 192 | 155, 195 | 155, 201 | 155, 203 | 155, 209 | 155, 215 | 155, 217 | 155, 218 | 155, 223 | 156, 169 | 156, 170 | 156, 172 | 156, 177 | 156, 186 | 156, 194 | 156, 206 | 156, 212 | 156, 226 | 157, 162 | 157, 173 | 157, 176 | 157, 178 | 157, 180 | 157, 193 | 157, 194 | 157, 195 | 157, 203 | 157, 208 | 157, 209 | 157, 216 | 157, 224 | 158, 160 | 158, 161 | 158, 163 | 158, 167 | 158, 175 | 158, 178 | 158, 187 | 158, 189 | 158, 196 | 158, 201 | 158, 205 | 158, 222 | 158, 223 | 158, 225 | 159, 164 | 159, 166 | 159, 168 | 159, 170 | 159, 181 | 159, 191 | 159, 201 | 159, 211 | 159, 225 | 160, 161 | 160, 168 | 160, 170 | 160, 175 | 160, 178 | 160, 180 | 160, 181 | 160, 187 | 160, 188 | 160, 191 | 160, 195 | 160, 203 | 160, 210 | 160, 211 | 160, 217 | 160, 218 | 160, 225 | 161, 185 | 161, 187 | 161, 188 | 161, 192 | 161, 195 | 161, 202 | 161, 203 | 161, 215 | 161, 216 | 161, 217 | 161, 220 | 162, 163 | 162, 168 | 162, 170 | 162, 171 | 162, 172 | 162, 177 | 162, 190 | 162, 199 | 162, 200 | 162, 201 | 162, 213 | 163, 175 | 163, 176 | 163, 178 | 163, 183 | 163, 187 | 163, 188 | 163, 193 | 163, 195 | 163, 201 | 163, 202 | 163, 203 | 163, 205 | 163, 208 | 163, 217 | 163, 218 | 163, 219 | 163, 224 | 164, 175 | 164, 176 | 164, 182 | 164, 187 | 164, 188 | 164, 197 | 164, 198 | 164, 202 | 164, 203 | 164, 204 | 164, 208 | 164, 217 | 164, 220 | 164, 221 | 164, 223 | 164, 227 | 165, 169 | 165, 170 | 165, 173 | 165, 180 | 165, 186 | 165, 194 | 165, 195 | 165, 209 | 165, 212 | 166, 171 | 166, 177 | 166, 186 | 166, 190 | 166, 200 | 166, 206 | 166, 211 | 166, 213 | 167, 181 | 167, 184 | 167, 189 | 167, 210 | 167, 222 | 167, 225 | 168, 169 | 168, 172 | 168, 178 | 168, 180 | 168, 187 | 168, 191 | 168, 195 | 168, 203 | 168, 205 | 168, 211 | 168, 223 | 168, 225 | 169, 175 | 169, 178 | 169, 181 | 169, 187 | 169, 189 | 169, 199 | 169, 201 | 169, 210 | 169, 211 | 169, 217 | 169, 218 | 169, 223 | 170, 171 | 170, 172 | 170, 177 | 170, 186 | 170, 190 | 170, 191 | 170, 200 | 170, 206 | 170, 211 | 170, 213 | 171, 182 | 171, 183 | 171, 196 | 171, 197 | 171, 204 | 171, 205 | 171, 208 | 171, 217 | 171, 219 | 171, 220 | 171, 223 | 171, 224 | 172, 175 | 172, 176 | 172, 183 | 172, 187 | 172, 188 | 172, 202 | 172, 203 | 172, 204 | 172, 208 | 172, 219 | 172, 221 | 172, 224 | 173, 180 | 173, 183 | 173, 188 | 173, 192 | 173, 193 | 173, 205 | 173, 208 | 173, 215 | 173, 216 | 173, 217 | 173, 218 | 173, 219 | 173, 220 | 173, 224 | 173, 227 | 174, 178 | 174, 180 | 174, 186 | 174, 194 | 174, 195 | 174, 203 | 174, 212 | 174, 214 | 174, 215 | 174, 226 | 175, 181 | 175, 189 | 175, 191 | 175, 196 | 175, 205 | 175, 210 | 175, 217 | 175, 218 | 175, 222 | 175, 225 | 176, 180 | 176, 188 | 176, 191 | 176, 192 | 176, 194 | 176, 212 | 176, 215 | 176, 217 | 176, 218 | 176, 220 | 176, 223 | 177, 180 | 177, 193 | 177, 195 | 177, 203 | 177, 208 | 177, 209 | 177, 216 | 177, 224 | 178, 182 | 178, 183 | 178, 192 | 178, 197 | 178, 198 | 178, 204 | 178, 208 | 178, 217 | 178, 219 | 178, 220 | 178, 224 | 178, 227 | 179, 196 | 179, 204 | 179, 210 | 179, 217 | 179, 221 | 179, 223 | 179, 227 | 180, 182 | 180, 187 | 180, 196 | 180, 197 | 180, 198 | 180, 202 | 180, 204 | 180, 208 | 180, 217 | 180, 220 | 180, 221 | 180, 223 | 180, 227 | 181, 183 | 181, 187 | 181, 193 | 181, 194 | 181, 195 | 181, 203 | 181, 209 | 181, 215 | 181, 220 | 181, 223 | 182, 183 | 182, 187 | 182, 188 | 182, 195 | 182, 201 | 182, 203 | 182, 205 | 182, 210 | 182, 218 | 182, 219 | 182, 221 | 182, 225 | 183, 184 | 183, 187 | 183, 189 | 183, 196 | 183, 201 | 183, 207 | 183, 210 | 183, 217 | 183, 218 | 183, 223 | 184, 187 | 184, 201 | 184, 217 | 184, 218 | 184, 219 | 184, 221 | 184, 222 | 185, 202 | 185, 204 | 185, 205 | 185, 210 | 185, 217 | 185, 219 | 185, 221 | 185, 222 | 186, 189 | 186, 199 | 186, 201 | 186, 207 | 186, 210 | 187, 194 | 187, 206 | 188, 196 | 188, 197 | 188, 202 | 188, 205 | 188, 219 | 188, 220 | 188, 221 | 188, 223 | 188, 227 | 189, 202 | 189, 203 | 189, 204 | 189, 205 | 189, 210 | 189, 218 | 189, 219 | 189, 221 | 189, 224 | 190, 192 | 190, 193 | 190, 194 | 190, 212 | 190, 214 | 190, 215 | 190, 216 | 190, 226 | 191, 196 | 191, 210 | 191, 217 | 191, 223 | 192, 195 | 192, 209 | 192, 212 | 193, 197 | 193, 198 | 193, 202 | 193, 203 | 193, 204 | 193, 208 | 193, 217 | 193, 221 | 193, 223 | 193, 227 | 194, 196 | 195, 208 | 195, 214 | 195, 215 | 195, 216 | 195, 220 | 195, 224 | 196, 200 | 196, 211 | 196, 213 | 197, 201 | 197, 205 | 197, 207 | 197, 210 | 197, 222 | 197, 225 | 198, 203 | 198, 208 | 198, 209 | 198, 216 | 198, 224 | 199, 212 | 199, 214 | 199, 215 | 199, 216 | 199, 226 | 200, 210 | 200, 222 | 200, 225 | 201, 206 | 201, 212 | 201, 226 | 202, 205 | 202, 208 | 202, 215 | 202, 216 | 202, 217 | 202, 218 | 202, 219 | 202, 220 | 202, 223 | 202, 224 | 202, 227 | 203, 204 | 203, 227 | 204, 219 | 204, 221 | 204, 224 | 206, 219 | 206, 221 | 207, 210 | 207, 222 | 208, 219 | 208, 220 | 208, 221 | 208, 223 | 208, 224 | 208, 227 | 209, 215 | 209, 217 | 209, 218 | 209, 219 | 209, 220 | 209, 223 | 209, 224 | 209, 227 | 210, 212 | 210, 214 | 210, 226 | 212, 213 | 212, 218 | 213, 225 | 215, 217 | 215, 219 | 215, 221 | 216, 219 | 216, 220 | 216, 221 | 216, 223 | 216, 227 | 218, 226 | 220, 221 | 220, 224 | 221, 224 | 221, 227 | 222, 226 | 224, 226 |];
