reference_tardiness = 957940;
reference_makespan = 75240;
program_setup_time = 600;
sequence_setup_time = 300;
num_jobs = 7;
num_programs = 1;
job_program = [1, 1, 1, 1, 1, 1, 1];
job_time = [6120, 6120, 6120, 6120, 6120, 6120, 30600];
num_products = 7;
demand_product = [6, 2, 7, 1, 4, 5, 7, 1, 3];
job_qty = array2d(jobs, products, [0,0,0,0,0,2,12,0,0,0,0,0,2,12,0,2,0,0,0,0,12,2,0,0,0,0,0,10,0,0,0,0,4,8,2,0,0,6,6,2,0,0,20,20,0,0,0,10,20]);
num_demands = 9;
demand_duedate = [-206607, -206607, -50436, -50436, -50436, -50436, 27649, 27649, 261906];
total_demand_qty = [21, 22, 57, 14, 5, 6, 66, 22, 6];
