reference_tardiness = 1641108;
reference_makespan = 125400;
program_setup_time = 600;
sequence_setup_time = 300;
num_jobs = 11;
num_programs = 1;
job_program = [1, 1, 1, 1, 1, 1, 1, 1, 1, 1, 1];
job_time = [9180, 9180, 6120, 6120, 6120, 6120, 6120, 6120, 6120, 6120, 42840];
num_products = 18;
demand_product = [15, 13, 4, 11, 7, 8, 2, 3, 16, 5, 1, 17, 16, 11, 8, 18, 12, 6, 14, 10, 5, 12, 6, 9];
job_qty = array2d(jobs, products, [0,0,0,0,0,6,0,0,3,0,12,0,0,0,0,0,0,0,0,3,3,0,9,3,0,0,0,0,0,0,0,3,0,0,0,0,2,0,0,6,0,0,0,0,0,0,0,0,0,0,0,0,0,4,0,0,0,0,0,0,0,0,0,0,0,0,0,0,12,0,0,0,0,2,0,0,0,8,0,0,0,0,0,4,0,0,0,0,0,0,0,0,0,0,0,0,4,2,0,4,0,0,0,4,0,0,0,0,0,0,0,0,0,0,0,0,0,0,0,0,0,0,0,0,12,0,0,0,0,0,0,0,0,0,0,0,0,0,2,0,4,0,8,0,0,0,2,0,0,0,0,4,0,0,0,0,0,0,0,8,0,0,0,0,0,0,0,0,0,0,0,0,0,0,0,0,4,0,10,0,0,0,0,0,0,0,0,0,0,0,0,0,0,0,14,0,84,0]);
num_demands = 24;
demand_duedate = [-89479, -89479, -50436, -50436, -50436, -50436, -50436, -50436, -50436, -50436, -50436, -50436, -11393, 27649, 27649, 27649, 27649, 27649, 27649, 27649, 144778, 144778, 144778, 144778];
total_demand_qty = [33, 2, 5, 5, 3, 1, 5, 5, 6, 2, 2, 113, 7, 11, 5, 4, 1, 10, 7, 3, 7, 4, 17, 3];
