reference_tardiness = 293989498;
reference_makespan = 855060;
program_setup_time = 600;
sequence_setup_time = 300;
num_jobs = 21;
num_programs = 1;
job_program = [1, 1, 1, 1, 1, 1, 1, 1, 1, 1, 1, 1, 1, 1, 1, 1, 1, 1, 1, 1, 1];
job_time = [42840, 61200, 85680, 42840, 91800, 27540, 64260, 79560, 15300, 70380, 36720, 9180, 6120, 6120, 27540, 9180, 30600, 39780, 21420, 6120, 24480];
num_products = 134;
demand_product = [128, 35, 97, 16, 128, 35, 97, 16, 128, 35, 97, 16, 67, 103, 97, 16, 103, 128, 35, 97, 16, 67, 103, 121, 21, 38, 131, 77, 4, 20, 128, 35, 97, 16, 67, 103, 121, 21, 38, 131, 77, 4, 20, 33, 36, 23, 114, 66, 24, 86, 62, 85, 89, 96, 39, 132, 13, 74, 29, 82, 94, 128, 35, 97, 16, 67, 103, 121, 21, 134, 80, 130, 57, 120, 68, 79, 37, 49, 102, 133, 6, 43, 8, 45, 115, 81, 32, 90, 2, 51, 88, 12, 93, 10, 113, 11, 92, 14, 53, 116, 58, 122, 64, 126, 55, 118, 30, 117, 123, 9, 91, 119, 69, 25, 75, 71, 125, 42, 104, 48, 111, 83, 18, 60, 26, 34, 95, 40, 56, 99, 44, 106, 19, 72, 27, 107, 127, 73, 124, 70, 129, 41, 98, 22, 105, 17, 128, 35, 97, 16, 67, 103, 121, 21, 38, 131, 77, 4, 20, 33, 36, 96, 39, 132, 13, 50, 110, 128, 35, 97, 16, 67, 103, 121, 21, 38, 131, 77, 4, 20, 33, 36, 96, 39, 132, 13, 102, 115, 81, 32, 90, 2, 42, 104, 48, 111, 110, 54, 65, 101, 78, 7, 31, 84, 87, 128, 35, 67, 121, 20, 110, 54, 65, 87, 128, 35, 97, 16, 67, 103, 121, 21, 128, 35, 97, 16, 67, 103, 121, 21, 38, 131, 77, 4, 20, 33, 36, 114, 66, 24, 89, 96, 39, 132, 13, 115, 81, 32, 90, 2, 51, 11, 92, 14, 69, 25, 75, 125, 42, 104, 48, 111, 50, 110, 54, 65, 101, 31, 87, 1, 112, 3, 46, 109, 59, 76, 108, 100, 52, 28, 15, 61, 47, 5, 63];
job_qty = array2d(jobs, products, [0,0,0,0,0,0,0,0,0,0,0,0,0,0,0,0,14,0,0,84,0,56,0,0,0,0,0,0,42,0,0,0,98,0,0,98,0,0,0,14,14,0,0,0,0,0,14,0,0,0,0,0,0,56,0,14,0,0,42,0,0,0,70,0,70,0,0,0,0,14,0,0,0,56,0,0,0,0,0,0,0,14,0,0,0,0,0,0,0,0,0,0,0,84,0,0,0,0,0,0,0,0,0,0,14,0,0,0,14,28,0,0,0,0,0,0,0,0,0,0,0,0,0,14,0,0,0,0,28,0,0,0,0,0,0,0,0,0,0,0,0,0,0,0,0,0,160,0,0,120,0,0,0,0,20,0,0,0,100,0,0,0,0,0,0,0,0,0,180,0,0,0,20,0,0,0,0,0,0,0,0,0,0,0,0,0,0,0,40,0,0,0,0,0,0,0,0,0,0,0,0,0,0,0,0,0,0,0,60,0,60,0,0,0,0,0,0,0,0,0,0,0,0,0,0,0,0,0,0,80,60,0,0,0,0,0,100,0,0,0,0,0,0,0,0,0,0,0,0,0,0,60,0,0,0,0,0,0,0,0,0,180,0,0,40,160,0,0,0,0,0,0,0,0,0,0,0,0,0,0,168,0,0,196,0,0,0,0,112,0,0,0,112,0,0,0,0,0,0,0,0,0,252,0,0,28,224,0,0,0,0,0,0,0,0,28,0,0,0,0,0,0,0,0,0,0,0,0,0,0,0,0,0,0,28,0,84,0,0,0,0,0,0,0,28,0,0,0,0,0,0,0,0,0,0,0,0,0,56,0,0,0,0,0,112,0,0,0,0,0,28,28,0,0,0,0,0,0,28,0,0,0,0,0,28,0,56,0,112,0,0,0,84,0,0,0,0,0,0,224,0,0,0,0,0,0,0,0,0,98,0,70,0,42,0,28,0,0,0,0,0,0,0,0,0,0,0,0,0,0,0,0,0,84,0,0,0,0,0,0,0,0,0,0,0,0,56,0,0,0,0,0,14,0,0,0,0,0,0,42,0,0,0,0,0,14,0,0,0,0,0,0,0,0,0,0,0,0,0,0,0,0,28,0,0,0,0,0,0,28,0,98,0,14,28,0,0,0,0,0,0,0,0,0,0,0,0,0,0,0,0,0,0,0,42,0,70,0,0,0,0,0,0,14,0,0,0,14,0,0,0,0,0,0,0,0,0,0,0,60,0,0,0,0,120,0,0,0,240,0,0,90,0,0,0,0,0,0,0,0,30,0,0,0,0,0,0,0,0,0,0,0,0,0,90,0,0,0,0,0,0,0,0,0,0,0,0,0,0,0,0,0,0,0,0,0,0,0,0,0,0,0,180,0,30,0,0,0,0,0,0,0,0,0,0,0,0,0,0,0,0,0,0,0,0,0,0,0,0,0,0,60,180,0,0,0,0,0,180,0,0,0,0,0,0,0,0,0,0,0,0,0,0,0,0,0,180,0,0,0,210,0,0,270,0,0,0,240,0,0,0,0,0,27,0,0,0,0,0,0,0,0,63,0,0,63,0,0,0,0,0,0,0,0,36,0,0,0,0,18,0,0,0,0,72,0,0,0,27,0,0,0,0,0,0,0,0,0,0,0,0,0,0,0,9,0,0,0,0,0,0,0,0,0,0,0,36,0,27,0,0,0,0,0,27,0,27,0,0,0,0,0,0,0,0,0,0,0,0,0,0,0,0,0,0,0,27,9,0,0,0,0,18,0,0,0,0,0,0,0,0,0,0,0,0,0,0,0,0,0,0,0,27,0,0,0,0,72,0,0,0,63,0,0,0,0,0,0,0,0,0,0,0,0,0,0,0,0,0,42,0,0,0,0,105,0,0,0,0,0,0,0,0,126,0,0,0,0,105,0,0,42,147,0,0,21,0,0,0,0,0,63,0,0,0,0,0,0,0,0,0,0,0,0,0,0,0,0,0,0,168,0,0,0,0,0,0,0,0,0,0,0,0,0,0,0,0,0,0,0,0,0,0,0,0,0,0,0,0,0,126,0,0,0,0,0,21,42,0,0,0,0,0,0,0,0,0,0,0,0,0,84,0,0,84,0,0,0,42,0,0,189,0,0,0,105,0,0,0,0,0,0,0,0,0,0,0,0,0,0,78,0,0,182,0,0,0,0,0,0,0,0,26,0,0,0,0,0,0,0,0,0,234,0,0,0,0,0,0,78,0,0,0,0,0,0,0,0,0,0,0,0,0,0,0,0,0,0,0,0,0,0,0,0,130,0,156,0,0,0,0,0,26,0,0,0,0,0,0,0,0,0,0,0,0,0,0,0,26,0,0,0,0,130,130,0,0,0,0,0,182,0,0,0,0,0,0,0,0,0,0,0,0,0,26,26,0,0,26,0,0,0,0,0,0,234,0,0,26,156,0,0,0,0,0,0,10,0,0,0,0,0,0,0,0,0,5,0,0,0,20,20,0,0,0,0,0,0,15,0,5,0,0,0,35,0,0,0,0,0,0,0,0,0,0,10,0,0,0,0,0,0,0,0,0,5,0,0,0,0,0,0,5,0,10,0,0,0,0,0,0,0,0,10,10,5,0,0,0,0,0,25,0,20,0,0,0,0,0,0,0,0,0,0,0,10,5,0,0,0,15,0,15,0,0,0,0,10,15,0,0,20,0,0,0,0,0,0,0,0,0,0,0,0,0,0,0,0,10,0,0,25,0,0,0,10,0,0,0,69,0,0,0,0,23,0,0,0,115,0,0,69,0,0,0,0,138,0,0,0,92,0,0,0,0,0,0,0,0,0,207,0,0,0,0,0,0,0,0,0,0,0,0,0,0,0,0,0,0,0,0,0,0,0,0,0,0,0,0,0,0,0,0,0,0,0,0,0,0,0,0,0,46,0,0,0,0,0,0,0,0,0,0,0,0,0,0,0,0,0,0,161,46,0,0,0,0,0,138,0,0,0,0,0,0,0,23,0,0,0,0,0,0,0,0,0,23,0,0,0,92,0,0,207,0,0,23,184,0,0,0,60,0,0,0,0,0,24,0,0,36,0,0,24,0,0,0,24,0,0,0,0,0,0,0,36,0,12,0,0,72,48,0,24,0,0,0,0,0,0,0,0,0,0,0,0,0,0,0,0,24,12,24,0,0,0,0,0,0,24,0,0,0,0,0,0,0,0,0,0,36,0,0,0,0,0,0,0,0,0,48,0,72,12,0,0,0,0,0,48,0,12,0,0,0,0,0,0,0,0,0,0,0,0,0,0,0,12,0,0,0,0,0,0,84,0,0,0,0,0,0,24,0,0,0,0,0,0,0,0,0,0,0,0,0,0,0,3,0,0,0,0,0,0,0,0,12,0,0,15,0,0,0,0,9,0,0,0,3,0,0,0,0,0,0,0,0,0,24,0,0,0,6,0,0,3,0,0,0,0,0,0,0,0,0,0,0,0,3,0,0,0,0,0,0,3,0,0,0,0,0,0,0,0,0,0,0,0,6,0,0,0,0,0,0,0,0,0,0,0,0,0,3,0,15,0,0,0,0,0,0,0,0,0,0,0,0,0,0,0,0,0,0,0,9,0,0,0,0,0,9,9,0,0,15,0,0,0,18,0,0,24,0,0,6,21,0,0,0,0,0,0,0,0,0,0,0,0,0,0,0,0,0,0,0,0,0,12,0,0,0,0,0,0,0,0,0,0,0,0,0,0,0,0,0,0,0,0,0,0,0,0,0,0,10,0,0,0,0,0,0,0,0,0,0,0,0,0,0,2,0,0,14,0,0,0,0,0,0,0,0,0,0,0,0,0,0,0,0,0,0,0,4,4,0,0,4,0,0,0,0,10,0,0,0,0,0,4,0,0,0,0,0,0,0,0,0,0,0,0,0,0,0,0,0,0,0,0,0,0,0,0,0,0,0,0,0,0,0,0,0,0,0,0,0,0,0,0,0,0,0,0,0,12,0,0,0,0,0,0,0,0,0,0,0,0,0,0,0,0,0,0,0,0,0,0,0,0,0,0,0,0,0,0,0,0,0,0,0,0,0,0,0,0,0,0,0,0,0,0,0,0,0,0,0,0,0,0,0,0,0,0,0,0,0,0,0,0,0,0,0,0,0,0,0,0,0,0,0,0,0,6,0,0,14,0,0,0,0,0,0,0,0,0,0,0,0,0,0,0,0,0,0,0,0,0,0,0,0,0,0,0,0,0,0,0,0,0,0,0,0,0,0,0,0,0,0,0,9,0,0,63,27,0,0,0,0,0,0,0,0,0,0,0,0,54,0,0,0,0,0,0,0,0,45,0,0,0,63,0,0,54,0,0,0,9,0,0,63,0,0,18,18,0,0,0,0,0,0,0,0,0,0,0,0,0,0,0,9,0,0,0,0,0,0,0,0,0,0,0,0,0,0,0,0,0,0,81,0,0,0,0,36,0,0,0,0,0,0,18,0,0,0,0,0,0,9,0,0,0,0,0,0,0,9,27,0,18,0,0,0,0,0,0,0,0,0,0,0,0,0,0,0,0,0,0,0,0,0,0,3,0,0,0,0,0,0,0,0,0,0,0,0,0,3,0,0,0,15,9,0,0,0,0,0,0,9,0,0,0,0,0,0,0,0,0,0,0,0,0,0,0,0,15,0,0,0,0,0,6,0,0,0,9,0,0,0,0,0,0,0,0,0,0,15,0,0,0,0,0,0,3,9,0,0,0,0,0,0,0,0,6,0,0,0,0,0,0,0,0,0,0,0,0,0,0,0,0,15,0,6,0,0,0,0,21,12,0,0,9,0,0,0,0,0,0,0,0,0,0,0,0,0,0,0,0,3,0,0,3,0,0,0,6,0,70,0,0,0,0,0,0,0,0,0,0,0,10,0,0,0,0,0,0,0,0,10,0,0,0,0,0,0,0,0,60,0,0,0,0,0,0,0,0,0,0,0,0,90,0,0,0,0,0,0,0,0,0,0,0,0,0,0,0,0,0,0,0,0,0,0,0,0,0,0,0,0,0,0,0,0,10,0,0,60,0,0,0,0,0,0,0,0,70,0,20,0,0,0,0,0,0,0,0,0,0,0,0,0,0,0,0,0,0,0,0,0,0,70,10,0,0,0,0,0,0,0,0,0,0,0,0,0,0,0,0,30,0,0,0,0,13,0,0,0,0,0,0,0,0,0,0,0,52,0,0,0,0,52,0,0,0,0,0,0,0,0,0,0,0,0,0,39,0,0,39,13,0,0,0,0,0,0,0,0,26,0,0,0,0,0,0,52,0,26,0,0,0,0,0,0,0,0,0,91,13,78,0,0,0,0,0,0,0,39,0,0,0,0,0,0,0,0,0,0,0,0,0,0,0,0,0,0,39,0,0,0,0,0,0,65,0,0,0,0,0,0,0,13,0,0,0,0,0,78,13,0,0,91,0,0,0,26,0,0,13,0,0,13,52,0,0,0,0,0,0,35,0,0,0,0,0,0,0,0,0,0,0,0,0,0,42,0,0,0,7,0,0,0,0,21,0,0,0,14,0,0,35,14,0,0,0,0,0,0,0,0,0,0,0,14,0,0,0,0,21,0,0,0,0,0,0,0,0,0,0,21,7,0,0,0,0,0,0,0,35,0,7,0,0,21,0,0,63,0,0,0,0,56,0,0,0,0,0,0,14,7,0,0,0,0,0,7,14,0,0,0,0,0,0,0,21,0,0,0,7,0,0,0,0,0,21,0,0,0,0,0,0,0,0,0,0,0,0,0,0,0,0,0,2,0,0,0,0,0,0,0,0,14,0,0,14,0,0,0,0,0,0,0,0,0,0,0,0,0,10,0,0,0,0,12,0,0,0,2,0,0,2,0,0,0,0,0,0,0,0,0,0,0,0,2,0,0,0,0,0,0,0,0,0,0,0,8,0,0,0,0,0,0,0,10,0,0,0,0,0,0,0,0,0,0,0,0,0,0,0,8,0,0,0,0,2,0,4,0,0,0,0,4,0,0,0,0,0,0,0,0,0,0,0,0,0,0,4,0,0,6,0,10,0,4,0,0,8,0,0,0,14,0,0,0,0,0,24,0,0,0,0,0,0,0,0,48,0,0,40,0,0,0,0,0,0,0,0,0,0,0,0,0,0,0,0,0,0,56,0,0,0,64,0,0,0,0,0,0,0,0,0,0,0,0,0,0,0,0,0,0,0,0,0,0,0,0,0,0,0,64,0,0,0,0,0,0,0,56,0,0,0,8,0,0,0,0,0,0,0,0,0,0,0,8,0,0,0,0,56,0,0,0,0,0,0,24,0,0,0,0,0,0,0,0,0,0,0,0,0,0,0,0,0,0,0,0,0,0,0,0,72,0,0,0,56,0,0]);
num_demands = 285;
demand_duedate = [-1885450, -1885450, -1885450, -1885450, -1768321, -1768321, -1768321, -1768321, -1612150, -1612150, -1612150, -1612150, -1612150, -1612150, -1495021, -1495021, -1495021, -1338850, -1338850, -1338850, -1338850, -1338850, -1338850, -1338850, -1338850, -1338850, -1338850, -1338850, -1338850, -1338850, -1065550, -1065550, -1065550, -1065550, -1065550, -1065550, -1065550, -1065550, -1065550, -1065550, -1065550, -1065550, -1065550, -1065550, -1065550, -1065550, -1065550, -1065550, -1065550, -1065550, -1065550, -1065550, -1065550, -1065550, -1065550, -1065550, -1065550, -1065550, -1065550, -1065550, -1065550, -948421, -948421, -948421, -948421, -948421, -948421, -948421, -948421, -636079, -636079, -636079, -636079, -636079, -636079, -636079, -636079, -636079, -636079, -636079, -636079, -636079, -636079, -636079, -636079, -636079, -636079, -636079, -636079, -636079, -636079, -636079, -636079, -636079, -636079, -636079, -636079, -636079, -636079, -636079, -636079, -636079, -636079, -636079, -636079, -636079, -636079, -636079, -636079, -636079, -636079, -636079, -636079, -636079, -636079, -636079, -636079, -636079, -636079, -636079, -636079, -636079, -636079, -636079, -636079, -636079, -636079, -636079, -636079, -636079, -636079, -636079, -636079, -636079, -636079, -636079, -636079, -636079, -636079, -636079, -636079, -636079, -636079, -636079, -636079, -636079, -518950, -518950, -518950, -518950, -518950, -518950, -518950, -518950, -518950, -518950, -518950, -518950, -518950, -518950, -518950, -518950, -518950, -518950, -518950, -518950, -518950, -245650, -245650, -245650, -245650, -245650, -245650, -245650, -245650, -245650, -245650, -245650, -245650, -245650, -245650, -245650, -245650, -245650, -245650, -245650, -245650, -245650, -245650, -245650, -245650, -245650, -245650, -245650, -245650, -245650, -245650, -245650, -245650, -245650, -245650, -245650, -245650, -245650, -245650, -128521, -128521, -128521, -128521, -128521, -128521, -128521, -128521, -128521, -50436, -50436, -50436, -50436, -50436, -50436, -50436, -50436, 27649, 27649, 27649, 27649, 27649, 27649, 27649, 27649, 27649, 27649, 27649, 27649, 27649, 27649, 27649, 27649, 27649, 27649, 27649, 27649, 27649, 27649, 27649, 27649, 27649, 27649, 27649, 27649, 27649, 27649, 27649, 27649, 27649, 27649, 27649, 27649, 27649, 27649, 27649, 27649, 27649, 27649, 27649, 27649, 27649, 27649, 27649, 27649, 27649, 27649, 27649, 27649, 27649, 27649, 27649, 27649, 27649, 27649, 27649, 27649, 27649, 27649, 27649];
total_demand_qty = [226, 137, 26, 83, 250, 162, 41, 100, 531, 442, 206, 304, 99, 182, 210, 307, 186, 674, 585, 293, 409, 217, 287, 49, 47, 24, 27, 102, 99, 20, 800, 711, 370, 504, 320, 382, 152, 125, 44, 47, 126, 123, 68, 50, 27, 4, 3, 2, 2, 3, 5, 3, 4, 221, 285, 900, 524, 92, 106, 184, 126, 807, 719, 373, 507, 325, 386, 158, 128, 16, 25, 26, 20, 15, 8, 28, 10, 9, 5, 25, 63, 56, 107, 141, 136, 93, 140, 168, 76, 22, 21, 50, 39, 60, 32, 26, 31, 42, 22, 4, 32, 37, 11, 11, 106, 196, 153, 140, 36, 140, 113, 52, 366, 390, 174, 27, 465, 84, 48, 86, 47, 70, 24, 23, 31, 17, 11, 6, 6, 29, 25, 31, 34, 12, 23, 26, 13, 19, 12, 11, 17, 13, 12, 4, 4, 6, 940, 851, 453, 605, 434, 484, 267, 208, 64, 67, 150, 148, 121, 103, 80, 324, 388, 1026, 650, 3, 4, 1049, 960, 530, 699, 524, 578, 356, 286, 84, 87, 175, 173, 169, 155, 133, 425, 489, 1148, 772, 9, 178, 110, 156, 189, 97, 91, 53, 93, 54, 52, 26, 57, 12, 1, 2, 25, 3, 16, 1073, 985, 544, 376, 172, 56, 30, 60, 20, 1136, 1048, 599, 783, 595, 662, 427, 354, 1269, 1181, 680, 882, 704, 760, 537, 434, 104, 107, 199, 197, 221, 208, 185, 6, 5, 5, 7, 528, 592, 1274, 898, 223, 136, 183, 221, 129, 31, 34, 41, 53, 375, 399, 184, 476, 104, 68, 110, 72, 6, 104, 90, 120, 24, 63, 90, 2, 2, 4, 9, 2, 7, 5, 9, 4, 2, 4, 4, 4, 33, 44, 68];
