reference_tardiness = 8146401;
reference_makespan = 66240;
program_setup_time = 600;
sequence_setup_time = 300;
num_jobs = 8;
num_programs = 2;
job_program = [1, 1, 1, 1, 1, 1, 1, 2];
job_time = [7140, 7140, 7140, 7140, 7140, 7140, 10710, 6120];
num_products = 15;
demand_product = [5, 2, 9, 15, 13, 14, 1, 8, 7, 5, 13, 12, 10, 11, 3, 5, 13, 1, 6, 4];
job_qty = array2d(jobs, products, [0,2,0,4,0,0,12,0,0,0,0,0,0,0,0,0,2,0,0,0,0,0,2,0,0,2,0,0,2,10,0,0,0,0,0,0,0,0,0,0,0,0,6,0,12,0,10,0,0,4,2,0,2,0,0,0,0,0,0,0,8,0,0,0,0,0,0,0,8,0,0,0,2,0,0,0,0,0,0,0,0,6,0,0,0,0,0,0,12,0,0,0,0,0,9,0,0,12,6,0,0,0,0,0,0,0,0,2,0,0,0,0,0,0,2,0,2,0,0,0]);
num_demands = 20;
demand_duedate = [-636079, -636079, -636079, -636079, -636079, -636079, -636079, -636079, -636079, -518950, -518950, -245650, -245650, -89479, -50436, 27649, 27649, 27649, 27649, 27649];
total_demand_qty = [6, 13, 14, 21, 2, 14, 4, 16, 17, 9, 4, 2, 1, 1, 1, 13, 7, 7, 2, 4];
