n = 20;
D = [235,225,241,297,285,108,223,274,194,283,90,108,150,249,191,283,90,290,205,215 ];
q = 0;
prec = array2d(1..0,1..2,[]);
steps = 64;
l = 360;
r = 0;
which = [];
interval = array2d(1..0,1..2,[]);
T = array3d(1..21,1..21,0..64,[0,0,0,0,0,0,0,0,0,0,0,0,0,0,0,0,0,0,0,0,0,0,0,0,0,0,0,0,0,0,0,0,0,0,0,0,0,0,0,0,0,0,0,0,0,0,0,0,0,0,0,0,0,0,0,0,0,0,0,0,0,0,0,0,0,763,782,827,821,872,1016,1096,1189,1311,1249,1248,1227,1209,1216,1236,1242,1130,1111,1152,1072,1052,1089,1074,994,1043,975,935,910,941,920,899,837,810,837,817,825,799,778,805,800,807,814,816,813,817,815,825,818,814,815,818,844,868,851,848,835,814,835,822,814,824,816,822,830,807,883,885,888,894,925,1028,1163,1294,1393,1506,1438,1415,1392,1370,1350,1381,1357,1358,1256,1233,1210,1188,1165,1142,1119,1097,1074,1051,1028,1006,1025,960,937,916,899,896,898,900,913,899,900,899,916,937,913,921,922,943,951,962,960,966,952,967,950,943,945,954,968,994,967,975,973,997,978,1252,1246,1279,1309,1461,1613,1747,1978,2098,2086,2058,1999,2077,1920,1891,1930,1833,1791,1816,1723,1691,1709,1611,1655,1562,1477,1543,1412,1468,1479,1418,1375,1308,1314,1267,1271,1277,1330,1337,1334,1349,1375,1359,1355,1342,1360,1351,1383,1371,1371,1428,1451,1494,1456,1413,1386,1375,1394,1380,1372,1381,1406,1374,1401,1373,110,110,111,111,111,114,128,143,158,172,183,181,178,175,172,169,166,163,160,158,155,152,149,146,143,140,137,134,132,129,126,123,120,117,114,112,112,112,97,97,98,100,100,100,100,100,100,101,100,101,102,108,104,101,98,101,100,98,98,102,100,98,97,101,98,1113,1151,1120,1190,1218,1363,1543,1678,1769,1874,1800,1772,1743,1714,1689,1761,1683,1600,1643,1543,1514,1485,1457,1428,1400,1371,1342,1384,1285,1256,1269,1199,1171,1148,1133,1130,1133,1136,1167,1174,1168,1188,1214,1213,1227,1236,1196,1235,1239,1230,1257,1242,1238,1234,1225,1214,1233,1216,1204,1215,1225,1225,1219,1241,1208,1156,1158,1162,1258,1348,1558,1794,1950,2012,2036,2017,1981,2089,1907,1871,1830,1798,1761,1725,1688,1651,1662,1623,1629,1505,1468,1432,1392,1359,1322,1285,1287,1213,1187,1215,1179,1225,1192,1231,1282,1236,1260,1276,1268,1253,1276,1257,1276,1272,1246,1265,1268,1283,1284,1280,1283,1277,1268,1294,1274,1287,1298,1302,1299,1289,380,382,383,384,385,413,471,522,607,637,638,623,613,603,608,583,573,563,550,543,532,522,512,502,492,491,472,462,452,441,431,421,411,401,391,386,387,388,370,368,370,372,372,372,373,374,372,377,376,377,377,379,378,378,379,381,381,383,381,385,385,385,385,385,385,1066,1078,1110,1124,1199,1310,1485,1644,1740,1807,1768,1745,1717,1662,1637,1690,1661,1570,1622,1484,1467,1467,1447,1401,1383,1355,1299,1271,1243,1207,1221,1188,1132,1109,1108,1120,1108,1096,1121,1153,1105,1115,1136,1120,1129,1144,1131,1134,1170,1133,1137,1150,1151,1154,1133,1158,1162,1156,1179,1122,1145,1156,1182,1133,1130,764,783,828,822,873,1078,1097,1190,1377,1250,1249,1228,1210,1217,1237,1243,1131,1112,1153,1073,1053,1090,1075,995,1044,976,936,911,942,921,900,838,811,838,818,826,800,779,809,806,804,813,808,833,843,839,818,824,837,828,823,817,821,847,852,825,823,825,820,825,823,822,829,863,822,961,932,873,976,932,1124,1184,1320,1459,1464,1483,1461,1481,1363,1419,1316,1293,1293,1359,1223,1199,1298,1228,1129,1231,1083,1156,1122,1073,989,966,978,953,897,884,882,885,887,893,898,888,896,894,914,897,912,911,1051,900,898,896,904,915,885,908,908,900,913,890,898,908,909,896,909,901,669,649,692,653,670,736,834,889,1015,1016,1017,1003,1015,971,955,958,957,908,920,908,891,855,828,812,819,840,765,841,733,763,749,732,707,696,685,662,664,653,662,661,664,678,663,668,662,667,669,675,671,671,670,661,697,720,683,674,682,682,679,679,685,679,670,679,677,667,637,639,674,667,729,821,917,1047,1088,1099,1053,1036,995,980,964,947,954,960,897,881,865,846,833,817,814,835,804,753,737,712,731,720,673,648,675,646,648,660,657,652,664,707,706,698,692,676,720,702,698,701,667,678,714,709,675,700,687,666,701,685,708,701,709,679,343,344,346,346,347,369,417,465,509,557,568,557,550,541,532,518,514,507,495,487,478,469,460,451,441,432,424,415,408,395,387,379,370,363,351,348,349,350,340,340,342,342,349,349,355,374,351,358,350,353,349,354,350,363,361,354,354,347,343,355,351,355,347,357,349,536,510,513,520,526,565,706,740,782,877,838,824,855,799,786,794,800,747,734,722,746,693,714,670,691,638,655,645,601,622,619,566,574,540,535,516,523,524,531,529,531,532,544,536,545,550,544,533,536,536,532,537,537,560,537,536,534,538,539,539,537,540,536,557,538,1028,1039,1071,1054,1119,1251,1417,1554,1635,1743,1683,1657,1618,1603,1579,1605,1577,1495,1541,1431,1415,1388,1397,1334,1308,1281,1254,1227,1200,1165,1180,1120,1093,1070,1054,1080,1046,1057,1090,1090,1074,1090,1073,1112,1080,1089,1115,1164,1092,1107,1101,1104,1100,1116,1123,1098,1089,1088,1095,1103,1096,1104,1101,1100,1085,1158,1023,1137,1056,1130,1348,1611,1657,1732,1748,1710,1726,1601,1633,1663,1548,1540,1606,1509,1443,1517,1428,1437,1337,1324,1260,1335,1205,1284,1214,1194,1109,1072,1097,1056,1038,1074,1046,1080,1067,1066,1068,1073,1111,1101,1110,1095,1103,1119,1105,1106,1104,1103,1130,1134,1100,1111,1115,1116,1136,1118,1118,1133,1179,1129,1151,1110,1052,1161,1153,1376,1503,1618,1750,1750,1764,1737,1753,1630,1696,1575,1547,1542,1536,1463,1435,1500,1454,1351,1317,1282,1356,1272,1271,1184,1156,1162,1140,1077,1064,1114,1066,1069,1119,1093,1122,1103,1099,1112,1157,1116,1098,1120,1146,1137,1129,1128,1128,1137,1120,1136,1119,1130,1127,1122,1120,1121,1123,1154,1141,228,229,230,230,231,241,272,304,336,368,424,375,369,363,357,351,345,339,333,327,321,315,309,303,297,290,284,278,272,266,260,254,276,242,236,232,232,233,223,226,218,222,230,227,242,238,224,228,228,234,232,224,225,231,228,226,230,227,223,227,223,230,230,230,220,406,407,408,409,411,444,503,562,621,668,687,664,653,642,631,624,610,599,588,578,567,556,545,534,524,513,502,491,484,470,462,448,438,427,416,420,413,414,426,400,404,407,401,416,408,418,415,412,418,404,408,408,407,411,411,410,409,411,408,408,407,412,410,417,412,0,0,0,0,0,0,0,0,0,0,0,0,0,0,0,0,0,0,0,0,0,0,0,0,0,0,0,0,0,0,0,0,0,0,0,0,0,0,0,0,0,0,0,0,0,0,0,0,0,0,0,0,0,0,0,0,0,0,0,0,0,0,0,0,0,930,879,889,899,962,1082,1196,1335,1447,1452,1460,1439,1398,1421,1396,1330,1348,1280,1261,1235,1228,1198,1180,1174,1120,1118,1090,1063,1049,1017,981,985,940,952,935,901,916,904,929,929,927,938,945,946,989,977,938,958,968,962,1050,1090,1101,1029,973,999,1001,1009,992,954,968,937,945,943,934,0,0,0,0,0,0,0,0,0,0,0,0,0,0,0,0,0,0,0,0,0,0,0,0,0,0,0,0,0,0,0,0,0,0,0,0,0,0,0,0,0,0,0,0,0,0,0,0,0,0,0,0,0,0,0,0,0,0,0,0,0,0,0,0,0,1063,1068,1078,1091,1178,1353,1566,1714,1809,1847,1834,1825,1769,1737,1705,1672,1671,1598,1575,1543,1514,1479,1444,1414,1442,1349,1317,1287,1252,1220,1190,1155,1123,1096,1080,1072,1085,1083,1089,1085,1090,1098,1099,1100,1107,1105,1107,1113,1105,1112,1137,1111,1112,1107,1119,1124,1122,1127,1127,1121,1139,1127,1121,1131,1123,1477,1422,1461,1538,1637,1870,2011,2216,2262,2239,2316,2253,2138,2134,2098,2106,2028,1975,1978,1962,1894,1865,1834,1777,1786,1771,1734,1649,1670,1581,1506,1498,1478,1452,1425,1452,1437,1497,1550,1541,1534,1624,1591,1582,1575,1568,1586,1616,1577,1621,1635,1606,1562,1593,1583,1597,1602,1577,1628,1692,1658,1659,1673,1611,1610,811,753,763,774,812,907,1001,1121,1205,1249,1262,1223,1206,1215,1212,1156,1149,1104,1087,1065,1061,1025,1021,1006,974,957,930,907,894,866,854,846,817,796,783,774,777,782,766,774,775,801,789,784,781,799,779,782,783,787,779,783,781,792,800,790,795,792,787,792,791,832,813,817,813,828,823,833,836,887,1018,1185,1332,1578,1620,1473,1446,1420,1393,1366,1340,1313,1276,1324,1233,1206,1180,1235,1177,1100,1073,1046,1020,1039,966,939,1005,915,889,844,835,847,844,863,866,869,874,881,874,875,889,878,882,892,888,893,911,902,904,883,886,889,881,871,893,882,883,878,886,879,1333,1352,1380,1430,1589,1879,2195,2225,2245,2333,2360,2216,2238,2198,2186,2133,2076,2001,1942,1977,1867,1849,1813,1746,1779,1694,1629,1590,1618,1533,1517,1433,1414,1386,1355,1380,1368,1376,1459,1468,1438,1456,1451,1499,1460,1488,1503,1563,1480,1512,1489,1503,1484,1533,1509,1478,1488,1470,1482,1514,1496,1521,1502,1514,1478,808,789,800,794,848,931,1071,1165,1263,1285,1296,1268,1248,1250,1246,1183,1190,1145,1122,1104,1092,1062,1052,1041,1001,998,959,946,925,905,877,865,836,823,818,795,800,803,794,806,806,823,817,818,820,830,807,821,812,806,818,825,822,823,850,830,814,810,827,822,812,832,831,840,827,920,915,927,935,1001,1151,1339,1584,1657,1632,1622,1593,1564,1535,1505,1476,1447,1408,1389,1359,1388,1301,1272,1242,1213,1235,1213,1174,1096,1114,1040,1009,979,952,936,972,940,980,975,959,971,962,986,1009,969,973,975,1000,992,985,991,998,993,994,990,989,977,994,980,1003,996,998,993,998,1016,56,56,56,56,56,57,63,70,77,83,90,89,87,86,85,83,82,81,79,78,77,75,74,73,71,70,69,67,66,65,63,62,61,59,58,57,57,57,27,27,27,27,27,27,27,27,27,27,27,27,27,27,28,28,28,28,28,28,28,28,28,28,28,28,28,556,558,559,561,569,620,702,783,863,909,915,900,886,871,857,873,828,813,799,784,770,755,741,726,712,697,683,668,654,639,625,610,596,581,568,564,566,567,564,567,567,575,570,576,570,578,570,575,573,569,572,569,576,583,575,573,572,576,577,575,572,586,570,578,571,1059,1061,1084,1089,1190,1363,1550,1685,1833,1790,1763,1811,1700,1672,1701,1577,1668,1535,1506,1466,1502,1391,1388,1361,1331,1303,1289,1278,1253,1293,1141,1159,1114,1073,1060,1110,1080,1083,1108,1112,1100,1172,1141,1123,1116,1136,1135,1144,1166,1137,1143,1124,1112,1114,1137,1137,1118,1119,1106,1116,1118,1127,1143,1139,1105,591,612,603,605,609,712,802,846,972,972,991,962,1000,931,966,906,891,868,853,837,820,840,796,806,764,759,743,717,701,686,665,654,668,618,604,600,602,604,618,593,600,608,595,616,609,618,615,608,631,605,606,607,602,618,609,613,606,608,606,605,610,610,608,636,615,526,523,506,507,521,566,630,703,776,823,842,816,803,817,820,764,776,737,724,711,709,710,682,703,645,642,619,606,602,601,566,562,560,535,532,510,512,513,521,514,529,565,537,519,534,544,533,532,538,531,538,549,560,549,562,539,524,530,533,536,519,538,530,537,529,381,382,383,385,402,412,466,520,574,620,631,621,611,608,598,581,578,561,551,541,514,521,511,485,491,481,471,461,451,498,431,421,411,401,396,403,404,405,393,401,393,401,399,412,401,417,411,396,416,401,401,399,400,409,399,402,401,407,400,402,396,410,397,407,397,881,876,888,893,952,1094,1273,1424,1594,1568,1559,1531,1503,1475,1447,1419,1390,1352,1334,1306,1337,1250,1222,1193,1165,1188,1109,1130,1053,1071,999,968,940,913,897,932,901,942,936,929,928,928,932,936,938,936,943,935,939,935,945,938,945,942,940,951,935,945,943,943,940,958,942,946,938,418,419,420,421,423,454,515,573,633,684,693,682,671,660,649,639,627,616,605,594,583,572,561,551,539,528,517,506,495,485,473,462,451,440,429,424,425,426,417,419,422,431,429,424,426,427,423,426,425,426,429,438,442,439,432,426,430,433,435,429,426,437,425,432,426,659,661,663,657,681,749,848,948,1039,1082,1086,1068,1051,1034,1005,988,982,964,947,930,912,916,878,860,843,826,808,791,773,756,731,721,704,687,673,669,670,672,667,670,664,672,675,680,700,708,677,676,680,685,680,670,674,689,684,676,679,680,672,679,674,682,679,691,674,738,721,724,724,735,838,939,1052,1135,1180,1188,1162,1143,1099,1080,1087,1088,1046,1030,1011,1001,974,961,954,915,904,879,858,841,819,800,790,766,732,718,730,732,732,717,754,709,706,735,713,724,735,728,737,759,726,726,739,741,743,729,753,747,743,764,722,739,747,769,726,726,659,660,663,665,683,781,885,951,1039,1118,1085,1068,1051,1032,1014,999,981,964,947,929,911,895,877,860,843,825,808,790,773,755,738,720,703,686,673,669,671,673,664,669,672,697,682,698,669,695,670,685,679,677,678,687,699,714,700,697,683,684,697,699,698,695,689,702,687,930,879,889,899,962,1082,1196,1335,1447,1452,1460,1439,1398,1421,1396,1330,1348,1280,1261,1235,1228,1198,1180,1174,1120,1118,1090,1063,1049,1017,981,985,940,952,935,901,916,904,929,929,927,938,945,946,989,977,938,958,968,962,1050,1090,1101,1029,973,999,1001,1009,992,954,968,937,945,943,934,890,932,895,904,947,1041,1190,1311,1395,1452,1456,1434,1410,1387,1363,1387,1318,1295,1271,1248,1233,1202,1177,1186,1131,1108,1123,1132,1038,1015,1019,982,945,923,921,903,906,934,916,935,923,955,929,950,931,960,940,946,939,939,945,944,959,968,963,970,952,952,965,957,968,973,966,978,970,1034,1022,1039,1060,1152,1283,1537,1682,1775,1778,1783,1734,1726,1681,1619,1618,1567,1566,1547,1503,1435,1408,1390,1367,1311,1324,1266,1241,1229,1187,1125,1129,1078,1057,1049,1052,1036,1047,1075,1080,1070,1077,1057,1075,1074,1075,1098,1153,1084,1093,1099,1093,1088,1120,1118,1089,1078,1077,1092,1103,1084,1097,1098,1097,1089,0,0,0,0,0,0,0,0,0,0,0,0,0,0,0,0,0,0,0,0,0,0,0,0,0,0,0,0,0,0,0,0,0,0,0,0,0,0,0,0,0,0,0,0,0,0,0,0,0,0,0,0,0,0,0,0,0,0,0,0,0,0,0,0,0,1824,1835,1932,2198,2551,2884,3055,3126,3160,3194,3204,3105,2965,3042,3019,2946,2858,2817,2808,2628,2623,2591,2488,2445,2351,2301,2231,2206,2102,2048,2002,1945,1867,1849,1879,1875,1881,1886,2252,2249,2221,2243,2246,2294,2257,2286,2306,2366,2282,2314,2294,2309,2293,2335,2309,2290,2295,2287,2286,2317,2307,2331,2305,2317,2275,783,817,787,791,819,894,1013,1131,1219,1279,1287,1267,1291,1226,1248,1231,1164,1144,1123,1102,1082,1061,1041,1037,1000,979,996,967,918,897,908,886,835,815,800,794,797,824,809,810,806,856,836,810,816,836,821,840,874,835,839,824,816,822,825,837,817,820,810,817,818,829,841,838,815,376,377,378,404,380,405,458,510,563,609,619,609,600,635,580,570,603,551,541,532,560,512,502,493,483,473,464,454,444,434,425,415,405,395,386,381,382,383,389,381,372,376,396,408,389,401,399,411,403,430,437,432,410,424,418,396,410,411,431,463,427,446,445,460,432,562,564,566,568,576,629,711,830,876,922,1017,912,897,883,868,853,871,824,809,825,780,765,750,735,749,706,691,677,662,647,633,618,603,588,575,594,614,574,580,582,577,586,580,580,580,582,582,576,580,579,582,579,584,585,585,588,582,583,584,591,585,600,583,587,586,1098,1122,1105,1131,1220,1409,1566,1697,1878,1785,1796,1786,1724,1692,1692,1643,1663,1579,1661,1524,1519,1497,1433,1414,1380,1351,1346,1326,1266,1240,1224,1183,1205,1130,1130,1135,1137,1142,1162,1169,1170,1181,1187,1176,1191,1192,1184,1189,1188,1179,1191,1187,1193,1206,1207,1210,1210,1199,1197,1184,1195,1203,1205,1208,1200,337,338,339,340,341,362,411,487,507,578,598,588,532,523,515,506,497,531,521,471,462,493,483,474,464,428,419,435,429,392,411,402,393,384,347,342,343,344,341,342,347,362,351,348,350,363,347,353,361,370,404,397,406,374,348,351,360,368,363,347,358,365,355,354,355,1035,1023,1040,1061,1153,1284,1538,1683,1776,1779,1784,1735,1727,1682,1620,1619,1568,1567,1548,1504,1436,1409,1391,1368,1312,1325,1267,1242,1230,1188,1126,1130,1079,1058,1050,1053,1037,1048,1073,1062,1057,1060,1072,1113,1096,1105,1090,1107,1112,1114,1111,1107,1099,1131,1133,1097,1113,1108,1114,1152,1121,1128,1133,1184,1133,757,759,761,763,850,911,1065,1225,1305,1340,1322,1311,1288,1251,1217,1204,1180,1168,1156,1120,1085,1062,1029,1014,991,987,953,920,915,881,841,833,809,778,763,770,774,778,798,768,767,777,755,776,766,776,774,815,789,769,768,772,794,778,790,771,774,779,776,776,785,784,771,805,779,677,738,740,742,693,761,932,1118,1117,1220,1158,1140,1122,1150,1074,1111,1119,1032,1069,955,1038,1033,1016,998,970,917,870,852,794,777,821,802,740,705,750,761,746,691,708,712,728,741,725,738,716,737,720,746,730,720,728,730,741,755,739,733,740,729,738,740,737,745,723,733,726,772,791,745,748,777,859,974,1088,1217,1215,1217,1198,1217,1197,1139,1120,1100,1081,1152,1042,1023,1036,984,964,945,925,906,917,867,847,828,864,827,769,756,752,754,756,754,793,751,749,770,754,762,771,767,782,791,761,767,772,777,778,775,791,782,781,797,769,786,791,809,772,769,1006,973,976,1007,1092,1213,1424,1498,1588,1603,1597,1578,1520,1528,1474,1453,1462,1436,1471,1389,1324,1298,1308,1252,1256,1218,1213,1181,1153,1118,1120,1079,1070,1020,1030,1015,1004,1011,1034,1032,1036,1034,1057,1099,1047,1076,1073,1088,1095,1085,1074,1080,1069,1093,1057,1060,1074,1067,1054,1087,1075,1091,1072,1078,1083,1105,1108,1146,1162,1223,1401,1580,1714,1775,1806,1810,1807,1709,1724,1654,1636,1613,1585,1672,1528,1507,1493,1465,1436,1407,1377,1324,1331,1291,1262,1230,1205,1176,1154,1141,1144,1173,1128,1172,1189,1196,1195,1213,1198,1193,1223,1200,1208,1216,1214,1219,1237,1226,1233,1211,1212,1215,1206,1199,1219,1215,1214,1205,1213,1207,298,299,300,301,302,318,360,401,443,483,496,488,468,460,453,445,437,441,433,414,407,410,402,394,386,378,370,362,355,347,339,331,323,315,308,303,304,305,294,293,316,325,339,345,343,293,319,334,301,294,296,297,299,295,297,302,295,296,293,297,297,299,307,322,295,1426,1382,1401,1473,1627,1860,2158,2310,2353,2450,2302,2284,2235,2213,2144,2103,2063,2056,2006,1954,1905,1864,1816,1804,1778,1726,1713,1676,1691,1593,1507,1523,1519,1438,1444,1402,1408,1421,1517,1513,1507,1521,1511,1533,1518,1524,1545,1602,1524,1558,1565,1562,1543,1573,1572,1534,1524,1537,1551,1580,1560,1579,1577,1571,1549,1022,1025,1028,1044,1130,1272,1463,1708,1737,1763,1739,1697,1668,1625,1585,1587,1557,1517,1520,1477,1436,1406,1347,1345,1315,1305,1264,1224,1212,1148,1109,1089,1081,1046,1026,1024,1028,1049,1039,1042,1051,1061,1063,1078,1059,1082,1050,1095,1069,1052,1063,1060,1072,1089,1076,1068,1074,1053,1069,1073,1067,1073,1061,1091,1065,760,762,765,767,792,864,979,1094,1182,1242,1252,1232,1212,1192,1172,1172,1132,1112,1092,1072,1052,1032,1012,992,972,969,932,912,892,872,852,832,812,792,777,771,773,776,774,766,784,809,785,791,778,793,797,794,798,786,806,841,867,843,823,797,778,815,789,781,777,808,790,816,782,701,704,706,708,741,843,915,1022,1122,1150,1154,1135,1117,1098,1091,1061,1043,1025,1105,988,969,951,932,914,895,877,881,871,822,803,800,775,767,730,716,712,728,735,717,720,717,731,723,728,761,730,723,729,729,733,729,741,726,736,730,732,732,729,729,731,731,729,731,731,726,890,932,895,904,947,1041,1190,1311,1395,1452,1456,1434,1410,1387,1363,1387,1318,1295,1271,1248,1233,1202,1177,1186,1131,1108,1123,1132,1038,1015,1019,982,945,923,921,903,906,934,916,935,923,955,929,950,931,960,940,946,939,939,945,944,959,968,963,970,952,952,965,957,968,973,966,978,970,1297,1281,1264,1343,1432,1609,1815,1951,2016,2063,1959,1998,1974,1896,1877,1864,1829,1777,1728,1717,1698,1637,1669,1623,1606,1570,1541,1487,1449,1380,1383,1351,1304,1272,1276,1266,1278,1292,1313,1361,1314,1337,1346,1333,1336,1357,1342,1350,1357,1341,1366,1349,1355,1360,1365,1363,1363,1361,1406,1358,1381,1391,1409,1374,1365,1374,1385,1423,1483,1607,1815,2029,2155,2209,2218,2196,2168,2148,2077,2097,2041,2004,1946,1936,1898,1858,1826,1797,1737,1716,1679,1643,1571,1582,1519,1484,1462,1438,1402,1398,1398,1387,1440,1451,1450,1463,1491,1463,1486,1466,1468,1463,1471,1499,1484,1490,1503,1499,1503,1497,1507,1481,1491,1505,1491,1493,1496,1480,1513,1507,1858,1830,1925,2141,2533,2863,3034,3156,3173,3249,3213,3095,3138,2995,3028,2916,2883,2818,2727,2657,2610,2545,2463,2415,2349,2268,2204,2208,2085,2009,1945,1887,1904,1813,1818,1894,1896,1906,2230,2269,2278,2312,2308,2332,2274,2307,2299,2306,2329,2325,2358,2386,2341,2371,2353,2385,2383,2401,2424,2387,2407,2452,2439,2428,2421,0,0,0,0,0,0,0,0,0,0,0,0,0,0,0,0,0,0,0,0,0,0,0,0,0,0,0,0,0,0,0,0,0,0,0,0,0,0,0,0,0,0,0,0,0,0,0,0,0,0,0,0,0,0,0,0,0,0,0,0,0,0,0,0,0,1327,1371,1385,1388,1500,1763,1938,2039,2115,2135,2127,2082,2084,2006,2024,1956,1892,1862,1823,1784,1756,1768,1756,1677,1698,1631,1593,1552,1490,1493,1456,1453,1366,1368,1384,1383,1381,1331,1395,1447,1402,1415,1428,1422,1417,1430,1425,1421,1445,1415,1418,1441,1434,1444,1442,1461,1452,1448,1473,1435,1455,1481,1478,1455,1447,1777,1796,1884,2094,2483,2798,3097,3250,3257,3249,3188,3132,3095,2998,2948,2879,2829,2761,2687,2688,2572,2507,2426,2378,2314,2288,2169,2120,2114,1977,1913,1858,1804,1780,1767,1788,1871,1826,2099,2159,2130,2160,2185,2178,2190,2174,2156,2188,2165,2125,2150,2157,2159,2160,2185,2188,2159,2153,2182,2137,2161,2179,2221,2192,2150,1460,1463,1496,1628,1926,2241,2554,2687,2767,2763,2793,2645,2725,2538,2531,2427,2391,2317,2266,2206,2165,2113,2040,2001,1946,1874,1818,1906,1707,1652,1597,1542,1509,1464,1457,1500,1541,1538,1642,1612,1624,1637,1641,1659,1678,1686,1657,1690,1659,1632,1628,1694,1702,1698,1686,1700,1685,1703,1680,1696,1680,1669,1636,1650,1646,1084,1087,1104,1116,1213,1343,1537,1697,1767,1795,1769,1890,1699,1678,1641,1642,1587,1563,1528,1477,1472,1458,1457,1428,1390,1358,1343,1320,1250,1232,1228,1240,1133,1110,1103,1095,1102,1101,1161,1154,1147,1236,1230,1205,1182,1175,1195,1238,1198,1234,1237,1220,1167,1179,1205,1211,1215,1185,1226,1282,1226,1222,1243,1206,1205,1706,1640,1710,1893,2258,2579,2879,3002,3073,3063,3226,2937,2903,2814,2800,2691,2649,2615,2512,2446,2403,2341,2262,2218,2156,2078,2017,1971,1894,1833,1772,1713,1682,1638,1633,1677,1788,1719,1873,1885,1902,1919,1918,1912,1902,1938,1903,1918,1943,1912,1930,1933,1947,1960,2103,2053,1948,1940,1942,1934,1928,1918,1931,1983,1937,1397,1428,1452,1522,1653,1868,2082,2206,2258,2266,2254,2225,2195,2078,2161,2104,2065,1947,1937,1956,1897,1865,1835,1738,1752,1680,1677,1572,1614,1520,1485,1491,1482,1403,1399,1428,1388,1484,1474,1461,1465,1467,1470,1501,1502,1495,1490,1502,1520,1504,1507,1502,1503,1528,1542,1514,1518,1528,1531,1543,1534,1525,1551,1594,1563,1472,1474,1607,1668,2003,2226,2472,2653,2649,2655,2677,2588,2497,2451,2414,2416,2439,2262,2245,2204,2212,2166,2158,2039,1990,1951,1908,1857,1783,1720,1658,1596,1546,1512,1503,1513,1600,1545,1652,1658,1613,1614,1657,1642,1649,1658,1657,1663,1713,1665,1675,1687,1687,1693,1672,1700,1709,1710,1747,1703,1693,1700,1756,1690,1697,1861,1898,2008,2191,2327,2554,2743,2882,3027,2918,2828,2869,2855,2768,2718,2630,2651,2550,2507,2488,2432,2389,2389,2275,2270,2225,2195,2078,2106,2062,1992,1927,1930,1864,1875,1887,1874,1941,2246,2241,2282,2561,2292,2266,2279,2381,2346,2340,2362,2360,2301,2314,2405,2414,2381,2268,2299,2292,2340,2351,2291,2330,2303,2318,2309,1478,1473,1615,1675,1823,1881,2088,2199,2265,2344,2427,2233,2243,2161,2176,2109,2102,2013,2069,1945,1925,1894,1923,1801,1794,1761,1769,1656,1624,1600,1563,1536,1535,1487,1456,1476,1544,1482,1577,1568,1585,1612,1629,1660,1603,1642,1633,1652,1680,1680,1819,1858,1948,1749,1641,1625,1644,1647,1633,1655,1642,1673,1642,1669,1656,1101,1129,1106,1110,1231,1363,1534,1677,1746,1836,1797,1738,1718,1690,1654,1603,1621,1565,1541,1520,1490,1520,1517,1391,1383,1344,1362,1336,1281,1232,1209,1184,1163,1125,1098,1129,1113,1121,1133,1170,1134,1135,1164,1136,1153,1157,1156,1157,1170,1159,1177,1161,1164,1173,1176,1174,1173,1175,1210,1173,1196,1203,1223,1182,1176,1077,1119,1103,1097,1282,1318,1492,1682,1758,1797,1863,1701,1673,1646,1618,1655,1613,1532,1508,1481,1526,1523,1554,1371,1339,1348,1334,1250,1269,1205,1178,1175,1149,1100,1134,1112,1088,1091,1119,1154,1154,1136,1164,1141,1164,1183,1151,1146,1176,1135,1160,1153,1167,1168,1253,1265,1200,1158,1161,1151,1143,1138,1159,1211,1131,1740,1670,1744,1932,2302,2622,2921,3043,3113,3102,3284,2975,2948,2851,2837,2735,2685,2650,2547,2487,2436,2374,2295,2250,2188,2110,2048,2001,2043,1862,1805,1742,1703,1667,1667,1711,1749,1748,1984,1977,1978,2015,2040,2034,2009,2010,2029,2081,2039,2067,2084,2093,2065,2076,2064,2055,2046,2032,2075,2131,2088,2113,2113,2065,2044,1209,1195,1250,1241,1380,1526,1721,1854,1927,1952,1940,1911,1855,1850,1794,1844,1776,1726,1693,1664,1611,1603,1556,1520,1490,1459,1446,1416,1385,1400,1307,1346,1251,1242,1250,1209,1212,1232,1284,1267,1269,1267,1302,1340,1290,1306,1307,1337,1326,1353,1360,1350,1320,1358,1321,1315,1327,1319,1344,1418,1397,1422,1402,1364,1378,1405,1408,1513,1538,1814,2224,2532,2790,2770,2832,2728,2671,2614,2593,2500,2443,2386,2328,2271,2205,2375,2167,2043,1986,1929,1872,1814,1812,1700,1643,1586,1529,1479,1443,1432,1439,1515,1458,1535,1535,1548,1578,1548,1572,1551,1554,1549,1556,1590,1568,1575,1589,1588,1588,1586,1598,1567,1578,1590,1578,1579,1585,1570,1598,1594,1357,1382,1383,1439,1552,1778,2004,2114,2179,2192,2187,2151,2087,2063,2051,2011,1948,1916,1875,1827,1806,1817,1805,1726,1674,1675,1638,1556,1531,1520,1498,1462,1396,1369,1371,1363,1386,1373,1426,1410,1415,1417,1570,1461,1452,1444,1444,1468,1539,1542,1470,1457,1461,1481,1616,1491,1481,1472,1498,1491,1482,1483,1510,1522,1507,1419,1419,1456,1502,1647,1830,2214,2152,2244,2292,2253,2220,2180,2140,2136,2023,2030,1970,1956,1907,1887,1894,1879,1794,1722,1732,1736,1601,1599,1595,1540,1474,1460,1433,1433,1426,1415,1486,1497,1510,1529,1540,1520,1539,1528,1533,1518,1542,1550,1531,1534,1543,1547,1560,1551,1562,1529,1549,1579,1544,1542,1522,1537,1565,1542,1297,1281,1264,1343,1432,1609,1815,1951,2016,2063,1959,1998,1974,1896,1877,1864,1829,1777,1728,1717,1698,1637,1669,1623,1606,1570,1541,1487,1449,1380,1383,1351,1304,1272,1276,1266,1278,1292,1313,1361,1314,1337,1346,1333,1336,1357,1342,1350,1357,1341,1366,1349,1355,1360,1365,1363,1363,1361,1406,1358,1381,1391,1409,1374,1365,299,300,252,253,254,265,300,335,370,405,418,412,405,398,411,385,378,372,435,358,352,345,339,332,325,380,312,364,299,292,299,279,272,265,259,254,288,289,258,257,255,258,265,262,264,262,264,263,263,277,287,273,270,269,274,262,266,279,302,278,271,272,277,289,272,705,717,724,707,723,825,921,1020,1132,1157,1172,1139,1096,1116,1097,1058,1060,1006,1003,984,966,954,929,929,893,928,873,838,836,823,783,785,764,750,762,725,732,729,748,714,716,715,740,736,735,724,726,736,774,747,766,761,771,761,752,748,755,786,799,777,752,754,801,769,760,775,778,780,783,805,880,995,1111,1209,1269,1268,1248,1228,1208,1247,1168,1148,1128,1174,1088,1068,1048,1028,1008,988,968,947,973,907,931,867,847,827,808,792,787,789,791,782,797,791,805,797,793,806,817,793,792,795,801,797,794,794,799,804,800,804,798,798,801,800,828,824,835,818,1330,1364,1328,1387,1498,1728,1904,2207,2033,2120,2190,2187,2092,1996,1958,1951,1910,1910,1896,1854,1823,1759,1775,1685,1630,1602,1571,1589,1529,1483,1486,1396,1453,1392,1353,1340,1412,1402,1411,1417,1434,1449,1430,1451,1430,1448,1428,1452,1456,1444,1443,1459,1461,1471,1463,1463,1445,1463,1471,1464,1464,1452,1448,1484,1474,0,0,0,0,0,0,0,0,0,0,0,0,0,0,0,0,0,0,0,0,0,0,0,0,0,0,0,0,0,0,0,0,0,0,0,0,0,0,0,0,0,0,0,0,0,0,0,0,0,0,0,0,0,0,0,0,0,0,0,0,0,0,0,0,0,1006,1009,1087,1029,1087,1279,1422,1498,1588,1641,1633,1712,1581,1555,1588,1568,1478,1452,1426,1400,1374,1348,1322,1296,1270,1244,1218,1237,1166,1184,1114,1165,1062,1040,1025,1021,1023,1026,1054,1059,1058,1072,1074,1069,1067,1083,1060,1070,1068,1065,1066,1088,1084,1078,1076,1087,1068,1067,1080,1075,1059,1073,1062,1084,1068,1199,1241,1232,1315,1395,1567,1749,1879,1962,1948,1997,1925,1898,1863,1924,1801,1803,1712,1689,1676,1619,1589,1565,1554,1497,1466,1458,1498,1424,1386,1318,1288,1252,1250,1260,1217,1260,1281,1312,1315,1268,1273,1311,1297,1302,1311,1305,1312,1364,1311,1320,1333,1334,1336,1311,1338,1350,1350,1383,1334,1325,1333,1383,1313,1314,453,451,449,463,453,497,565,629,690,739,752,747,740,715,691,691,679,668,648,645,631,619,603,591,579,567,555,547,535,524,511,496,484,475,457,456,460,459,454,453,453,456,456,463,455,461,460,453,461,456,455,456,460,467,465,467,456,462,462,468,463,475,465,476,468,996,962,994,1017,1067,1216,1332,1488,1559,1612,1606,1576,1561,1503,1557,1494,1448,1402,1404,1390,1354,1329,1276,1251,1225,1217,1203,1211,1140,1134,1102,1078,1023,1001,1001,996,999,978,1032,1012,1003,1015,1021,1049,1077,1075,1039,1093,1039,1023,1020,1069,1077,1065,1068,1089,1074,1093,1063,1047,1055,1039,1019,1020,1005,706,718,725,708,724,826,922,1021,1133,1158,1173,1140,1097,1117,1098,1059,1061,1007,1004,985,967,955,930,930,894,929,874,839,837,824,784,786,765,751,763,726,733,730,729,732,739,767,745,754,731,744,737,726,747,745,754,771,769,766,747,759,753,762,761,753,759,767,743,759,753,761,796,765,768,803,894,1148,1140,1227,1265,1263,1242,1272,1201,1180,1160,1139,1119,1098,1077,1057,1036,1016,995,974,993,933,913,892,871,851,830,860,806,810,773,775,778,793,816,802,792,805,822,808,823,816,850,827,847,855,836,829,833,847,828,833,837,913,892,859,851,863,863,858,541,582,609,546,553,602,678,816,830,910,957,918,924,909,825,811,797,820,770,756,775,744,810,785,688,707,696,694,633,702,606,618,603,588,625,549,590,571,565,571,571,587,564,579,577,583,582,585,582,573,580,573,579,580,580,580,585,580,585,577,580,586,582,588,592,528,541,543,533,538,597,671,747,818,862,873,855,841,833,815,802,791,781,762,749,735,722,707,696,679,709,656,637,623,616,595,590,608,580,574,536,537,560,559,560,557,560,565,559,564,563,556,560,559,563,560,563,565,568,564,564,564,561,567,576,567,571,561,565,565,318,319,321,322,323,342,385,430,474,517,528,520,512,502,494,487,479,471,461,452,444,432,429,421,412,402,396,386,379,370,362,354,346,337,329,324,322,322,312,317,311,316,317,320,317,324,322,316,322,315,315,314,315,318,315,316,315,317,314,316,312,318,312,319,315,484,485,488,513,509,569,626,675,745,793,800,787,794,761,748,737,725,712,737,685,672,656,648,636,623,609,622,583,572,559,547,534,522,509,497,519,490,492,491,503,488,504,501,503,495,510,492,494,498,494,493,498,499,498,499,503,498,500,506,504,492,509,494,503,494,957,923,934,944,1018,1158,1238,1421,1466,1521,1516,1491,1467,1443,1477,1436,1371,1346,1322,1337,1274,1250,1226,1201,1177,1144,1129,1150,1081,1092,1032,1038,984,962,947,942,937,947,966,957,970,1055,978,959,980,1008,984,968,978,974,976,969,982,981,1001,985,974,969,983,991,968,994,976,985,988,995,1037,1005,1105,1201,1213,1417,1562,1642,1645,1678,1594,1587,1542,1569,1492,1517,1440,1413,1449,1443,1321,1325,1330,1303,1363,1236,1181,1193,1130,1104,1116,1148,1124,1017,1069,1050,1032,1058,1067,1067,1084,1093,1082,1078,1093,1073,1080,1074,1074,1076,1095,1090,1103,1187,1150,1096,1090,1097,1084,1080,1098,1116,1113,1096,938,974,944,952,1015,1137,1375,1439,1521,1536,1537,1522,1546,1471,1446,1412,1395,1370,1345,1320,1295,1269,1244,1219,1207,1207,1168,1112,1093,1062,1042,1017,1042,985,990,953,956,959,989,997,998,1009,992,1004,1013,1008,1000,997,1044,1011,1043,1006,1028,1054,1032,1040,1023,1008,1022,1021,1013,1000,997,1038,983,121,122,122,123,123,126,142,158,175,191,203,200,197,193,190,187,184,181,177,174,171,168,165,161,158,155,152,149,145,142,139,136,132,129,126,123,124,124,109,110,110,110,110,110,112,111,112,111,110,111,111,112,111,112,112,115,112,111,111,112,115,113,112,112,111,299,300,301,302,303,320,363,405,448,488,572,492,484,488,468,460,452,444,436,428,420,412,404,396,388,390,372,373,356,348,340,332,324,316,308,304,305,306,295,294,294,295,295,299,315,301,294,299,303,305,301,299,299,308,300,304,299,300,296,296,296,297,299,305,299,299,300,252,253,254,265,300,335,370,405,418,412,405,398,411,385,378,372,435,358,352,345,339,332,325,380,312,364,299,292,299,279,272,265,259,254,288,289,258,257,255,258,265,262,264,262,264,263,263,277,287,273,270,269,274,262,266,279,302,278,271,272,277,289,272,1170,1174,1180,1218,1296,1491,1640,1776,1871,1904,1895,2063,1833,1803,1774,1779,1712,1682,1706,1621,1607,1562,1530,1501,1501,1455,1410,1393,1350,1319,1289,1284,1229,1232,1191,1188,1224,1207,1258,1246,1277,1267,1279,1315,1276,1283,1282,1307,1318,1305,1307,1320,1314,1309,1295,1289,1284,1305,1285,1296,1298,1305,1279,1292,1314,793,814,812,815,837,1029,1139,1296,1409,1443,1437,1389,1364,1333,1320,1417,1281,1262,1202,1203,1159,1151,1125,1099,1049,1047,1005,979,969,943,902,897,851,826,808,806,807,815,815,813,804,808,823,831,821,839,845,861,839,848,831,836,833,845,831,845,874,843,839,875,845,852,846,846,845,406,407,408,409,411,440,496,552,609,655,665,655,644,634,624,613,603,593,582,572,561,551,541,530,520,510,499,489,478,468,458,447,437,426,416,412,413,414,404,407,403,410,461,439,445,445,419,463,434,437,441,411,417,439,426,417,447,419,410,437,426,458,440,438,420,1694,1707,1806,2052,2406,2717,3004,3188,3220,3187,3222,3069,3041,2967,2893,2837,2800,2766,2671,2654,2528,2546,2420,2312,2248,2195,2121,2058,2062,1909,1888,1834,1814,1735,1736,1757,1775,1833,2057,2030,2052,2061,2069,2064,2077,2088,2070,2088,2100,2091,2119,2125,2092,2088,2118,2134,2118,2142,2153,2099,2123,2164,2169,2140,2124,1063,1096,1070,1093,1153,1327,1461,1647,1699,1736,1728,1738,1673,1645,1617,1625,1603,1535,1576,1480,1452,1424,1397,1369,1372,1348,1392,1259,1231,1204,1176,1174,1121,1123,1082,1079,1115,1085,1141,1150,1123,1134,1128,1160,1141,1157,1167,1229,1147,1191,1183,1189,1158,1236,1192,1146,1144,1138,1172,1200,1188,1218,1202,1199,1170,0,0,0,0,0,0,0,0,0,0,0,0,0,0,0,0,0,0,0,0,0,0,0,0,0,0,0,0,0,0,0,0,0,0,0,0,0,0,0,0,0,0,0,0,0,0,0,0,0,0,0,0,0,0,0,0,0,0,0,0,0,0,0,0,0,623,683,627,629,642,680,858,860,976,989,994,978,962,966,931,943,926,883,867,852,836,820,804,789,773,757,741,725,710,694,678,662,647,631,617,622,615,616,614,619,616,624,625,625,624,638,615,628,619,618,623,633,631,626,631,626,625,624,639,634,621,625,622,626,623,1354,1333,1349,1402,1569,1765,2023,2150,2229,2232,2200,2150,2179,2087,2045,2013,1999,1940,1905,1892,1852,1813,1783,1741,1707,1658,1639,1619,1546,1505,1473,1430,1392,1366,1365,1351,1357,1353,1420,1411,1407,1427,1559,1522,1460,1496,1456,1562,1531,1535,1519,1472,1493,1519,1542,1473,1541,1520,1505,1541,1504,1567,1550,1585,1506,179,179,180,181,181,187,211,236,261,286,301,296,291,286,281,277,272,267,262,257,253,248,243,238,233,229,224,219,214,209,205,200,195,190,185,182,182,183,172,164,157,155,170,163,167,166,164,162,180,172,169,179,177,177,157,171,175,175,186,165,163,163,174,157,154,794,815,813,816,838,1030,1140,1297,1410,1444,1438,1390,1365,1334,1321,1418,1282,1263,1203,1204,1160,1152,1126,1100,1050,1048,1006,980,970,944,903,898,852,827,809,807,808,816,840,828,850,830,850,877,833,829,839,869,871,866,867,877,874,861,858,856,833,863,839,861,858,855,848,856,900,531,532,533,535,541,613,717,822,922,974,976,958,940,922,904,885,867,849,831,813,795,777,758,740,722,704,686,668,650,632,613,595,577,559,542,539,543,546,548,552,548,553,556,555,555,557,553,550,554,552,549,556,557,561,557,554,560,552,559,569,555,567,550,557,559,1021,986,1007,1066,1067,1271,1406,1456,1525,1560,1557,1534,1512,1489,1467,1444,1421,1399,1376,1354,1331,1308,1286,1263,1281,1218,1195,1173,1150,1127,1105,1050,1060,1041,1030,1016,1029,1057,1057,1040,1042,1035,1075,1105,1052,1067,1067,1090,1078,1095,1085,1093,1078,1098,1077,1074,1078,1074,1070,1120,1093,1103,1087,1092,1110,788,764,766,800,795,898,1075,1173,1277,1446,1320,1297,1274,1289,1228,1205,1218,1160,1200,1143,1119,1068,1045,1022,1010,976,953,930,948,885,900,839,816,815,770,805,777,814,832,802,804,820,791,799,804,800,830,798,804,825,886,824,847,897,850,818,820,816,883,931,950,976,973,855,851,1078,1048,1051,1073,1147,1315,1523,1684,1826,1817,1832,1773,1741,1710,1678,1698,1660,1644,1551,1519,1488,1456,1424,1427,1384,1329,1344,1266,1234,1202,1171,1139,1107,1080,1063,1140,1067,1144,1128,1116,1118,1127,1123,1136,1189,1190,1123,1156,1138,1129,1126,1174,1180,1195,1184,1161,1183,1190,1202,1179,1158,1158,1131,1134,1131,954,969,971,971,1047,1183,1393,1557,1677,1675,1684,1636,1614,1576,1583,1626,1488,1458,1429,1399,1389,1346,1310,1311,1263,1251,1205,1163,1133,1103,1087,1057,1015,1000,982,969,974,978,978,1007,1004,1004,1023,999,1012,1032,1004,1008,1027,996,1015,1011,1031,1040,1192,1138,1051,1013,1015,1008,1003,999,1012,1055,988,244,245,245,246,247,257,291,324,358,392,405,399,393,386,380,373,367,361,354,348,341,335,329,322,316,309,303,297,290,284,277,271,265,258,252,248,248,249,238,238,241,242,239,241,242,239,242,241,243,240,239,239,241,243,242,242,241,246,255,239,239,240,245,241,239,1188,1264,1159,1218,1288,1664,1704,1921,2059,1988,2023,1962,2012,1870,1886,1907,1765,1813,1698,1662,1628,1620,1559,1525,1491,1480,1462,1386,1421,1352,1283,1275,1214,1187,1177,1207,1203,1180,1225,1256,1242,1272,1244,1234,1248,1265,1258,1279,1237,1238,1246,1248,1307,1253,1277,1259,1269,1261,1264,1242,1275,1283,1257,1271,1264,796,792,794,854,837,953,1105,1257,1445,1405,1375,1375,1350,1325,1291,1276,1251,1226,1171,1176,1151,1118,1101,1077,1044,1027,1002,977,952,921,903,878,853,828,862,808,812,810,815,817,816,820,821,823,845,843,835,830,835,837,854,862,867,881,839,838,838,839,844,851,838,845,839,888,843,1041,1044,1047,1067,1124,1256,1423,1585,1663,1701,1693,1666,1639,1632,1585,1558,1531,1504,1495,1450,1423,1413,1368,1341,1314,1287,1260,1233,1222,1179,1152,1125,1098,1075,1059,1056,1139,1062,1105,1068,1076,1095,1074,1104,1085,1096,1096,1096,1121,1096,1098,1093,1091,1115,1131,1096,1093,1107,1091,1098,1101,1097,1107,1133,1105,943,945,948,1007,1055,1208,1328,1492,1545,1579,1573,1548,1523,1497,1472,1447,1422,1397,1372,1347,1321,1296,1314,1261,1242,1196,1175,1145,1151,1089,1068,1031,1034,1025,981,957,984,967,996,981,990,1007,975,1034,986,1007,998,1008,1022,1012,1014,996,1016,1037,1073,997,997,1035,1003,1029,1001,989,1015,1024,998,1170,1174,1180,1218,1296,1491,1640,1776,1871,1904,1895,2063,1833,1803,1774,1779,1712,1682,1706,1621,1607,1562,1530,1501,1501,1455,1410,1393,1350,1319,1289,1284,1229,1232,1191,1188,1224,1207,1258,1246,1277,1267,1279,1315,1276,1283,1282,1307,1318,1305,1307,1320,1314,1309,1295,1289,1284,1305,1285,1296,1298,1305,1279,1292,1314,1247,1208,1226,1257,1414,1636,1889,2085,2106,2209,2104,2135,2047,1987,2012,1912,1909,1885,1854,1801,1726,1765,1647,1609,1571,1563,1512,1489,1448,1382,1345,1307,1270,1333,1223,1223,1236,1249,1291,1285,1306,1307,1319,1356,1315,1329,1327,1332,1356,1330,1333,1345,1342,1348,1328,1325,1334,1341,1329,1337,1340,1353,1330,1344,1349,1327,1331,1329,1433,1619,1893,2148,2300,2320,2366,2328,2278,2234,2191,2168,2105,2081,2025,1994,1969,1907,1863,1820,1825,1722,1758,1712,1607,1584,1515,1451,1414,1388,1347,1353,1360,1441,1372,1466,1456,1453,1484,1513,1505,1484,1481,1497,1534,1506,1540,1545,1547,1498,1498,1516,1518,1521,1506,1551,1589,1531,1529,1549,1514,1510,719,722,724,726,750,826,934,1041,1146,1216,1218,1155,1136,1133,1140,1096,1062,1044,1025,1007,1002,970,951,933,914,896,877,859,840,822,803,785,766,748,734,740,732,734,716,702,708,716,733,701,706,709,712,732,737,731,728,853,732,718,851,737,729,737,739,737,737,732,749,747,754,1518,1526,1548,1666,1955,2296,2684,2784,2857,2896,2821,2826,2738,2664,2645,2551,2480,2423,2400,2322,2278,2207,2177,2100,2046,1965,1909,1846,1790,1779,1684,1618,1569,1602,1512,1555,1549,1557,1658,1687,1698,1692,1717,1701,1713,1741,1697,1711,1734,1680,1712,1695,1712,1728,1886,1839,1755,1701,1704,1703,1694,1695,1709,1779,1683,1316,1317,1344,1349,1556,1696,1921,2061,1993,2156,2253,2173,2151,1982,2029,1960,1924,1935,1856,1931,1773,1757,1723,1693,1602,1690,1580,1562,1522,1498,1442,1358,1365,1333,1333,1360,1322,1329,1405,1403,1394,1480,1447,1444,1430,1425,1441,1474,1438,1476,1490,1465,1417,1447,1444,1459,1459,1430,1482,1545,1512,1513,1527,1465,1464,749,751,753,756,784,865,1074,1093,1181,1221,1195,1204,1184,1165,1211,1126,1107,1087,1171,1049,1029,1010,990,971,952,932,913,893,874,855,835,816,797,759,764,742,762,764,748,749,761,785,771,767,758,772,762,789,777,776,848,848,883,836,794,778,783,789,781,772,784,801,776,791,772,0,0,0,0,0,0,0,0,0,0,0,0,0,0,0,0,0,0,0,0,0,0,0,0,0,0,0,0,0,0,0,0,0,0,0,0,0,0,0,0,0,0,0,0,0,0,0,0,0,0,0,0,0,0,0,0,0,0,0,0,0,0,0,0,0,1457,1411,1432,1597,1721,1972,2233,2370,2478,2431,2501,2420,2325,2281,2305,2194,2184,2157,2192,2025,1985,1987,1895,1854,1810,1806,1728,1686,1665,1598,1555,1513,1476,1602,1430,1429,1439,1485,1529,1517,1521,1527,1755,1608,1571,1589,1570,1660,1677,1680,1619,1571,1581,1618,1743,1606,1643,1595,1614,1640,1617,1664,1660,1671,1639,658,660,662,664,682,751,851,951,1039,1068,1085,1055,1050,1033,1015,998,981,963,935,918,911,894,877,859,842,815,807,790,764,755,722,721,703,697,672,668,670,663,667,667,668,675,683,674,682,683,671,683,676,682,682,682,683,685,689,678,690,684,689,692,687,698,680,683,684,1328,1332,1330,1434,1620,1894,2149,2301,2321,2367,2329,2279,2235,2192,2169,2106,2082,2026,1995,1970,1908,1864,1821,1826,1723,1759,1713,1608,1585,1516,1452,1415,1389,1348,1354,1361,1442,1373,1428,1436,1433,1437,1441,1430,1444,1453,1437,1438,1448,1452,1516,1522,1475,1452,1464,1487,1498,1559,1556,1455,1495,1574,1574,1548,1487,1050,1052,1055,1091,1224,1429,1670,1826,1895,1918,1902,1866,1830,1794,1758,1722,1686,1650,1614,1617,1541,1505,1469,1483,1397,1431,1393,1289,1301,1216,1180,1144,1108,1081,1071,1073,1157,1087,1114,1093,1091,1093,1131,1129,1115,1119,1128,1138,1149,1175,1205,1157,1175,1168,1222,1144,1152,1192,1216,1234,1212,1223,1258,1218,1188,944,914,917,926,979,1127,1327,1422,1435,1486,1534,1461,1435,1396,1373,1364,1348,1317,1338,1270,1246,1223,1240,1216,1192,1128,1120,1147,1122,1034,1050,986,990,974,986,925,986,930,955,955,968,984,968,978,966,986,962,985,973,960,970,974,983,992,984,982,974,968,981,980,980,978,966,984,970,1282,1316,1299,1359,1574,1773,1925,2053,2122,2145,2131,2097,2080,2029,2039,1960,1926,1892,1908,1824,1790,1744,1722,1746,1665,1686,1585,1551,1517,1498,1448,1380,1342,1363,1306,1308,1352,1323,1386,1381,1389,1407,1390,1407,1404,1419,1401,1421,1435,1409,1401,1402,1418,1427,1424,1428,1441,1419,1422,1417,1414,1419,1460,1422,1405,1558,1562,1591,1651,1926,2192,2298,2456,2359,2492,2502,2467,2445,2318,2355,2301,2277,2196,2195,2156,2107,2047,2069,2017,1979,1945,1892,1843,1797,1726,1683,1595,1618,1570,1574,1585,1561,1565,1697,1700,1657,1654,1703,1681,1697,1700,1701,1705,1759,1708,1717,1734,1733,1736,1712,1743,1750,1755,1785,1743,1733,1740,1794,1719,1721,1487,1600,1510,1638,1840,2136,2373,2561,2597,2569,2542,2531,2484,2424,2373,2326,2300,2216,2207,2183,2091,2063,1997,2014,1922,1925,1874,1749,1789,1682,1622,1581,1536,1535,1514,1555,1590,1544,1669,1664,1658,1667,1678,1683,1754,1756,1672,1726,1704,1692,1682,1729,1733,1755,1743,1751,1735,1748,1751,1724,1702,1708,1681,1677,1662,620,621,623,625,639,700,793,886,971,1002,1020,992,988,971,955,939,923,906,879,863,858,841,825,809,793,767,760,744,719,712,745,679,663,647,633,629,631,632,636,645,639,644,645,632,655,648,644,644,684,672,633,654,691,687,702,654,648,664,692,640,633,647,653,634,628,1690,1708,1747,2011,2192,2464,2702,2892,2884,2887,2854,2813,2761,2833,2670,2596,2593,2494,2487,2436,2365,2287,2260,2256,2146,2187,2094,1977,1973,1874,1824,1782,1773,1711,1817,1707,1793,1724,1994,1977,1966,1988,1979,2018,1996,1999,2025,2088,2015,2032,2039,2045,2032,2058,2054,2032,2006,2033,2033,2038,2052,2073,2039,2049,2009,1316,1304,1329,1471,1567,1853,2098,2244,2315,2307,2308,2265,2223,2180,2138,2095,2032,2002,2035,1965,1883,1841,1779,1805,1713,1740,1688,1569,1591,1484,1458,1416,1360,1350,1334,1343,1412,1358,1403,1456,1409,1430,1442,1426,1429,1450,1435,1443,1445,1428,1447,1436,1448,1447,1457,1455,1453,1450,1487,1432,1450,1458,1474,1459,1449,1387,1342,1363,1418,1546,1745,1947,2120,2081,2120,2201,2146,2111,2073,2008,1954,1968,2069,1899,1838,1844,1763,1759,1741,1679,1633,1620,1586,1551,1496,1481,1428,1485,1405,1378,1376,1378,1385,1434,1412,1429,1433,1426,1443,1435,1435,1438,1452,1478,1459,1465,1471,1470,1482,1467,1473,1463,1489,1493,1491,1487,1478,1498,1511,1516,1289,1293,1328,1399,1553,1697,1859,1988,2059,2083,2082,2072,2067,1971,1973,1904,1871,1838,1840,1772,1765,1720,1690,1662,1606,1627,1561,1528,1517,1441,1438,1401,1383,1408,1329,1308,1320,1315,1356,1391,1404,1394,1405,1391,1403,1432,1395,1394,1422,1374,1402,1396,1411,1415,1578,1532,1447,1402,1405,1398,1384,1383,1397,1453,1373,1247,1208,1226,1257,1414,1636,1889,2085,2106,2209,2104,2135,2047,1987,2012,1912,1909,1885,1854,1801,1726,1765,1647,1609,1571,1563,1512,1489,1448,1382,1345,1307,1270,1333,1223,1223,1236,1249,1291,1285,1306,1307,1319,1356,1315,1329,1327,1332,1356,1330,1333,1345,1342,1348,1328,1325,1334,1341,1329,1337,1340,1353,1330,1344,1349,261,262,263,264,264,277,314,350,387,423,436,429,422,415,408,401,394,387,380,373,367,360,353,346,339,332,325,318,311,304,297,290,283,276,269,265,266,267,255,251,254,258,248,253,250,255,259,255,266,258,253,251,262,257,266,259,269,257,261,258,264,258,264,261,257,860,782,784,787,820,938,1068,1152,1239,1276,1297,1250,1236,1214,1229,1174,1173,1154,1229,1093,1075,1078,1032,1011,991,971,950,930,910,889,892,849,828,851,795,791,794,796,820,805,806,810,808,809,878,871,812,845,827,812,813,867,871,884,885,884,868,881,883,861,840,837,818,816,814,1144,1149,1150,1174,1255,1402,1589,1730,1827,1854,1843,1844,1785,1756,1780,1697,1693,1636,1610,1629,1577,1524,1494,1486,1431,1405,1418,1344,1319,1288,1316,1227,1201,1176,1160,1180,1160,1167,1189,1243,1192,1210,1214,1208,1210,1235,1216,1223,1239,1206,1220,1225,1231,1235,1231,1243,1239,1229,1257,1214,1236,1248,1264,1235,1233,982,988,1024,1048,1136,1235,1358,1490,1570,1610,1642,1572,1595,1521,1541,1476,1414,1459,1344,1425,1340,1370,1289,1264,1287,1314,1244,1199,1140,1150,1116,1067,1038,1048,1065,976,1002,993,1008,997,1004,1008,1034,996,1007,1013,1012,1030,1035,1031,1030,1157,1034,1026,1157,1037,1036,1039,1040,1035,1039,1039,1059,1057,1062,369,370,402,371,378,397,460,502,565,601,610,604,591,591,572,562,555,543,533,523,513,504,502,484,475,465,455,444,436,426,416,405,397,387,377,372,404,408,376,378,373,385,380,386,378,394,376,383,381,377,378,384,384,380,381,386,384,384,391,384,379,386,379,386,380,1299,1262,1294,1339,1488,1786,1974,2073,2228,2198,2136,2088,2125,2079,1987,1949,1996,1874,1868,1939,1798,1770,1687,1650,1612,1621,1583,1500,1511,1425,1388,1351,1315,1292,1321,1334,1289,1414,1386,1380,1376,1379,1379,1387,1398,1391,1397,1396,1403,1388,1397,1399,1410,1418,1411,1422,1395,1412,1409,1399,1406,1433,1395,1409,1391,1171,1246,1214,1228,1422,1585,1889,2028,2132,2111,2040,2053,1966,1925,1892,1855,1818,1823,1789,1707,1719,1633,1634,1559,1523,1486,1449,1412,1375,1338,1301,1264,1262,1202,1193,1230,1201,1208,1246,1223,1236,1251,1241,1258,1243,1245,1243,1261,1287,1264,1266,1256,1264,1284,1271,1266,1262,1280,1272,1285,1279,1272,1284,1296,1296,0,0,0,0,0,0,0,0,0,0,0,0,0,0,0,0,0,0,0,0,0,0,0,0,0,0,0,0,0,0,0,0,0,0,0,0,0,0,0,0,0,0,0,0,0,0,0,0,0,0,0,0,0,0,0,0,0,0,0,0,0,0,0,0,0,1337,1356,1345,1409,1547,1742,1941,2077,2167,2194,2172,2162,2104,2070,2102,1974,1992,1930,1872,1912,1855,1760,1763,1722,1690,1659,1655,1551,1529,1522,1499,1438,1409,1370,1405,1366,1371,1387,1421,1473,1428,1443,1456,1450,1444,1458,1451,1449,1473,1442,1445,1470,1461,1471,1471,1490,1480,1475,1501,1463,1481,1509,1505,1482,1473,861,783,785,788,821,939,1069,1153,1240,1277,1298,1251,1237,1215,1230,1175,1174,1155,1290,1094,1076,1079,1033,1012,992,972,951,931,911,890,893,850,829,852,796,792,795,797,825,781,789,787,794,809,790,802,793,804,820,820,808,817,823,835,827,833,805,824,823,828,837,829,832,853,847,959,922,924,935,995,1225,1265,1404,1485,1622,1512,1488,1463,1438,1414,1389,1444,1340,1315,1368,1303,1311,1217,1192,1168,1191,1166,1094,1101,1045,1020,996,1008,1015,986,962,936,1026,966,978,976,981,1001,968,985,1004,989,983,1017,993,1085,1069,1097,1026,1152,1105,1036,1009,991,985,1000,976,990,1023,974,882,914,924,912,1012,1101,1190,1383,1449,1521,1464,1398,1375,1353,1343,1371,1281,1307,1310,1254,1197,1175,1184,1106,1138,1166,1093,1089,1045,1021,1027,980,932,959,934,944,948,907,940,928,931,927,940,960,945,947,946,969,980,986,983,986,976,989,969,968,970,976,983,1006,980,985,983,1003,1000,697,688,690,691,714,794,902,996,1087,1119,1123,1111,1090,1071,1057,1038,1024,1008,984,967,987,932,915,897,880,863,840,828,835,786,776,759,731,713,700,736,709,700,699,707,709,732,722,712,713,728,710,724,729,737,782,775,798,770,724,718,731,724,730,715,726,733,721,730,723,360,361,362,363,363,388,438,489,540,585,595,581,577,567,552,548,537,530,520,511,501,519,483,473,464,454,445,436,426,417,407,398,388,379,370,365,366,367,360,358,357,357,361,357,361,357,361,358,357,360,361,362,362,363,365,365,363,369,364,361,369,362,363,365,363,545,546,556,550,535,610,662,769,815,892,912,848,869,857,810,826,812,795,822,800,768,742,727,712,674,684,670,655,641,657,614,578,564,570,557,553,554,536,548,552,556,559,561,549,565,559,563,550,570,564,559,560,572,582,579,575,562,564,571,563,562,563,565,563,555,1298,1303,1312,1360,1469,1648,1943,1985,2077,2132,2084,2069,2018,1984,2045,1918,1899,1849,1819,1833,1777,1711,1687,1674,1616,1585,1666,1508,1487,1452,1459,1383,1356,1331,1315,1336,1317,1323,1391,1379,1419,1687,1427,1367,1415,1511,1448,1386,1484,1457,1405,1409,1489,1468,1465,1376,1402,1396,1443,1444,1383,1434,1396,1403,1415,1076,1111,1074,1130,1227,1347,1446,1745,1746,1753,1681,1809,1715,1646,1667,1629,1550,1566,1545,1494,1496,1432,1421,1382,1352,1326,1310,1240,1222,1212,1187,1160,1129,1090,1112,1066,1112,1158,1116,1122,1170,1430,1172,1110,1160,1258,1192,1130,1233,1200,1150,1156,1235,1214,1200,1118,1139,1142,1182,1188,1120,1175,1141,1145,1151,1137,1100,1098,1131,1220,1509,1559,1723,1775,1977,1793,1756,1725,1705,1699,1671,1714,1612,1559,1595,1537,1541,1443,1432,1378,1403,1373,1290,1305,1239,1210,1180,1151,1155,1166,1142,1117,1171,1158,1167,1165,1181,1216,1202,1215,1227,1189,1221,1220,1222,1231,1233,1228,1223,1208,1196,1222,1210,1200,1210,1218,1219,1207,1218,1202,407,408,410,411,412,444,503,561,620,668,676,666,654,644,633,622,611,600,589,579,569,557,547,536,525,515,504,493,482,472,461,450,439,428,418,413,414,416,404,409,408,412,414,414,412,412,410,422,411,410,416,416,423,429,423,420,418,415,418,419,423,422,415,418,412,571,572,574,576,586,642,727,813,894,981,943,928,913,898,883,868,853,838,823,807,830,777,762,747,732,717,702,687,704,657,642,627,612,597,583,608,581,583,587,582,584,586,586,582,587,586,586,584,584,585,592,592,593,594,592,588,594,593,599,602,596,602,590,588,595,261,262,263,264,264,277,314,350,387,423,436,429,422,415,408,401,394,387,380,373,367,360,353,346,339,332,325,318,311,304,297,290,283,276,269,265,266,267,255,251,254,258,248,253,250,255,259,255,266,258,253,251,262,257,266,259,269,257,261,258,264,258,264,261,257,1075,1096,1076,1102,1206,1298,1525,1666,1745,1795,1736,1709,1680,1710,1626,1615,1570,1541,1549,1503,1475,1431,1403,1375,1378,1321,1292,1265,1237,1216,1181,1187,1126,1103,1088,1085,1088,1091,1097,1097,1115,1142,1110,1138,1110,1129,1111,1130,1136,1111,1113,1122,1127,1153,1143,1128,1120,1120,1131,1134,1128,1127,1114,1150,1121,900,903,928,913,1027,1151,1313,1604,1557,1591,1603,1575,1516,1517,1459,1460,1403,1375,1374,1352,1344,1288,1260,1231,1185,1157,1134,1116,1088,1049,1015,992,973,932,930,925,920,939,938,944,947,989,967,971,968,940,960,971,996,966,1012,984,988,975,976,969,960,950,951,961,953,953,951,976,940,304,305,306,307,308,324,365,405,446,486,498,490,482,475,467,459,452,444,436,428,421,413,405,398,390,382,375,367,359,351,344,336,328,321,313,309,309,310,291,297,296,299,300,301,297,301,295,308,297,297,301,302,310,317,310,305,305,300,308,307,307,309,303,308,303,1644,1598,1700,1834,2133,2667,2813,3034,3046,3034,3020,2921,2940,2876,2787,2748,2692,2595,2504,2491,2371,2372,2260,2230,2155,2098,2089,1975,1996,1833,1801,1724,1736,1633,1616,1622,1639,1662,1801,1808,1828,1841,1828,1862,1833,1842,1825,1847,1856,1840,1840,1856,1863,1880,1865,1879,1846,1868,1876,1861,1859,1845,1857,1887,1866,990,993,967,981,1091,1141,1293,1430,1572,1656,1569,1544,1562,1541,1468,1443,1418,1434,1402,1343,1318,1293,1268,1279,1248,1193,1168,1143,1118,1093,1068,1076,1018,995,979,976,978,981,998,982,985,985,999,1022,998,1011,1011,1027,1039,1040,1038,1043,1034,1051,1031,1029,1029,1037,1046,1069,1046,1050,1050,1076,1061,272,273,274,274,275,288,325,362,399,435,448,441,434,427,420,413,406,399,392,385,378,371,364,357,350,343,336,329,322,315,308,301,294,287,280,276,277,277,266,263,265,271,272,270,272,268,269,276,269,271,273,287,289,282,291,280,272,284,274,266,279,271,273,276,266,530,523,524,514,545,555,628,701,774,821,859,846,832,818,805,791,777,755,750,737,727,709,696,682,679,655,641,628,622,600,587,573,559,546,533,541,543,544,522,530,536,546,542,548,530,547,527,567,541,559,541,541,563,585,556,548,557,549,552,552,556,564,536,542,536,1328,1352,1349,1389,1546,1703,1897,2034,2158,2158,2101,2107,2082,2054,1967,1933,1932,1879,1886,1831,1765,1756,1722,1694,1691,1597,1560,1530,1525,1468,1452,1443,1398,1383,1349,1367,1354,1374,1389,1397,1399,1432,1419,1395,1401,1427,1407,1424,1402,1444,1426,1440,1419,1437,1438,1467,1448,1435,1438,1450,1467,1472,1481,1472,1497,0,0,0,0,0,0,0,0,0,0,0,0,0,0,0,0,0,0,0,0,0,0,0,0,0,0,0,0,0,0,0,0,0,0,0,0,0,0,0,0,0,0,0,0,0,0,0,0,0,0,0,0,0,0,0,0,0,0,0,0,0,0,0,0,0,901,904,929,914,1028,1152,1314,1605,1558,1592,1604,1576,1517,1518,1460,1461,1404,1376,1375,1353,1345,1289,1261,1232,1186,1158,1135,1117,1089,1050,1016,993,974,933,931,926,921,940,946,940,944,942,970,1014,957,983,981,993,1003,1000,992,997,981,1003,976,974,986,977,971,1011,991,1008,990,997,1003,638,639,650,643,711,767,892,1143,1107,1148,1146,1126,1105,1084,1063,1042,1021,1000,979,959,992,917,942,875,854,833,813,792,771,750,729,708,687,667,650,658,652,692,663,642,645,647,706,666,660,653,655,659,697,694,692,683,697,672,715,676,678,703,733,687,671,676,706,701,671,858,868,939,944,924,1061,1149,1293,1363,1397,1408,1375,1355,1335,1315,1295,1275,1255,1303,1215,1206,1185,1144,1145,1115,1095,1053,1098,1035,1025,954,940,955,888,883,919,873,936,919,894,898,898,928,932,915,911,919,929,952,957,990,967,962,960,963,944,954,970,1006,1012,974,988,989,1012,975,869,865,914,880,978,1064,1224,1462,1459,1495,1488,1462,1478,1411,1442,1360,1369,1341,1314,1286,1302,1206,1181,1155,1129,1104,1078,1067,1027,1030,976,949,948,900,884,892,913,923,911,907,916,958,934,944,937,909,922,935,939,924,927,932,946,946,929,931,929,916,919,925,921,924,924,932,915,1153,1183,1169,1255,1392,1504,1728,1894,1948,1985,1968,1899,1928,1862,1807,1745,1762,1693,1717,1675,1677,1602,1576,1530,1488,1470,1419,1423,1351,1325,1326,1267,1214,1232,1172,1181,1177,1220,1262,1246,1234,1249,1248,1276,1312,1313,1272,1383,1272,1250,1250,1304,1326,1297,1306,1323,1307,1332,1296,1279,1291,1274,1245,1252,1234,1061,1076,1092,1076,1233,1384,1579,1859,1841,1862,1811,1835,1747,1733,1701,1686,1637,1604,1572,1559,1584,1474,1443,1411,1379,1347,1315,1296,1264,1218,1198,1166,1146,1099,1071,1106,1083,1105,1127,1116,1113,1128,1115,1150,1120,1128,1151,1206,1130,1150,1147,1152,1144,1146,1166,1144,1134,1141,1141,1150,1144,1147,1149,1159,1138,119,119,120,120,120,123,138,154,170,185,197,194,191,188,185,182,179,175,172,169,166,163,160,157,154,151,148,145,142,139,136,133,130,126,123,121,121,121,108,108,106,108,108,109,108,109,108,106,106,108,106,109,109,109,108,109,110,109,110,115,109,113,108,109,110,1266,1269,1318,1323,1505,1675,1919,2264,2131,2164,2167,2097,2119,2054,1988,1971,1913,1912,1866,1938,1847,1754,1690,1652,1679,1579,1585,1528,1468,1467,1394,1356,1321,1301,1279,1288,1285,1291,1332,1384,1335,1358,1364,1355,1357,1378,1361,1369,1373,1353,1376,1365,1376,1376,1381,1382,1382,1379,1417,1359,1379,1386,1403,1388,1378,903,905,917,969,1025,1123,1273,1568,1517,1657,1567,1539,1512,1461,1457,1429,1402,1374,1416,1319,1344,1264,1236,1209,1181,1154,1126,1099,1071,1027,1016,989,961,935,919,927,906,926,912,948,906,900,932,908,925,935,928,923,959,928,928,942,939,946,930,952,951,944,965,919,942,948,973,928,928,1017,955,958,956,999,1129,1257,1392,1495,1562,1534,1530,1485,1460,1436,1411,1406,1362,1380,1313,1289,1264,1240,1215,1191,1183,1142,1117,1108,1083,1044,1100,995,987,956,967,955,958,976,989,997,997,1011,997,996,1008,996,1000,1014,1009,1019,1031,1024,1017,1000,1011,1013,1009,1004,1012,1014,1012,1023,1012,1009,912,951,954,927,1018,1094,1240,1408,1521,1547,1499,1475,1500,1427,1392,1368,1388,1321,1322,1308,1249,1225,1202,1201,1154,1130,1107,1083,1079,1035,1031,988,972,969,929,948,928,931,928,955,951,948,969,944,959,974,953,950,974,942,961,957,973,981,1137,1087,998,962,961,952,950,947,960,1004,937,1075,1096,1076,1102,1206,1298,1525,1666,1745,1795,1736,1709,1680,1710,1626,1615,1570,1541,1549,1503,1475,1431,1403,1375,1378,1321,1292,1265,1237,1216,1181,1187,1126,1103,1088,1085,1088,1091,1097,1097,1115,1142,1110,1138,1110,1129,1111,1130,1136,1111,1113,1122,1127,1153,1143,1128,1120,1120,1131,1134,1128,1127,1114,1150,1121,865,859,898,868,932,1017,1191,1282,1411,1413,1404,1375,1355,1354,1313,1310,1267,1270,1225,1235,1191,1158,1140,1152,1101,1080,1058,1031,996,974,968,948,941,889,876,881,903,886,897,900,898,909,909,914,904,928,899,909,902,902,901,927,916,916,912,923,916,912,922,928,908,920,899,913,906,28,28,28,28,28,28,31,34,37,40,43,43,42,42,41,40,40,39,39,38,37,37,36,36,35,34,34,33,33,32,31,31,30,29,29,28,28,28,0,0,0,0,0,0,0,0,0,0,0,0,0,0,0,0,0,0,0,0,0,0,0,0,0,0,0,1028,1048,1043,1060,1141,1313,1534,1680,1781,1803,1792,1753,1746,1697,1666,1634,1602,1592,1545,1511,1481,1449,1405,1382,1349,1309,1297,1254,1223,1202,1236,1138,1098,1069,1053,1052,1057,1062,1096,1098,1082,1098,1080,1120,1088,1097,1124,1172,1100,1116,1111,1113,1110,1126,1134,1107,1098,1097,1104,1114,1107,1115,1113,1112,1098,1414,1427,1398,1510,1625,1792,2027,2145,2243,2190,2262,2130,2109,2096,2084,2025,2013,1954,1935,1896,1861,1837,1800,1800,1706,1728,1658,1638,1578,1556,1517,1463,1451,1384,1382,1444,1449,1422,1478,1482,1475,1493,1496,1512,1497,1507,1493,1505,1490,1502,1494,1493,1486,1487,1495,1504,1491,1494,1484,1495,1489,1506,1509,1503,1482,740,733,740,738,784,847,987,1072,1167,1206,1206,1189,1162,1148,1126,1138,1088,1094,1052,1028,1024,994,970,984,946,917,898,881,855,836,873,802,797,763,750,754,766,758,756,758,758,775,762,767,761,781,767,762,775,761,763,767,762,768,764,769,767,775,769,770,764,777,763,774,764,794,803,834,808,853,979,1243,1366,1403,1426,1431,1394,1451,1414,1412,1301,1275,1249,1223,1197,1171,1145,1110,1152,1067,1032,1015,989,1016,937,911,885,859,922,816,815,820,824,845,824,830,827,846,856,840,839,844,863,885,877,886,891,886,879,875,866,871,891,901,906,882,886,904,914,896,1306,1311,1344,1383,1580,1962,2011,2311,2218,2223,2281,2169,2137,2099,2060,2053,1983,2034,1906,1900,1897,1851,1795,1789,1738,1654,1624,1585,1571,1483,1465,1426,1373,1358,1386,1331,1339,1348,1410,1401,1397,1415,1539,1507,1450,1484,1443,1549,1514,1518,1501,1457,1473,1506,1519,1459,1526,1503,1486,1527,1490,1551,1532,1560,1494,766,762,764,764,809,884,1014,1135,1204,1243,1243,1250,1206,1186,1179,1144,1139,1122,1087,1067,1054,1025,1007,987,976,947,927,907,897,877,848,827,825,786,774,788,785,796,802,783,794,792,790,792,835,817,786,782,801,804,797,785,786,798,790,797,791,800,787,791,781,793,797,801,779,886,895,900,905,966,1111,1292,1456,1562,1579,1658,1544,1523,1495,1466,1438,1409,1381,1352,1327,1351,1266,1229,1209,1181,1144,1173,1095,1122,1038,1087,981,955,925,909,958,963,968,935,943,953,977,961,961,954,977,948,982,969,980,1013,1007,1031,1031,974,968,985,983,981,975,988,1001,971,977,970,0,0,0,0,0,0,0,0,0,0,0,0,0,0,0,0,0,0,0,0,0,0,0,0,0,0,0,0,0,0,0,0,0,0,0,0,0,0,0,0,0,0,0,0,0,0,0,0,0,0,0,0,0,0,0,0,0,0,0,0,0,0,0,0,0,529,530,532,534,540,588,665,742,818,865,871,857,843,829,816,802,788,806,760,747,733,719,705,692,678,664,650,636,623,609,595,581,568,590,541,537,538,540,523,533,536,557,538,534,531,536,532,530,532,536,532,533,534,539,538,540,538,539,536,542,541,556,552,554,550,1055,1058,1062,1059,1162,1323,1474,1609,1771,1738,1821,1694,1646,1625,1600,1607,1509,1499,1446,1410,1477,1468,1381,1396,1353,1274,1227,1270,1251,1196,1140,1207,1126,1045,1033,1083,1052,1055,1097,1085,1101,1153,1122,1128,1116,1095,1110,1126,1119,1108,1110,1146,1176,1166,1137,1119,1106,1114,1104,1105,1097,1119,1107,1129,1098,564,566,568,570,579,651,734,857,898,930,934,936,917,896,886,875,844,836,821,798,798,770,755,740,730,710,700,696,681,650,635,625,604,593,577,573,574,576,570,570,567,572,577,590,575,577,592,582,575,579,576,580,579,576,585,587,583,583,580,584,591,613,614,617,608,484,477,479,480,496,547,604,662,731,778,785,773,761,748,736,723,711,719,686,673,672,649,636,648,621,599,586,596,561,549,537,524,520,518,487,491,496,497,478,478,478,479,483,483,490,485,484,488,485,487,490,492,491,487,495,496,496,506,499,491,509,495,496,498,495,354,355,356,357,346,381,431,481,531,576,586,577,568,558,549,540,531,521,512,503,494,468,459,450,441,432,438,429,419,396,401,378,382,373,364,347,348,349,349,345,345,345,354,351,349,354,346,387,351,346,354,353,349,354,356,355,350,354,348,360,351,353,351,356,353,847,856,861,864,918,1054,1227,1389,1496,1514,1517,1482,1462,1435,1407,1380,1352,1325,1297,1273,1299,1215,1178,1160,1133,1096,1128,1050,1023,995,1045,940,915,886,870,869,873,878,878,888,896,917,909,913,911,909,889,908,898,884,897,906,904,899,929,914,891,889,900,899,888,900,901,905,890,391,392,393,394,395,423,478,534,589,638,649,638,628,618,608,597,587,577,566,556,546,536,525,515,504,494,484,474,463,453,443,432,423,412,401,397,398,399,394,394,399,407,410,410,418,399,399,409,404,395,403,403,400,396,426,415,396,396,393,395,396,406,409,404,396,631,633,635,637,668,715,810,905,994,1026,1042,1026,1009,992,976,959,942,926,909,892,876,859,863,816,809,792,776,759,742,726,701,693,676,659,645,650,659,661,644,633,636,638,693,654,647,644,647,647,676,683,678,666,679,656,705,664,664,684,712,670,660,666,685,692,663,697,693,693,697,730,796,909,1003,1093,1134,1138,1120,1096,1077,1059,1092,1024,1011,988,969,962,938,920,926,891,865,843,825,809,793,774,756,743,718,703,707,713,716,695,700,697,698,732,770,714,702,707,716,708,705,708,710,709,710,716,715,710,712,707,717,724,732,744,716,714,632,634,636,638,653,718,814,910,996,1039,1042,1025,1008,992,975,959,942,925,909,892,875,859,842,825,809,791,775,759,742,724,709,692,676,659,645,641,643,645,639,640,641,656,645,642,641,651,640,642,646,639,640,647,642,644,645,651,646,652,651,651,646,656,644,652,647,865,859,898,868,932,1017,1191,1282,1411,1413,1404,1375,1355,1354,1313,1310,1267,1270,1225,1235,1191,1158,1140,1152,1101,1080,1058,1031,996,974,968,948,941,889,876,881,903,886,897,900,898,909,909,914,904,928,899,909,902,902,901,927,916,916,912,923,916,912,922,928,908,920,899,913,906,980,984,981,998,1105,1190,1362,1488,1581,1617,1602,1614,1541,1522,1562,1456,1442,1448,1413,1397,1351,1365,1281,1305,1251,1215,1201,1196,1147,1116,1078,1057,1032,1009,1053,1006,1030,1004,1024,1032,1034,1035,1037,1042,1066,1066,1039,1070,1068,1068,1085,1082,1081,1092,1068,1060,1051,1053,1069,1068,1059,1055,1050,1074,1063,520,522,523,511,531,561,654,717,791,852,859,845,832,818,783,765,777,763,757,743,723,709,695,682,650,637,641,603,597,600,570,572,559,531,532,528,530,531,546,522,541,530,525,525,556,537,525,519,539,532,527,526,525,524,522,532,527,531,529,522,522,526,531,526,524,753,756,757,759,788,877,1034,1180,1288,1379,1341,1317,1308,1276,1245,1221,1197,1188,1142,1127,1100,1089,1203,1028,1004,980,956,931,907,883,859,835,811,787,769,760,778,774,777,776,778,784,784,781,792,782,786,787,789,784,784,787,792,786,786,797,789,798,798,786,791,793,793,784,781,1761,1757,1786,1951,2047,2414,2493,2621,2750,2737,2666,2677,2609,2586,2517,2478,2435,2362,2363,2307,2224,2220,2189,2133,2102,2053,2006,1970,1920,1914,1834,1786,1765,1782,1714,1772,1737,1773,1976,1965,1979,2070,1993,2008,1994,2026,2031,2083,2006,2018,2019,2022,2037,2031,2056,2035,2025,2026,2032,2050,2039,2047,2035,2056,2053,854,858,855,861,948,1021,1151,1280,1376,1396,1397,1378,1349,1328,1333,1274,1264,1273,1241,1220,1197,1143,1121,1129,1091,1058,1039,1020,995,972,946,927,905,879,874,863,903,875,891,874,886,877,901,924,884,886,889,913,906,898,904,909,905,906,901,900,889,905,890,913,906,907,904,907,925,520,521,523,524,598,690,696,802,905,968,972,953,1035,917,1031,880,862,844,815,807,789,770,752,734,715,697,735,660,642,722,605,587,569,550,533,571,531,534,548,555,548,545,560,571,570,567,552,569,559,565,559,554,552,559,559,564,553,554,550,550,549,555,560,552,541,1047,1097,1031,1046,1120,1258,1711,1637,1735,1846,1772,1741,1744,1679,1793,1617,1586,1555,1588,1588,1462,1486,1471,1396,1364,1374,1275,1295,1247,1210,1173,1135,1098,1065,1042,1040,1047,1076,1083,1072,1081,1116,1092,1070,1080,1099,1082,1145,1204,1098,1108,1105,1095,1088,1091,1115,1081,1083,1077,1080,1083,1110,1107,1124,1097,968,1010,972,983,1117,1167,1408,1543,1584,1582,1603,1550,1522,1566,1497,1433,1442,1433,1423,1362,1321,1373,1273,1267,1223,1242,1166,1147,1122,1086,1066,1049,1019,999,994,1009,996,1028,1003,997,1012,1043,1019,1017,1013,1016,1024,1024,1024,1015,1052,1050,1072,1053,1043,1031,1007,1034,1019,1016,1012,1039,1020,1043,1011,611,613,614,616,629,698,893,955,1064,1124,1125,1104,1083,1138,1041,1020,999,978,951,940,916,951,1027,853,832,811,841,769,748,727,706,686,665,644,625,671,624,628,647,630,633,646,634,639,639,647,639,637,640,632,645,648,653,648,647,644,636,652,642,636,637,659,644,653,641,521,523,524,512,532,562,655,718,792,853,860,846,833,819,784,766,778,764,758,744,724,710,696,683,651,638,642,604,598,601,571,573,560,532,533,529,531,532,515,522,525,553,526,534,519,524,517,518,526,525,522,536,533,539,529,537,534,534,539,531,530,544,517,529,524,0,0,0,0,0,0,0,0,0,0,0,0,0,0,0,0,0,0,0,0,0,0,0,0,0,0,0,0,0,0,0,0,0,0,0,0,0,0,0,0,0,0,0,0,0,0,0,0,0,0,0,0,0,0,0,0,0,0,0,0,0,0,0,0,0,794,796,806,806,886,933,1051,1173,1264,1380,1325,1274,1254,1233,1213,1237,1158,1151,1131,1134,1093,1092,1057,1036,1028,975,983,946,925,894,893,853,865,838,809,806,874,856,830,827,831,840,840,831,841,844,853,843,836,841,860,835,839,840,869,835,837,845,851,847,855,844,838,843,836,390,391,392,393,394,418,467,515,563,604,615,606,597,588,579,570,561,552,543,534,525,516,507,531,489,480,471,462,453,444,435,426,417,408,399,395,396,397,386,386,385,392,448,425,408,433,411,454,424,423,423,395,401,419,408,396,432,406,394,422,414,445,422,420,409,775,760,780,796,795,932,995,1110,1197,1282,1237,1247,1270,1178,1158,1166,1146,1126,1106,1124,1065,1021,1025,1029,985,965,923,924,904,884,907,879,824,837,773,787,813,791,795,795,822,835,852,852,859,808,823,845,809,801,810,810,812,816,831,823,804,802,800,804,808,815,821,835,805,666,681,658,672,691,745,884,962,1058,1111,1093,1076,1078,1060,1132,1025,989,972,989,936,936,902,909,883,850,848,815,798,799,763,759,729,710,710,705,676,703,696,691,691,694,693,686,687,703,702,689,690,699,693,695,699,701,697,694,692,695,700,699,685,699,698,698,695,700,573,574,576,577,586,648,835,889,997,1058,1060,1040,1020,1001,981,961,941,921,895,885,862,899,976,802,783,763,794,723,703,684,664,644,624,604,586,581,585,588,591,587,611,744,616,584,606,652,621,595,645,632,602,605,655,654,628,587,605,599,621,624,593,608,591,599,599,879,899,869,875,940,1066,1234,1292,1396,1413,1409,1419,1364,1342,1369,1298,1410,1274,1230,1256,1184,1162,1166,1162,1094,1072,1050,1027,1005,982,960,938,931,893,881,877,879,903,909,881,873,884,931,983,900,897,908,920,931,908,916,912,917,915,920,920,936,928,925,960,917,922,958,905,905,423,425,426,427,429,459,519,579,639,691,689,688,677,666,655,644,633,622,611,600,589,578,567,556,545,534,523,512,501,490,479,467,456,445,434,430,431,432,431,430,426,427,430,427,430,429,430,427,429,429,432,430,432,433,434,434,430,431,432,435,434,441,433,434,435,732,734,736,738,810,848,1001,1074,1182,1201,1201,1182,1162,1143,1190,1091,1095,1093,1073,1049,1054,1025,971,979,932,902,930,913,856,826,817,801,779,760,746,743,785,747,755,751,755,764,769,764,776,756,759,767,763,754,763,764,760,760,791,778,759,760,755,760,761,771,772,768,762,570,572,573,575,621,641,726,812,929,938,942,927,912,897,908,852,873,872,848,828,791,776,761,746,731,704,701,686,671,645,641,616,611,596,583,579,580,582,573,569,575,582,585,582,582,577,586,588,584,586,586,609,625,614,609,602,585,606,591,583,592,584,594,598,579,980,984,981,998,1105,1190,1362,1488,1581,1617,1602,1614,1541,1522,1562,1456,1442,1448,1413,1397,1351,1365,1281,1305,1251,1215,1201,1196,1147,1116,1078,1057,1032,1009,1053,1006,1030,1004,1024,1032,1034,1035,1037,1042,1066,1066,1039,1070,1068,1068,1085,1082,1081,1092,1068,1060,1051,1053,1069,1068,1059,1055,1050,1074,1063,623,618,618,627,634,682,779,839,923,1019,973,959,945,1031,918,927,894,853,885,844,813,873,785,771,757,742,729,714,738,715,673,660,645,641,628,633,653,627,625,621,633,664,637,621,638,653,637,631,632,634,638,637,642,639,642,633,634,633,646,649,634,648,634,636,641,1034,975,987,999,1081,1183,1349,1531,1633,1568,1560,1563,1491,1493,1444,1454,1429,1425,1414,1371,1347,1342,1286,1293,1247,1221,1196,1170,1134,1101,1092,1053,1028,1012,995,1005,1027,996,1014,1023,1036,1046,1072,1045,1049,1040,1037,1046,1031,1024,1036,1038,1045,1051,1063,1050,1027,1023,1032,1032,1030,1039,1044,1052,1028,654,696,713,660,673,739,836,932,1024,1067,1069,1053,1036,1019,1002,985,1005,952,935,918,901,884,867,850,834,817,800,783,766,749,733,716,699,682,668,686,666,712,662,677,664,699,664,686,670,691,678,687,680,671,689,679,691,687,686,689,693,689,697,684,690,695,689,697,697,1721,1824,1828,1869,2083,2529,2626,2735,2812,2774,2675,2680,2620,2538,2447,2500,2442,2397,2413,2406,2322,2255,2172,2180,2178,2021,2045,2013,2015,1882,1906,1781,1733,1749,1761,1722,1794,1771,2012,2007,2007,2044,2068,2063,2038,2039,2056,2100,2068,2095,2115,2125,2098,2108,2096,2088,2079,2064,2108,2142,2124,2148,2148,2100,2079,516,504,511,512,517,551,651,672,732,846,799,788,777,813,755,749,788,699,724,677,666,722,644,633,622,611,600,589,639,595,556,545,534,531,519,524,510,518,503,503,496,506,509,538,506,511,526,518,507,514,503,511,513,500,513,515,514,513,508,510,521,526,521,527,517,927,970,988,942,994,1107,1253,1388,1475,1525,1505,1481,1478,1457,1492,1386,1398,1369,1314,1290,1266,1242,1218,1194,1171,1147,1123,1099,1075,1051,1027,1029,979,957,944,1037,943,990,960,971,970,985,1020,1028,1016,1032,1007,1042,1027,1014,1017,1004,1030,1042,1030,1012,1026,1012,1017,1026,1023,1035,1019,1049,1021,1059,1084,1066,1152,1152,1382,1463,1614,1594,1665,1625,1601,1577,1554,1499,1507,1531,1490,1436,1482,1389,1403,1341,1318,1294,1271,1247,1223,1243,1176,1153,1217,1105,1086,1098,1072,1075,1077,1098,1099,1111,1153,1139,1137,1134,1111,1121,1143,1143,1124,1149,1157,1177,1160,1156,1137,1123,1127,1122,1124,1115,1133,1116,1160,1106,857,853,828,851,876,990,1096,1270,1358,1358,1296,1277,1272,1270,1217,1211,1219,1224,1184,1183,1163,1160,1104,1103,1064,1020,1020,980,955,951,931,891,888,877,838,850,862,856,869,850,848,855,859,876,919,914,864,896,879,862,869,908,913,920,911,929,916,935,915,899,894,879,867,863,854,880,910,914,931,949,1086,1226,1331,1352,1415,1414,1394,1373,1353,1279,1301,1341,1272,1254,1231,1211,1223,1170,1150,1157,1102,1069,1084,1061,1012,992,955,940,910,895,919,918,938,911,908,905,915,997,982,947,962,948,1020,977,957,974,929,938,981,975,939,1000,950,936,996,969,1013,988,1014,965,1035,976,988,1000,1082,1184,1350,1532,1634,1569,1561,1564,1492,1494,1445,1455,1430,1426,1415,1372,1348,1343,1287,1294,1248,1222,1197,1171,1135,1102,1093,1054,1029,1013,996,1006,1028,997,1035,1045,1034,1119,1078,1074,1045,1055,1068,1101,1072,1080,1076,1069,1045,1057,1057,1077,1080,1052,1073,1092,1066,1057,1076,1060,1049,913,891,900,908,959,1058,1187,1303,1319,1368,1343,1320,1302,1269,1266,1248,1227,1217,1203,1229,1191,1179,1162,1132,1107,1094,1074,1057,1022,1007,1035,964,944,960,910,975,901,914,931,943,939,945,954,967,998,994,938,982,960,967,944,986,1005,1030,1003,1020,1000,1016,1006,976,969,957,958,961,938,0,0,0,0,0,0,0,0,0,0,0,0,0,0,0,0,0,0,0,0,0,0,0,0,0,0,0,0,0,0,0,0,0,0,0,0,0,0,0,0,0,0,0,0,0,0,0,0,0,0,0,0,0,0,0,0,0,0,0,0,0,0,0,0,0,657,655,644,646,663,722,817,897,961,985,990,976,965,947,933,934,909,907,916,878,864,849,836,821,807,819,778,764,742,727,711,696,681,665,653,650,676,653,668,660,659,660,669,662,669,663,668,667,664,662,677,670,675,668,667,672,663,671,664,671,671,671,666,662,660,759,723,729,728,758,834,940,1079,1126,1137,1114,1119,1086,1085,1068,1064,1030,1070,1046,1027,1011,1001,976,938,919,900,879,859,831,810,805,793,769,750,707,716,735,737,737,723,745,741,745,728,735,735,730,804,809,749,761,762,755,748,741,770,728,732,730,728,735,732,729,753,744,881,832,851,839,900,997,1103,1283,1409,1333,1312,1336,1263,1295,1248,1241,1220,1204,1213,1170,1172,1130,1131,1090,1048,1046,1004,1003,962,957,936,915,877,873,844,856,878,844,848,854,859,882,866,866,859,879,862,866,860,864,856,873,860,874,879,878,875,869,863,877,873,909,885,897,889,841,878,889,860,901,1001,1134,1263,1355,1350,1350,1331,1312,1293,1285,1243,1284,1216,1199,1177,1158,1144,1120,1100,1081,1055,1024,1011,989,958,945,914,900,871,857,935,856,899,875,890,891,894,904,916,902,907,889,911,900,917,897,902,920,935,915,924,909,920,917,901,904,897,906,909,889,1355,1350,1386,1422,1509,1673,1884,2056,2215,2054,2042,2137,2039,2030,1967,1896,1859,1851,1859,1850,1815,1743,1725,1675,1673,1586,1550,1674,1484,1494,1420,1376,1379,1339,1361,1421,1379,1363,1433,1426,1425,1430,1418,1429,1421,1422,1443,1502,1430,1452,1459,1458,1450,1464,1472,1445,1437,1445,1449,1458,1445,1453,1463,1466,1457,1107,1071,1081,1120,1202,1335,1502,1678,1657,1647,1694,1668,1616,1617,1592,1537,1518,1488,1497,1503,1438,1429,1407,1379,1354,1331,1296,1278,1245,1203,1209,1165,1127,1120,1107,1109,1098,1097,1120,1120,1110,1137,1128,1134,1135,1151,1134,1127,1128,1143,1135,1128,1126,1127,1134,1138,1135,1137,1123,1127,1128,1145,1144,1144,1124,465,433,434,435,437,470,532,616,669,658,665,655,646,636,627,631,620,645,657,625,615,606,596,586,553,541,530,519,508,494,483,473,462,452,442,436,439,438,423,432,431,434,435,437,433,437,429,446,431,432,437,439,449,458,450,442,444,435,447,444,445,447,439,448,439,461,428,429,431,433,464,526,609,726,651,658,648,639,629,620,624,614,638,629,619,609,600,590,580,547,536,525,513,502,489,478,468,457,447,437,431,434,433,420,423,415,422,426,454,422,427,444,433,423,429,419,426,427,416,427,430,427,425,423,425,434,440,434,441,431,623,618,618,627,634,682,779,839,923,1019,973,959,945,1031,918,927,894,853,885,844,813,873,785,771,757,742,729,714,738,715,673,660,645,641,628,633,653,627,625,621,633,664,637,621,638,653,637,631,632,634,638,637,642,639,642,633,634,633,646,649,634,648,634,636,641,707,713,744,718,737,816,927,1038,1174,1154,1142,1124,1115,1098,1082,1080,1062,1037,1014,999,991,975,953,916,942,899,881,863,823,808,808,815,749,775,722,730,723,718,722,732,721,754,721,744,728,749,736,744,737,730,745,738,748,747,747,747,752,746,758,744,749,767,760,769,769,558,549,570,572,560,653,733,764,855,915,887,922,888,859,879,910,816,810,769,775,761,748,708,702,676,675,644,698,665,662,622,622,625,589,585,575,571,568,588,571,556,560,580,580,583,585,571,578,608,602,601,608,605,640,575,572,586,596,622,608,592,607,611,586,580,773,765,767,770,801,887,1057,1156,1253,1250,1249,1263,1209,1224,1169,1187,1130,1277,1126,1107,1087,1095,1048,1028,997,1017,930,950,958,910,851,831,811,842,778,774,776,778,775,777,783,815,791,802,777,791,782,774,792,795,818,837,836,817,801,817,801,813,814,806,815,832,812,828,816,1422,1427,1451,1444,1633,1875,2032,2176,2211,2291,2199,2132,2098,2176,2124,2084,1909,2031,1902,1928,1821,1787,1791,1798,1761,1716,1690,1615,1607,1549,1480,1474,1444,1387,1340,1338,1373,1387,1447,1453,1458,1478,1484,1505,1494,1520,1489,1511,1527,1524,1522,1486,1518,1551,1503,1514,1534,1527,1509,1512,1521,1495,1525,1524,1490,582,587,581,591,597,655,745,835,914,955,949,923,920,916,893,886,873,858,837,827,819,806,778,756,748,740,721,711,679,668,656,638,619,638,596,586,594,596,594,596,595,611,607,599,602,618,606,607,615,625,730,721,740,657,603,596,611,611,603,602,608,603,601,607,605,700,702,711,802,736,956,983,1123,1232,1275,1270,1317,1347,1190,1177,1154,1131,1108,1085,1062,1039,1016,993,970,938,1030,920,877,846,831,808,785,762,739,721,787,723,727,737,747,751,768,870,822,772,823,774,901,806,828,821,770,800,845,805,776,851,790,779,828,813,879,817,812,789,1212,1215,1222,1263,1371,1580,1892,1963,2022,2088,2027,2074,1986,1990,1866,1871,1803,1843,1861,1743,1759,1667,1659,1596,1603,1524,1528,1482,1435,1406,1398,1322,1298,1249,1252,1234,1280,1250,1321,1296,1312,1371,1332,1344,1332,1317,1323,1337,1334,1318,1323,1356,1386,1379,1353,1335,1317,1333,1318,1312,1310,1342,1325,1351,1312,708,702,701,703,727,794,913,1020,1139,1124,1151,1132,1090,1074,1053,1058,1037,1034,1015,983,963,944,926,907,893,873,875,829,813,801,783,763,746,728,708,709,712,714,714,713,710,710,721,730,747,744,722,722,728,731,728,720,724,743,732,726,722,730,720,730,723,726,724,739,729,792,794,803,806,895,1027,1195,1284,1388,1432,1424,1476,1423,1400,1321,1296,1327,1244,1215,1190,1164,1138,1113,1087,1053,1036,1069,985,953,1039,908,882,856,833,813,858,816,820,837,839,833,845,850,840,848,854,851,850,856,866,938,938,948,890,848,858,863,874,856,854,874,843,855,852,844,559,550,571,573,561,654,734,765,856,916,888,923,889,860,880,911,817,811,770,776,762,749,709,703,677,676,645,699,666,663,623,623,626,590,586,576,572,569,595,582,591,585,588,579,609,592,577,573,592,586,578,578,578,579,575,584,584,583,580,579,573,584,583,583,576,346,347,348,349,351,417,421,469,518,562,631,563,554,545,536,527,518,509,500,491,482,473,464,455,446,437,428,419,410,401,392,383,374,365,356,352,352,353,342,340,340,351,341,342,341,347,339,347,346,343,346,345,346,343,345,348,350,349,348,341,347,349,347,348,349,641,662,661,656,680,705,821,911,1026,1097,1117,1057,1054,1039,1044,1015,990,970,945,913,893,924,827,835,795,820,782,765,764,733,697,684,725,677,626,650,624,654,641,654,652,651,662,659,666,654,654,659,655,655,656,662,671,682,671,683,664,670,671,657,662,655,669,674,653,0,0,0,0,0,0,0,0,0,0,0,0,0,0,0,0,0,0,0,0,0,0,0,0,0,0,0,0,0,0,0,0,0,0,0,0,0,0,0,0,0,0,0,0,0,0,0,0,0,0,0,0,0,0,0,0,0,0,0,0,0,0,0,0,0,416,417,419,439,422,454,513,572,632,679,700,677,666,655,644,633,623,612,601,590,579,568,557,546,535,544,514,503,492,481,470,459,448,438,427,422,423,425,417,415,419,431,429,424,424,422,425,434,433,434,440,457,456,447,442,432,422,426,423,426,418,426,426,433,422,438,456,445,442,462,499,543,630,696,743,764,739,727,690,704,692,680,668,656,621,632,620,608,596,585,573,561,529,537,525,513,501,472,460,466,445,463,464,449,447,450,452,450,449,454,455,450,453,450,453,457,458,461,458,455,454,461,460,467,467,461,468,456,455,461,753,755,764,767,849,972,1067,1216,1322,1367,1361,1336,1362,1340,1262,1237,1270,1188,1160,1136,1111,1087,1062,1038,1004,988,964,939,909,973,866,841,816,794,774,818,777,781,798,787,799,802,790,809,804,807,804,810,835,810,795,799,813,821,813,822,822,808,815,821,809,805,848,808,790,903,902,937,963,979,1144,1290,1408,1450,1486,1436,1479,1433,1403,1392,1446,1398,1343,1267,1373,1222,1200,1164,1200,1119,1092,1069,1125,1058,1104,1009,986,1001,968,966,931,921,927,942,935,932,935,935,970,965,966,952,963,974,961,959,955,957,984,988,960,968,968,967,983,974,970,978,1023,985,539,541,543,544,549,647,677,756,834,873,888,874,860,846,832,818,804,790,775,761,747,733,719,687,691,677,663,633,635,621,607,593,579,565,551,547,549,550,541,542,541,553,544,545,542,547,541,546,545,544,549,546,549,548,546,547,548,547,548,550,545,549,547,547,546,460,461,463,464,467,506,574,681,708,739,743,733,723,713,703,702,689,677,665,653,643,633,616,604,592,580,568,556,544,531,519,507,495,493,471,467,468,469,460,465,464,477,487,485,486,509,486,495,494,507,504,483,492,516,490,480,494,501,485,492,495,501,491,491,490,296,297,323,299,300,317,359,410,422,450,459,453,448,442,437,431,426,420,415,409,404,399,400,392,398,389,382,375,382,363,359,329,321,313,305,301,302,302,295,301,295,300,305,301,301,301,297,299,299,303,294,301,302,304,300,300,304,300,303,309,301,308,295,302,300,707,713,744,718,737,816,927,1038,1174,1154,1142,1124,1115,1098,1082,1080,1062,1037,1014,999,991,975,953,916,942,899,881,863,823,808,808,815,749,775,722,730,723,718,722,732,721,754,721,744,728,749,736,744,737,730,745,738,748,747,747,747,752,746,758,744,749,767,760,769,769,435,436,469,470,441,491,552,603,682,761,731,721,748,700,675,679,703,647,648,617,606,622,592,581,570,559,548,563,528,502,504,493,482,471,475,466,442,443,446,446,447,449,449,450,448,447,449,450,447,449,450,450,450,449,450,449,448,450,447,460,449,450,450,446,445,426,427,429,430,432,466,527,588,650,698,706,694,683,672,684,649,638,627,616,605,594,582,603,560,549,538,526,515,504,493,506,489,459,448,437,433,434,435,430,432,430,426,430,442,452,440,432,447,442,440,435,437,437,446,439,442,444,435,437,437,434,437,439,461,434,1033,1031,1040,1057,1133,1280,1443,1559,1624,1678,1654,1645,1604,1596,1554,1530,1505,1480,1467,1439,1407,1448,1355,1327,1394,1277,1337,1236,1208,1161,1145,1114,1087,1064,1051,1049,1053,1051,1108,1095,1089,1177,1146,1138,1130,1115,1141,1177,1135,1197,1221,1185,1110,1142,1158,1157,1151,1130,1207,1298,1250,1249,1264,1176,1181,1030,1005,1005,1025,1105,1275,1375,1513,1642,1569,1676,1594,1671,1580,1575,1520,1540,1444,1463,1493,1362,1511,1427,1284,1263,1233,1231,1181,1214,1177,1179,1078,1052,1069,1017,1014,1058,1019,1081,1045,1045,1057,1039,1058,1058,1054,1081,1124,1059,1075,1134,1075,1077,1135,1088,1073,1063,1069,1120,1176,1195,1221,1222,1105,1099,309,316,349,350,313,338,375,419,472,504,515,507,549,490,491,483,518,458,458,441,433,425,417,416,400,400,384,413,405,359,351,343,341,366,319,314,315,316,315,307,305,308,308,308,308,311,309,338,309,308,310,311,312,308,315,314,312,312,310,314,314,318,318,320,319,997,989,1002,1017,1221,1285,1483,1644,1829,1746,1808,1702,1665,1641,1632,1587,1552,1521,1486,1459,1428,1396,1371,1334,1306,1296,1265,1202,1274,1243,1117,1091,1144,1025,1015,1015,1020,1025,1073,1078,1067,1152,1127,1120,1105,1099,1106,1141,1108,1127,1127,1114,1081,1097,1103,1119,1124,1089,1114,1149,1114,1108,1126,1101,1096,1504,1538,1554,1676,1754,2043,2233,2411,2440,2382,2384,2399,2366,2281,2234,2301,2183,2147,2103,2044,1978,2011,1945,1905,1913,1864,1803,1767,1694,1640,1687,1591,1559,1559,1499,1529,1556,1552,1626,1626,1633,1640,1654,1697,1646,1678,1679,1700,1700,1690,1678,1686,1674,1700,1665,1670,1685,1682,1665,1702,1686,1708,1685,1696,1700,345,346,348,349,350,372,421,468,519,565,573,567,558,548,537,527,517,512,502,493,480,472,466,454,447,438,427,420,410,399,390,383,373,365,355,351,352,353,340,350,346,348,351,351,351,351,346,353,345,347,348,354,357,358,357,355,351,356,358,350,354,350,348,358,348,1088,1081,1094,1123,1229,1433,1644,1873,1878,1896,1889,1847,1871,1781,1769,1725,1684,1650,1613,1583,1550,1515,1489,1452,1418,1409,1372,1307,1278,1248,1214,1186,1147,1117,1159,1108,1116,1119,1123,1122,1126,1131,1131,1129,1141,1141,1142,1146,1143,1144,1149,1150,1152,1149,1161,1164,1164,1167,1166,1164,1176,1169,1165,1172,1168,427,428,430,431,433,467,528,589,651,699,707,695,684,673,685,650,639,628,617,606,595,583,604,561,550,539,527,516,505,494,507,490,460,449,438,434,435,436,433,435,437,454,470,448,445,470,448,469,470,480,638,596,640,498,454,439,465,446,440,447,449,462,450,450,450,657,656,661,663,679,826,866,967,1057,1092,1098,1075,1062,1040,1045,1012,990,972,951,936,918,900,935,864,849,834,807,793,772,757,739,726,703,682,671,704,670,672,662,687,679,675,669,676,675,684,678,705,689,695,705,684,685,685,703,692,689,697,770,723,712,691,710,701,709,854,843,834,877,917,1010,1132,1310,1319,1344,1445,1354,1340,1332,1343,1309,1238,1224,1209,1222,1119,1118,1116,1093,1119,1033,1058,992,997,990,947,941,893,932,886,865,850,883,878,876,875,886,888,897,915,916,890,905,912,905,920,920,919,940,916,900,898,894,884,905,896,900,896,923,894,440,441,443,444,446,477,548,612,677,724,732,720,708,697,685,673,661,650,638,626,615,603,591,579,568,549,544,533,521,503,497,486,474,462,451,447,448,449,442,431,441,444,429,447,432,442,441,452,460,454,431,439,447,441,442,449,463,448,446,452,444,441,457,515,476,0,0,0,0,0,0,0,0,0,0,0,0,0,0,0,0,0,0,0,0,0,0,0,0,0,0,0,0,0,0,0,0,0,0,0,0,0,0,0,0,0,0,0,0,0,0,0,0,0,0,0,0,0,0,0,0,0,0,0,0,0,0,0,0,0,173,173,174,174,175,180,203,226,249,272,286,281,277,272,268,263,259,254,250,245,241,237,232,228,223,219,214,210,205,201,197,192,188,183,179,175,176,176,162,163,165,169,165,169,163,169,163,170,166,169,164,165,169,171,167,166,167,166,166,167,165,169,162,164,163,1050,1042,1055,1078,1177,1371,1577,1808,1814,1832,1826,1786,1811,1722,1711,1668,1628,1596,1559,1531,1498,1465,1439,1404,1371,1362,1326,1263,1235,1206,1173,1146,1108,1078,1069,1069,1076,1079,1089,1100,1106,1130,1135,1145,1141,1124,1111,1136,1114,1104,1127,1123,1121,1119,1147,1134,1110,1107,1122,1121,1114,1129,1131,1143,1118,721,724,689,728,712,834,970,990,1143,1185,1183,1165,1091,1124,1215,1037,1070,1000,1034,1031,1012,928,910,938,952,901,839,894,854,803,758,787,768,762,699,733,734,699,713,714,710,737,754,781,725,721,724,733,736,724,733,728,724,726,728,730,723,722,720,732,738,743,758,729,724,829,834,840,838,883,1065,1132,1264,1353,1383,1384,1379,1331,1312,1312,1296,1249,1226,1215,1181,1158,1135,1119,1090,1070,1051,1019,1025,974,954,932,914,886,861,867,848,879,853,864,861,847,853,911,960,878,879,886,897,881,893,888,889,883,892,892,891,909,884,884,932,904,916,927,894,891,325,326,327,328,327,349,395,441,526,530,541,532,563,513,507,495,489,481,472,461,455,446,470,429,420,441,401,425,415,377,369,385,351,343,334,328,329,330,317,319,322,331,318,324,320,331,331,318,330,320,324,322,319,325,320,320,322,327,319,323,319,325,322,326,322,387,388,389,391,392,421,477,533,589,635,644,634,623,614,603,593,582,572,563,551,541,531,521,510,500,490,480,470,460,449,438,428,418,408,397,393,394,395,385,380,383,386,386,384,389,388,385,391,388,388,391,392,389,387,396,394,394,397,393,389,399,395,393,394,394,435,436,469,470,441,491,552,603,682,761,731,721,748,700,675,679,703,647,648,617,606,622,592,581,570,559,548,563,528,502,504,493,482,471,475,466,442,443,446,446,447,449,449,450,448,447,449,450,447,449,450,450,450,449,450,449,448,450,447,460,449,450,450,446,445,583,583,586,588,630,697,799,831,913,1010,972,946,930,930,899,922,911,873,879,824,808,801,776,762,757,742,753,712,684,682,689,670,638,609,595,591,623,625,591,594,610,625,607,621,598,619,600,626,609,599,607,609,621,633,617,611,617,606,616,617,611,619,598,608,601,411,419,420,422,423,455,513,572,631,679,687,676,666,655,644,633,622,612,601,590,579,569,558,547,536,525,515,509,493,482,472,461,450,439,429,424,425,426,419,426,423,425,429,426,429,433,422,430,422,424,429,434,435,434,435,429,427,426,438,440,426,431,426,430,429,1154,1157,1162,1198,1292,1445,1629,1760,1833,1892,1865,1942,1800,1763,1752,1724,1694,1705,1638,1603,1555,1548,1497,1519,1438,1584,1427,1363,1322,1405,1264,1316,1232,1204,1173,1188,1174,1177,1227,1229,1229,1241,1244,1239,1267,1260,1252,1252,1264,1265,1341,1341,1355,1314,1262,1258,1264,1264,1264,1267,1267,1265,1258,1310,1262,1097,1070,1063,1137,1189,1315,1540,1625,1735,1784,1725,1709,1682,1662,1615,1588,1605,1604,1562,1498,1451,1442,1395,1368,1339,1344,1285,1292,1303,1203,1207,1148,1136,1110,1116,1132,1096,1088,1126,1099,1114,1115,1154,1145,1121,1121,1126,1136,1188,1168,1168,1169,1180,1162,1191,1162,1151,1187,1199,1176,1162,1160,1191,1214,1182,463,459,460,461,464,541,570,637,703,802,767,745,743,721,709,744,694,673,661,649,637,625,621,601,589,584,602,552,540,528,551,538,492,513,474,497,465,467,468,468,472,483,479,480,484,493,483,479,488,483,490,486,488,492,477,476,484,486,488,473,483,488,477,485,480,1003,1053,998,1024,1266,1284,1526,1759,1756,1778,1767,1769,1707,1687,1652,1617,1646,1554,1609,1500,1459,1427,1396,1364,1333,1301,1272,1238,1213,1154,1139,1109,1061,1046,1022,1021,1026,1077,1058,1078,1066,1088,1089,1084,1087,1108,1076,1098,1077,1074,1090,1093,1097,1096,1106,1097,1104,1097,1105,1084,1088,1092,1096,1108,1101,1532,1557,1539,1643,1906,2135,2360,2572,2554,2591,2569,2670,2482,2451,2404,2326,2283,2239,2195,2227,2135,2152,2075,1978,1962,1910,1846,1800,1791,1715,1677,1630,1571,1564,1535,1539,1566,1558,1687,1686,1675,1770,1696,1716,1700,1743,1741,1790,1720,1770,1755,1764,1731,1782,1774,1709,1708,1709,1758,1799,1759,1794,1773,1777,1753,493,495,496,498,504,548,621,687,763,814,849,804,793,774,761,755,742,729,712,700,687,676,660,650,655,616,625,598,584,568,556,545,532,517,506,502,504,503,495,518,507,521,507,496,501,515,511,524,496,493,504,501,549,503,525,500,514,515,517,502,522,525,501,519,511,1137,1116,1090,1178,1275,1428,1687,1845,1909,1927,2028,1888,1849,1830,1789,1752,1718,1683,1649,1625,1636,1547,1516,1481,1445,1410,1379,1342,1315,1254,1281,1187,1195,1139,1117,1114,1119,1127,1162,1168,1167,1188,1193,1190,1190,1203,1181,1206,1207,1212,1264,1268,1288,1234,1199,1190,1189,1197,1189,1176,1177,1195,1183,1193,1165,447,448,450,451,453,490,554,619,680,728,739,727,737,704,684,680,669,657,645,634,622,610,598,587,575,563,552,561,528,516,505,493,481,469,458,454,455,456,453,447,442,461,448,447,487,486,453,478,463,450,453,475,493,500,501,499,495,507,494,481,478,463,452,457,458,679,684,686,690,713,789,901,1007,1101,1137,1215,1118,1095,1084,1063,1044,1025,1007,988,970,951,933,914,895,877,858,842,821,810,786,762,796,725,794,696,695,695,694,693,736,693,691,708,695,702,710,709,723,732,702,707,713,717,717,713,730,721,720,736,708,725,730,747,712,707,958,971,1049,1033,1081,1170,1349,1502,1602,1712,1594,1581,1556,1602,1548,1467,1450,1420,1426,1349,1355,1344,1305,1286,1302,1230,1170,1160,1153,1152,1094,1061,1057,1016,1010,1016,993,1040,1021,1016,1034,1069,1028,1061,1023,1046,1029,1053,1059,1032,1038,1038,1046,1073,1081,1042,1035,1043,1043,1052,1040,1036,1032,1062,1031,559,561,563,565,573,626,707,787,864,907,1022,897,883,873,858,844,829,814,800,783,769,755,740,726,712,698,684,669,655,641,627,612,625,584,571,568,569,571,609,553,561,561,554,578,557,575,573,564,575,562,564,568,568,571,571,564,567,576,567,570,569,569,563,572,578,227,228,229,229,230,239,270,301,332,363,377,371,365,359,353,347,341,335,329,323,318,312,306,300,294,288,282,276,270,264,258,253,247,241,235,231,231,232,218,218,219,220,223,222,223,232,220,223,224,227,222,225,225,227,230,222,225,225,226,223,223,227,220,223,223,0,0,0,0,0,0,0,0,0,0,0,0,0,0,0,0,0,0,0,0,0,0,0,0,0,0,0,0,0,0,0,0,0,0,0,0,0,0,0,0,0,0,0,0,0,0,0,0,0,0,0,0,0,0,0,0,0,0,0,0,0,0,0,0,0,1099,1077,1051,1085,1222,1366,1619,1779,1844,1864,1966,1827,1789,1771,1731,1695,1662,1629,1596,1572,1585,1496,1466,1433,1398,1364,1333,1298,1272,1212,1240,1147,1157,1100,1077,1075,1080,1088,1090,1092,1105,1130,1115,1113,1105,1120,1110,1138,1127,1127,1200,1200,1235,1190,1149,1134,1137,1145,1139,1133,1144,1161,1137,1152,1135,646,613,677,653,667,690,832,930,1018,1002,1064,1046,1029,957,941,978,961,945,961,911,894,829,814,843,781,809,792,733,758,741,686,669,653,674,671,656,621,623,621,617,631,653,624,642,623,633,625,622,637,630,622,631,631,644,636,640,629,637,637,637,638,644,629,649,641,857,862,891,863,919,1025,1162,1307,1396,1427,1490,1399,1362,1356,1330,1307,1283,1260,1230,1214,1182,1167,1136,1121,1098,1068,1053,1028,1012,978,954,986,909,935,875,887,875,875,876,883,893,917,901,900,893,917,889,922,908,919,952,946,969,970,913,907,924,921,919,913,925,939,908,914,907,494,499,497,502,507,548,623,699,766,812,820,808,794,784,770,753,742,727,719,701,688,679,664,653,640,625,614,596,587,572,561,544,531,519,506,503,506,508,501,503,492,503,509,507,516,522,506,506,508,518,513,504,506,511,510,510,510,509,502,507,503,509,510,508,498,522,524,525,545,553,582,682,737,814,859,864,851,837,876,807,793,779,766,752,740,726,712,720,716,671,657,643,630,616,642,588,574,561,566,575,549,532,533,540,555,537,547,550,548,560,572,542,544,548,553,547,541,546,549,552,547,549,546,546,548,541,555,546,557,540,583,583,586,588,630,697,799,831,913,1010,972,946,930,930,899,922,911,873,879,824,808,801,776,762,757,742,753,712,684,682,689,670,638,609,595,591,623,625,591,594,610,625,607,621,598,619,600,626,609,599,607,609,621,633,617,611,617,606,616,617,611,619,598,608,601,1042,1033,1037,1057,1117,1251,1406,1544,1638,1724,1677,1649,1623,1633,1570,1578,1525,1533,1506,1470,1447,1398,1355,1337,1302,1274,1248,1222,1208,1199,1141,1121,1088,1097,1050,1046,1048,1051,1075,1070,1085,1122,1103,1107,1103,1078,1096,1112,1113,1091,1121,1129,1149,1127,1126,1111,1089,1098,1089,1096,1084,1101,1091,1130,1080,876,878,881,877,923,1067,1240,1388,1503,1531,1517,1524,1475,1461,1433,1405,1378,1350,1322,1295,1273,1213,1218,1184,1156,1157,1101,1063,1045,1002,995,962,920,908,891,890,881,900,889,884,904,930,896,924,894,913,897,914,922,896,899,905,909,934,922,907,904,902,909,914,907,908,894,929,902,266,267,267,268,269,281,316,351,387,422,434,428,421,414,408,401,394,388,381,374,368,361,354,347,341,334,327,321,314,307,301,294,287,281,274,270,270,271,259,265,259,264,270,265,265,268,262,263,263,264,261,264,265,268,264,264,266,263,266,266,264,270,261,266,263,1667,1712,1732,1890,2192,2602,2890,3024,3154,3077,3068,3087,2958,2972,2870,2776,2700,2672,2620,2512,2495,2364,2333,2251,2229,2122,2128,1992,2016,1914,1833,1820,1705,1694,1696,1692,1749,1713,1892,1878,1901,1927,1939,1935,1943,1963,1935,1954,1983,1976,2073,2075,2064,2014,2012,2004,1981,2007,2015,2010,2009,2018,2014,2022,2032,923,926,928,1039,981,1087,1231,1366,1463,1554,1508,1484,1460,1473,1412,1424,1364,1340,1360,1325,1306,1261,1219,1195,1171,1182,1123,1099,1075,1082,1027,1003,979,989,941,937,939,942,950,962,962,980,980,970,973,993,976,985,984,994,1013,986,1009,1040,985,977,989,983,983,982,989,991,980,988,978,234,234,235,236,236,246,277,308,339,371,384,378,372,366,360,354,349,343,337,331,325,319,313,388,380,373,365,283,277,271,265,259,253,247,241,237,238,238,233,222,223,222,227,227,228,225,226,230,236,230,235,234,233,233,233,231,232,240,243,243,235,231,249,242,246,536,538,568,541,547,608,675,811,847,907,884,870,856,842,871,814,800,826,772,758,744,730,716,702,700,685,671,657,657,664,604,590,576,562,549,545,546,547,546,546,541,588,563,555,586,562,555,564,561,562,562,556,548,559,555,561,562,553,550,557,557,561,564,563,552,1306,1266,1292,1365,1493,1671,1862,1949,2050,2045,2068,2042,1963,1926,1944,1916,1833,1860,1771,1770,1734,1730,1686,1603,1618,1565,1539,1520,1444,1436,1442,1400,1317,1356,1316,1283,1335,1290,1373,1386,1378,1438,1425,1421,1411,1409,1414,1447,1421,1434,1430,1435,1401,1413,1401,1424,1429,1401,1421,1438,1414,1405,1420,1397,1394,44,44,44,44,44,45,51,56,62,68,74,73,71,70,69,68,67,65,64,63,62,61,60,58,57,56,55,54,53,51,50,49,48,47,46,44,45,45,17,17,17,17,17,17,17,17,17,17,17,17,17,17,17,17,17,17,17,17,17,17,17,17,17,16,17,877,879,882,878,924,1068,1241,1389,1504,1532,1518,1525,1476,1462,1434,1406,1379,1351,1323,1296,1274,1214,1219,1185,1157,1158,1102,1064,1046,1003,996,963,921,909,892,891,882,901,884,886,893,893,905,896,901,908,894,902,902,901,923,921,916,907,915,911,908,914,911,902,923,913,924,912,911,599,601,602,604,619,704,820,937,1042,1086,1085,1065,1046,1026,1006,986,966,946,926,906,887,867,847,827,807,787,767,747,727,708,688,668,648,628,611,646,613,616,610,613,605,611,610,633,611,619,626,684,615,616,610,616,623,603,618,619,616,622,610,614,624,623,614,623,615,827,870,832,908,868,1102,1122,1231,1302,1347,1371,1327,1296,1289,1269,1246,1220,1212,1192,1197,1191,1193,1106,1073,1041,1030,1039,986,1002,972,973,924,921,924,869,874,842,844,870,878,879,908,878,896,882,902,891,901,888,881,891,894,906,902,905,905,901,902,911,900,905,915,907,917,917,831,833,835,872,878,995,1147,1292,1395,1434,1460,1403,1378,1427,1329,1304,1280,1255,1231,1235,1209,1157,1156,1107,1083,1058,1034,1009,984,960,962,910,919,862,845,870,848,852,866,869,869,879,885,874,878,890,882,884,891,893,902,916,907,914,883,879,890,890,881,889,891,884,883,886,884,1145,1117,1121,1151,1242,1455,1713,1777,1833,1925,1910,1841,1809,1779,1776,1744,1680,1662,1594,1600,1576,1543,1509,1476,1442,1411,1396,1342,1309,1277,1242,1209,1176,1149,1166,1132,1193,1158,1175,1182,1184,1215,1173,1216,1187,1214,1200,1215,1227,1203,1215,1208,1221,1229,1216,1219,1212,1220,1230,1214,1222,1225,1215,1252,1251,1022,1025,1028,1052,1123,1307,1516,1656,1753,1791,1771,1758,1708,1704,1664,1649,1573,1552,1521,1489,1474,1463,1396,1383,1351,1302,1271,1256,1222,1177,1146,1178,1071,1059,1040,1095,1044,1065,1096,1074,1080,1104,1080,1105,1089,1124,1110,1133,1124,1096,1123,1123,1147,1119,1097,1087,1108,1113,1106,1085,1105,1116,1088,1115,1096,0,0,0,0,0,0,0,0,0,0,0,0,0,0,0,0,0,0,0,0,0,0,0,0,0,0,0,0,0,0,0,0,0,0,0,0,0,0,0,0,0,0,0,0,0,0,0,0,0,0,0,0,0,0,0,0,0,0,0,0,0,0,0,0,0,1220,1224,1252,1295,1396,1651,1827,1986,2069,2095,2076,2097,2022,1969,1955,1925,1925,1852,1787,1886,1748,1680,1643,1607,1613,1600,1499,1502,1426,1471,1407,1318,1283,1304,1261,1320,1252,1300,1322,1313,1311,1322,1317,1352,1319,1322,1346,1412,1327,1342,1341,1348,1352,1350,1369,1360,1345,1350,1343,1353,1358,1356,1350,1366,1356,864,867,869,873,922,1053,1219,1379,1478,1597,1507,1480,1454,1427,1401,1439,1347,1321,1273,1268,1241,1215,1188,1161,1135,1108,1142,1055,1029,1002,975,933,922,896,880,863,883,887,875,876,888,921,881,908,883,898,883,893,907,888,882,891,896,920,909,896,886,890,898,898,893,897,883,920,890,900,903,906,929,953,1055,1218,1329,1426,1478,1473,1471,1426,1403,1399,1356,1332,1328,1285,1280,1238,1214,1208,1167,1144,1120,1097,1089,1050,1041,1003,979,970,934,932,914,916,919,937,914,922,919,936,951,932,930,936,954,982,969,978,983,978,976,968,958,962,983,993,999,975,980,996,1012,992,909,875,888,896,972,1063,1191,1295,1378,1415,1433,1424,1366,1344,1357,1319,1287,1280,1231,1244,1231,1173,1176,1118,1096,1095,1051,1049,1005,983,960,957,915,952,905,877,880,882,905,897,907,906,920,917,920,922,911,927,924,922,929,922,921,936,928,928,916,929,911,925,916,915,914,923,938,1042,1033,1037,1057,1117,1251,1406,1544,1638,1724,1677,1649,1623,1633,1570,1578,1525,1533,1506,1470,1447,1398,1355,1337,1302,1274,1248,1222,1208,1199,1141,1121,1088,1097,1050,1046,1048,1051,1075,1070,1085,1122,1103,1107,1103,1078,1096,1112,1113,1091,1121,1129,1149,1127,1126,1111,1089,1098,1089,1096,1084,1101,1091,1130,1080,1107,1108,1135,1146,1240,1384,1557,1701,1765,1890,1798,1779,1752,1737,1679,1649,1604,1575,1606,1566,1516,1484,1444,1421,1369,1375,1347,1303,1290,1246,1217,1191,1163,1140,1124,1126,1110,1129,1156,1146,1142,1146,1150,1189,1180,1197,1175,1184,1191,1184,1180,1181,1176,1214,1210,1177,1192,1187,1187,1218,1196,1195,1202,1249,1206,433,434,435,437,438,441,499,557,615,664,675,664,653,642,632,621,610,600,589,578,568,557,546,535,525,514,503,493,482,471,460,450,439,428,418,439,440,442,417,424,422,434,496,470,444,483,442,506,468,501,468,439,448,469,452,438,488,462,441,471,460,498,469,455,448,1410,1482,1422,1503,1694,1953,2217,2318,2368,2367,2369,2328,2285,2264,2205,2155,2110,2149,2037,2030,1945,1924,1885,1841,1797,1754,1719,1665,1632,1588,1533,1499,1461,1430,1413,1510,1432,1431,1543,1528,1541,1544,1545,1540,1619,1625,1544,1581,1572,1550,1544,1603,1611,1637,1610,1617,1608,1628,1634,1611,1582,1580,1542,1548,1550,1367,1342,1337,1419,1518,1793,1915,2102,2125,2130,2131,2072,2065,2003,1997,1961,1929,1883,1862,1868,1781,1759,1725,1668,1657,1614,1623,1555,1522,1549,1445,1419,1370,1439,1353,1388,1360,1356,1424,1418,1413,1432,1529,1513,1466,1501,1460,1563,1513,1519,1505,1464,1468,1519,1509,1470,1537,1511,1488,1537,1510,1565,1539,1563,1518,981,983,1040,1003,1069,1197,1334,1488,1551,1672,1591,1569,1546,1515,1478,1470,1427,1410,1393,1363,1342,1313,1286,1273,1218,1210,1189,1162,1138,1111,1084,1062,1036,1014,997,1002,982,1002,1028,1030,985,982,1043,1026,1012,1023,1017,1036,1084,1036,1050,1063,1072,1055,1050,1065,1053,1082,1114,1065,1054,1062,1119,1074,1036,1154,1247,1160,1215,1355,1571,1798,1942,2045,1994,2106,1982,1941,1911,1876,1825,1791,1803,1846,1753,1650,1628,1620,1561,1522,1485,1445,1407,1368,1330,1291,1252,1214,1186,1176,1272,1235,1258,1253,1249,1253,1261,1272,1267,1252,1277,1257,1276,1273,1307,1289,1297,1274,1311,1290,1320,1284,1287,1288,1313,1320,1291,1299,1302,1329,1680,1772,1761,1908,2322,2475,2625,2843,2788,2835,2812,2855,2682,2640,2589,2526,2506,2548,2419,2367,2317,2389,2294,2165,2159,2090,2073,1962,1947,1907,1837,1805,1723,1710,1692,1818,1718,1725,1909,1960,1919,1940,1953,1941,1945,1960,1958,1963,1969,1947,1953,1964,1971,1976,1987,1995,1987,1979,1995,1984,2006,2022,2026,2009,2007,1007,1007,1091,1029,1107,1227,1389,1556,1609,1683,1634,1596,1584,1571,1532,1506,1491,1450,1427,1399,1371,1346,1322,1294,1268,1254,1218,1189,1163,1139,1121,1087,1061,1036,1022,1023,1018,1026,1059,1059,1044,1057,1053,1066,1062,1080,1075,1077,1067,1122,1127,1114,1093,1175,1107,1063,1070,1067,1122,1168,1161,1196,1168,1142,1118,1245,1339,1302,1328,1547,1726,1960,2096,2150,2142,2162,2125,2085,2052,2011,1958,1921,1931,1854,1838,1834,1746,1715,1674,1682,1593,1551,1565,1469,1430,1387,1346,1404,1278,1269,1409,1287,1286,1355,1361,1372,1387,1373,1409,1375,1389,1371,1382,1386,1375,1367,1382,1392,1397,1389,1406,1390,1404,1401,1387,1378,1368,1392,1391,1367,475,477,478,480,483,411,465,520,574,622,634,624,613,603,593,583,573,563,553,543,533,522,512,502,492,482,472,462,452,441,431,421,411,401,391,483,484,485,419,417,426,444,416,426,419,425,420,416,424,419,416,418,419,425,420,427,420,422,420,422,420,430,418,426,424,893,895,934,914,974,1084,1263,1363,1445,1441,1479,1455,1426,1408,1385,1356,1355,1314,1285,1267,1230,1220,1197,1173,1150,1126,1110,1083,1056,1029,1040,975,948,923,947,908,921,917,922,930,931,922,934,954,974,937,931,957,940,940,935,957,935,945,942,948,939,938,940,942,942,942,944,942,936,1394,1373,1484,1475,1635,1887,2174,2245,2365,2433,2274,2313,2244,2184,2070,2136,2024,2016,2007,2015,1978,1840,1775,1754,1728,1707,1671,1653,1611,1592,1532,1455,1455,1466,1492,1407,1418,1444,1524,1529,1482,1495,1536,1522,1518,1527,1524,1532,1587,1534,1556,1567,1571,1548,1548,1563,1571,1587,1617,1554,1555,1568,1618,1567,1536,923,909,937,948,1013,1150,1278,1436,1514,1511,1477,1522,1478,1465,1372,1419,1384,1374,1352,1328,1286,1240,1188,1176,1226,1160,1158,1120,1101,1072,1038,1009,984,1001,954,945,948,950,996,980,973,1058,1019,1015,1003,988,1005,1029,1026,1015,1022,1013,991,990,993,1022,1023,1007,1035,1049,1000,986,1028,984,984,723,744,747,730,756,834,945,1055,1174,1255,1185,1166,1176,1128,1137,1090,1072,1053,1034,1015,996,977,959,940,921,902,883,864,846,827,808,789,770,770,738,734,736,757,759,747,747,748,748,749,818,813,751,785,768,752,752,800,809,823,816,822,807,818,822,793,781,775,758,754,753,578,579,581,583,593,648,733,819,901,1044,951,936,921,906,891,876,860,845,830,815,800,785,770,755,740,725,709,694,679,664,649,634,619,604,591,586,588,590,584,590,592,611,601,598,596,622,593,607,606,618,645,644,656,648,600,598,609,613,607,602,607,615,600,602,598,1207,1300,1215,1280,1491,1660,1893,2031,2086,2079,2101,2064,2025,1994,1954,1902,1866,1877,1801,1786,1720,1696,1666,1626,1586,1547,1506,1466,1426,1389,1346,1306,1343,1239,1230,1369,1247,1246,1327,1330,1282,1292,1325,1312,1315,1327,1318,1328,1380,1325,1335,1346,1349,1350,1323,1352,1365,1364,1397,1345,1338,1346,1396,1326,1328,0,0,0,0,0,0,0,0,0,0,0,0,0,0,0,0,0,0,0,0,0,0,0,0,0,0,0,0,0,0,0,0,0,0,0,0,0,0,0,0,0,0,0,0,0,0,0,0,0,0,0,0,0,0,0,0,0,0,0,0,0,0,0,0,0,768,770,773,775,806,953,1080,1206,1317,1353,1261,1229,1220,1200,1180,1160,1140,1120,1099,1079,1059,1039,1019,999,979,958,938,918,898,878,858,838,817,797,783,780,782,784,782,779,781,785,783,789,789,789,790,789,785,783,786,790,790,789,794,792,793,792,794,797,792,808,794,802,797,938,941,966,954,1015,1130,1315,1417,1532,1605,1527,1501,1479,1454,1478,1403,1479,1385,1332,1308,1282,1259,1233,1210,1210,1161,1135,1113,1088,1064,1037,1013,991,967,956,952,994,958,970,967,983,1017,991,983,997,1021,999,986,1001,993,994,993,1000,1006,994,985,994,994,1005,1006,991,1009,985,994,994,979,969,991,1001,1080,1224,1401,1556,1574,1656,1571,1604,1591,1552,1470,1500,1454,1422,1396,1371,1345,1327,1269,1276,1243,1236,1210,1187,1161,1115,1089,1043,1019,1032,1019,1006,1003,1011,1011,1026,1032,1043,1039,1057,1038,1046,1028,1035,1032,1027,1031,1043,1049,1055,1049,1060,1040,1049,1058,1042,1035,1028,1044,1050,1029,1107,1108,1135,1146,1240,1384,1557,1701,1765,1890,1798,1779,1752,1737,1679,1649,1604,1575,1606,1566,1516,1484,1444,1421,1369,1375,1347,1303,1290,1246,1217,1191,1163,1140,1124,1126,1110,1129,1156,1146,1142,1146,1150,1189,1180,1197,1175,1184,1191,1184,1180,1181,1176,1214,1210,1177,1192,1187,1187,1218,1196,1195,1202,1249,1206,1171,1177,1216,1244,1332,1537,1762,1849,1943,1975,2015,1943,1899,1911,1831,1824,1765,1730,1697,1669,1625,1661,1565,1557,1514,1465,1449,1416,1360,1366,1309,1298,1228,1244,1208,1194,1227,1195,1249,1226,1238,1253,1243,1260,1245,1248,1245,1264,1289,1266,1268,1258,1266,1287,1273,1268,1265,1282,1274,1288,1281,1274,1287,1298,1298,628,629,645,647,663,726,862,979,1054,1130,1125,1142,1068,1071,1037,1022,1013,993,960,953,933,894,899,872,852,815,812,798,772,758,732,712,692,672,655,657,646,658,676,678,674,689,690,699,708,685,684,697,724,708,781,686,686,694,698,705,690,679,699,707,709,677,670,677,653,1070,1072,1075,1101,1189,1392,1638,1868,1923,1982,1927,1902,1885,1846,1861,1756,1762,1683,1694,1660,1587,1543,1529,1463,1481,1392,1350,1320,1283,1247,1210,1174,1138,1119,1088,1081,1087,1102,1106,1150,1111,1115,1130,1119,1122,1135,1133,1130,1152,1122,1128,1137,1137,1143,1139,1158,1151,1143,1161,1131,1153,1170,1187,1152,1143,1643,1658,1716,1910,2233,2603,2785,2911,2954,2945,2889,2913,2820,2768,2725,2657,2646,2572,2528,2501,2418,2350,2276,2231,2164,2111,2052,1993,1932,1874,1823,1748,1759,1677,1682,1695,1686,1711,1877,1876,1876,1917,1891,1908,1871,1902,1916,2021,1884,1899,1914,1939,1995,1928,1952,1919,1926,1918,1893,1901,1917,1926,1910,1932,1892,1051,1052,1057,1105,1153,1308,1503,1654,1743,1786,1774,1745,1722,1755,1649,1626,1590,1559,1528,1493,1471,1441,1409,1375,1354,1317,1292,1269,1222,1192,1163,1138,1102,1077,1072,1059,1066,1068,1108,1088,1078,1092,1101,1133,1156,1152,1122,1143,1116,1103,1098,1149,1153,1144,1150,1170,1157,1170,1144,1128,1139,1130,1110,1112,1093,853,838,840,844,1005,1078,1398,1480,1551,1614,1639,1548,1534,1487,1494,1425,1437,1363,1380,1438,1271,1240,1261,1178,1215,1221,1077,1074,1024,993,963,932,901,871,940,844,850,908,870,879,886,912,900,898,889,909,889,893,894,899,886,913,896,909,909,913,909,900,891,914,904,929,904,923,909,1342,1348,1358,1423,1566,1830,2200,2366,2357,2407,2346,2314,2322,2228,2249,2168,2139,2085,2087,2017,1926,1932,1840,1866,1807,1736,1772,1648,1581,1559,1555,1506,1416,1405,1443,1367,1365,1406,1465,1460,1466,1464,1489,1528,1479,1504,1507,1535,1522,1524,1507,1518,1509,1532,1498,1502,1516,1514,1498,1535,1522,1535,1516,1524,1539,1158,1173,1172,1208,1304,1481,1688,1832,1920,1959,1941,1909,1877,1853,1813,1813,1748,1715,1681,1653,1623,1585,1554,1521,1488,1453,1422,1386,1354,1317,1299,1256,1234,1200,1184,1173,1177,1218,1230,1251,1234,1256,1258,1241,1298,1245,1250,1271,1297,1272,1228,1252,1298,1285,1309,1253,1257,1282,1323,1251,1254,1267,1269,1243,1237,928,930,932,988,1012,1189,1411,1637,1705,1768,1716,1694,1680,1628,1632,1561,1570,1494,1508,1477,1394,1364,1328,1294,1252,1228,1189,1161,1128,1094,1061,1028,994,965,944,937,943,957,970,954,952,957,981,1008,986,983,981,1001,1015,1003,1014,1005,1004,1021,1032,991,1008,1017,1021,1043,1016,1028,1046,1091,1026,629,630,646,648,664,727,863,980,1055,1131,1126,1102,1069,1072,1038,1023,1014,994,961,954,934,895,900,873,853,816,813,799,773,759,733,713,693,673,656,658,647,659,663,666,659,702,697,675,683,689,676,692,713,690,689,680,670,680,678,682,677,668,667,671,671,669,676,670,653,561,563,565,567,575,614,695,775,854,915,906,910,877,880,866,834,836,822,807,792,778,763,749,734,719,705,690,675,661,646,631,617,602,588,563,570,571,573,570,575,568,603,583,571,580,591,573,595,596,590,587,577,570,576,579,587,572,573,568,569,565,570,576,572,556,1207,1214,1224,1268,1317,1525,1701,1792,1884,1935,1994,1906,1853,1862,1820,1814,1739,1685,1642,1656,1624,1666,1612,1549,1463,1498,1466,1376,1413,1313,1285,1263,1256,1203,1248,1257,1228,1217,1271,1292,1246,1243,1284,1262,1277,1285,1279,1277,1325,1283,1287,1305,1304,1312,1281,1309,1319,1312,1336,1288,1298,1307,1345,1283,1282,615,609,619,621,635,698,791,884,969,1054,1016,1015,978,967,951,935,919,916,886,905,854,837,821,837,788,772,756,740,753,707,691,685,650,634,638,625,618,638,621,624,630,642,653,655,663,630,632,651,633,628,645,634,632,628,659,646,624,624,625,629,629,636,640,644,626,920,882,885,946,940,1060,1221,1429,1464,1574,1498,1474,1479,1432,1450,1379,1397,1325,1299,1273,1250,1221,1196,1170,1144,1118,1092,1066,1040,1015,989,964,938,912,896,893,897,901,898,894,915,946,925,900,922,944,927,919,950,939,920,928,954,937,946,919,927,931,938,935,929,939,928,924,925,788,803,811,808,830,935,1080,1248,1337,1365,1357,1354,1312,1292,1288,1238,1222,1199,1209,1184,1150,1104,1080,1080,1033,1031,985,975,937,913,904,867,856,836,791,818,804,807,816,805,820,871,845,851,833,810,830,851,830,832,828,875,911,899,869,837,824,832,823,821,815,831,824,854,813,889,891,893,900,963,1132,1344,1571,1640,1704,1654,1633,1620,1568,1574,1503,1514,1439,1454,1424,1342,1313,1278,1245,1204,1181,1143,1116,1084,1052,1019,987,955,926,905,898,904,918,943,917,920,937,985,989,946,994,969,1015,991,967,971,942,958,976,959,936,992,959,942,969,966,1006,969,975,954,745,747,812,752,779,857,970,1136,1173,1214,1218,1199,1180,1160,1141,1122,1102,1151,1064,1096,1025,1006,987,967,948,929,909,927,871,851,832,864,793,774,808,756,806,760,774,769,784,804,802,806,797,782,791,807,804,798,816,830,854,832,823,799,786,802,795,792,787,806,795,810,782,0,0,0,0,0,0,0,0,0,0,0,0,0,0,0,0,0,0,0,0,0,0,0,0,0,0,0,0,0,0,0,0,0,0,0,0,0,0,0,0,0,0,0,0,0,0,0,0,0,0,0,0,0,0,0,0,0,0,0,0,0,0,0,0,0,923,927,930,969,996,1126,1297,1451,1546,1584,1582,1554,1527,1498,1471,1445,1418,1391,1362,1337,1308,1282,1255,1228,1199,1173,1146,1119,1091,1063,1037,1010,983,958,941,939,942,946,946,961,950,984,954,973,959,985,967,974,965,962,971,970,983,989,989,993,980,977,990,982,990,1000,991,1001,998,783,786,788,791,826,932,1076,1218,1318,1361,1422,1338,1314,1289,1265,1295,1219,1195,1170,1148,1175,1100,1077,1053,1028,1005,982,958,933,909,887,863,839,816,799,796,799,803,802,794,807,824,817,815,810,810,818,827,823,823,848,852,874,851,841,827,809,825,816,818,808,828,814,835,807,1171,1177,1216,1244,1332,1537,1762,1849,1943,1975,2015,1943,1899,1911,1831,1824,1765,1730,1697,1669,1625,1661,1565,1557,1514,1465,1449,1416,1360,1366,1309,1298,1228,1244,1208,1194,1227,1195,1249,1226,1238,1253,1243,1260,1245,1248,1245,1264,1289,1266,1268,1258,1266,1287,1273,1268,1265,1282,1274,1288,1281,1274,1287,1298,1298,320,321,322,323,324,343,388,434,479,522,533,524,516,507,499,490,482,473,465,456,448,439,431,422,414,405,397,389,380,372,363,355,346,338,329,340,325,326,316,315,316,328,326,317,316,320,322,325,334,340,417,417,433,358,325,322,327,327,319,322,322,319,319,328,320,595,579,581,600,596,671,760,827,933,976,957,964,927,911,917,888,886,850,855,827,805,808,793,759,761,729,730,715,683,684,658,658,637,607,608,604,580,593,588,590,592,602,603,599,603,598,599,602,610,609,678,671,680,616,606,603,611,613,607,598,614,603,601,606,605,852,854,856,893,904,994,1091,1188,1263,1286,1275,1266,1233,1217,1201,1184,1169,1172,1136,1107,1089,1072,1056,1039,1022,1005,988,971,954,937,920,903,886,870,861,862,864,866,850,854,861,860,874,863,870,867,858,871,863,861,871,870,866,870,886,875,869,870,873,866,881,876,869,873,869,1265,1309,1294,1334,1538,1623,1817,2074,2155,2109,2157,2015,2018,2044,1922,1954,1944,1809,1801,1739,1760,1709,1699,1615,1635,1520,1545,1485,1484,1516,1426,1420,1326,1299,1329,1348,1302,1313,1372,1380,1333,1329,1378,1361,1367,1382,1386,1380,1428,1383,1383,1398,1397,1403,1376,1417,1442,1415,1442,1422,1395,1403,1447,1378,1382,195,196,196,197,197,204,231,258,285,311,325,320,315,310,305,299,294,289,284,287,274,269,263,258,253,248,243,238,233,227,222,217,212,207,202,198,198,199,182,180,181,182,182,182,184,184,182,186,186,185,185,186,185,185,186,187,187,188,187,186,188,188,188,188,188,981,983,986,999,1088,1351,1450,1570,1638,1654,1637,1623,1584,1562,1540,1518,1496,1494,1452,1418,1397,1367,1336,1327,1284,1253,1223,1192,1161,1201,1100,1108,1039,1011,1087,991,996,1008,1049,1043,1047,1046,1078,1123,1063,1093,1089,1101,1114,1110,1097,1103,1088,1113,1081,1078,1095,1084,1077,1116,1098,1116,1095,1105,1107,1306,1354,1347,1399,1537,1652,1871,1990,2092,2042,2170,1997,1953,1957,1959,1868,1893,1831,1813,1743,1779,1685,1774,1627,1630,1618,1586,1526,1524,1468,1447,1396,1408,1391,1382,1340,1392,1333,1407,1432,1381,1391,1419,1404,1413,1426,1415,1419,1460,1418,1425,1440,1442,1447,1418,1450,1457,1448,1474,1421,1436,1445,1479,1419,1417,408,409,411,412,414,445,504,563,622,688,679,668,678,646,637,647,640,603,589,581,571,560,549,538,527,516,506,495,484,473,462,451,441,448,419,414,416,417,410,404,414,423,419,418,410,410,417,426,429,417,422,454,469,453,452,429,414,426,415,419,408,425,422,432,414,1088,1103,1098,1136,1198,1306,1523,1604,1688,1666,1699,1679,1640,1579,1556,1572,1550,1509,1505,1426,1446,1385,1362,1339,1315,1292,1306,1283,1222,1220,1215,1192,1149,1138,1105,1082,1128,1110,1134,1141,1161,1181,1200,1199,1206,1169,1161,1195,1152,1142,1154,1160,1156,1150,1180,1170,1144,1144,1154,1147,1145,1153,1161,1182,1144,596,580,582,601,597,672,761,828,934,977,958,965,928,912,918,889,887,851,856,828,806,809,794,760,762,730,731,716,684,685,659,659,638,608,609,605,581,594,582,583,592,618,593,602,582,593,585,579,590,587,584,590,593,603,596,603,591,598,596,607,599,609,593,606,596,641,643,645,647,665,736,838,940,1030,1071,1072,1055,1037,1019,1002,984,967,949,977,914,897,879,861,844,924,809,791,816,756,739,721,831,686,668,654,651,653,655,659,657,654,661,663,678,662,664,677,676,659,664,661,664,664,657,668,670,666,666,660,670,669,677,679,675,669,639,640,642,645,661,715,784,866,934,907,903,902,898,885,903,868,859,1015,859,864,899,811,809,764,753,765,734,723,709,743,687,737,665,678,661,686,646,648,655,653,652,660,644,654,651,653,670,708,656,674,683,678,678,689,698,668,661,666,676,683,670,676,679,687,674,408,436,411,412,414,455,510,565,625,664,672,669,658,647,632,626,612,607,598,589,572,562,551,541,528,521,511,501,491,473,470,460,450,440,419,415,416,417,412,417,416,427,427,429,423,427,417,425,429,444,429,438,439,441,427,431,434,439,435,423,429,432,417,424,422,278,279,280,281,282,296,334,369,411,504,461,454,447,491,432,425,418,411,403,396,389,381,374,367,360,352,345,338,331,323,316,309,302,329,287,283,283,284,276,276,279,282,279,280,282,281,280,279,284,282,288,296,291,288,279,280,282,282,282,279,281,281,278,280,282,449,451,452,448,456,493,558,622,687,735,742,730,711,681,695,683,641,660,641,613,624,613,579,589,577,566,542,542,530,500,501,495,483,472,460,439,452,458,448,461,444,449,458,455,469,479,450,454,456,462,455,449,453,457,458,453,456,453,453,454,449,457,454,463,448,1035,1064,1059,1062,1118,1247,1413,1537,1596,1602,1597,1579,1541,1519,1498,1476,1455,1453,1412,1373,1356,1334,1312,1290,1268,1245,1232,1210,1188,1157,1137,1153,1092,1076,1065,1043,1069,1056,1074,1068,1075,1118,1096,1103,1098,1077,1087,1101,1088,1092,1090,1092,1100,1112,1101,1098,1099,1100,1097,1093,1090,1100,1093,1112,1083,980,958,948,916,960,1077,1225,1469,1446,1542,1532,1448,1418,1386,1387,1411,1337,1366,1296,1322,1229,1217,1188,1217,1262,1151,1095,1137,1089,1025,1006,1016,1003,927,958,974,964,965,965,971,990,1013,1029,1030,1037,992,991,1024,982,970,982,988,984,977,1008,997,971,971,981,975,970,978,988,1008,970,814,821,818,826,867,968,1093,1236,1326,1385,1381,1336,1314,1292,1270,1248,1225,1218,1226,1159,1156,1114,1116,1063,1041,1050,1003,981,959,930,914,955,870,860,834,831,829,837,841,855,843,856,859,870,852,879,860,859,854,852,853,858,856,868,864,863,867,854,853,866,863,878,854,871,862,0,0,0,0,0,0,0,0,0,0,0,0,0,0,0,0,0,0,0,0,0,0,0,0,0,0,0,0,0,0,0,0,0,0,0,0,0,0,0,0,0,0,0,0,0,0,0,0,0,0,0,0,0,0,0,0,0,0,0,0,0,0,0,0,0,302,295,296,303,296,306,323,340,357,374,378,374,371,368,364,361,358,354,351,348,344,341,338,334,331,328,324,321,318,314,311,308,304,301,298,296,297,297,268,277,277,293,276,271,271,273,269,268,270,272,270,270,270,270,271,271,271,271,270,271,269,272,271,270,269,320,321,322,323,324,343,388,434,479,522,533,524,516,507,499,490,482,473,465,456,448,439,431,422,414,405,397,389,380,372,363,355,346,338,329,340,325,326,316,315,316,328,326,317,316,320,322,325,334,340,417,417,433,358,325,322,327,327,319,322,322,319,319,328,320,538,545,541,563,555,612,677,767,852,895,908,883,881,897,853,819,799,796,777,768,793,744,719,708,715,682,658,665,630,653,627,593,582,560,584,551,568,569,559,559,557,563,563,571,562,572,564,562,568,562,562,565,568,573,572,575,564,570,572,576,570,582,572,584,575,551,552,568,570,569,633,717,801,882,927,916,894,887,886,872,857,842,827,784,757,764,741,735,745,706,709,694,679,664,650,635,601,590,579,597,573,575,581,572,575,563,576,580,577,586,593,576,577,579,588,584,576,578,583,582,580,582,582,573,577,575,579,582,579,569,763,776,770,773,804,891,1021,1135,1235,1259,1257,1237,1217,1197,1178,1170,1149,1130,1120,1102,1083,1052,1032,1000,980,970,941,913,903,873,853,833,811,794,790,785,787,817,794,786,793,815,802,806,805,806,815,815,806,807,808,837,861,839,835,820,806,841,820,800,822,799,809,813,790,1282,1323,1364,1410,1538,1818,1991,2034,2188,2176,2162,2149,2141,2106,2052,1921,1950,1911,1847,1896,1780,1826,1794,1712,1627,1604,1675,1602,1552,1472,1476,1471,1374,1425,1380,1390,1412,1369,1451,1445,1442,1461,1582,1551,1495,1534,1487,1574,1557,1563,1548,1499,1525,1560,1568,1503,1568,1542,1529,1571,1533,1594,1574,1606,1535,413,419,436,437,423,447,515,577,637,677,689,681,694,650,646,631,624,647,598,602,582,567,563,547,558,527,507,505,484,483,489,458,456,431,428,430,441,442,419,427,424,442,437,433,430,446,425,431,431,434,425,426,425,433,440,430,434,432,429,433,427,446,426,430,427,835,837,883,939,895,1122,1199,1475,1463,1571,1488,1461,1434,1406,1379,1421,1325,1298,1360,1276,1336,1274,1206,1195,1109,1082,1047,1028,1001,966,947,920,893,932,843,939,854,851,863,871,877,897,951,929,893,939,894,973,921,952,924,897,925,967,923,901,953,919,906,935,931,969,922,916,906,1240,1291,1299,1305,1442,1584,1832,2012,2035,2095,2000,1998,2002,1905,1974,1854,1877,1790,1798,1738,1784,1792,1632,1616,1557,1551,1542,1498,1448,1432,1360,1351,1295,1334,1312,1292,1312,1349,1338,1389,1346,1360,1360,1350,1364,1375,1372,1374,1383,1358,1364,1369,1374,1379,1386,1399,1387,1378,1392,1364,1396,1405,1412,1382,1383,526,527,529,531,533,624,664,757,819,865,870,856,843,824,810,801,782,773,762,745,761,717,704,690,676,664,660,634,622,606,595,581,565,583,538,544,532,537,542,539,550,579,553,538,555,569,552,550,550,552,555,549,559,556,559,550,548,546,557,556,547,559,549,550,554,926,929,974,944,1009,1267,1354,1577,1641,1685,1681,1678,1578,1560,1573,1558,1487,1505,1400,1460,1402,1311,1273,1252,1273,1196,1155,1137,1104,1067,1048,1016,986,959,936,942,947,945,993,982,978,976,982,1000,992,1006,1004,1034,999,1028,1024,1030,1008,1042,1015,998,998,989,1012,1035,1017,1045,1029,1031,1015,552,553,569,571,570,634,718,802,883,928,917,895,888,887,873,858,843,828,785,758,765,742,736,746,707,710,695,680,665,651,636,602,591,580,598,574,576,582,569,576,577,569,580,588,599,578,576,605,590,583,580,583,577,583,584,591,580,578,582,580,579,583,585,587,577,496,497,499,500,504,624,631,785,785,832,838,824,810,796,783,769,755,741,727,714,700,686,672,658,645,631,660,603,589,575,562,548,534,520,507,503,505,507,490,495,501,508,504,509,495,502,495,526,502,501,508,507,525,544,522,513,521,507,515,518,523,529,507,514,508,561,611,582,624,574,629,748,888,988,928,931,993,969,888,908,870,865,904,937,837,837,774,760,741,777,763,717,702,741,646,652,641,601,587,573,635,579,572,578,591,588,596,611,593,598,596,586,600,588,593,591,602,606,624,700,660,609,600,599,590,592,594,607,601,585,263,264,288,266,267,287,317,352,392,417,428,421,415,409,405,406,399,392,385,372,373,368,363,349,341,335,328,322,314,310,304,297,291,285,279,275,276,269,264,264,261,262,262,265,273,270,263,270,272,265,263,273,273,279,278,279,274,279,282,271,273,276,265,265,264,399,381,383,384,385,412,466,520,574,620,629,619,609,628,589,608,569,560,550,540,530,520,510,500,490,480,470,460,450,472,430,420,430,400,390,386,387,388,383,386,387,389,393,392,388,404,391,395,394,399,409,427,417,410,402,402,399,394,391,397,394,397,383,394,389,419,420,422,423,425,457,517,552,607,657,666,682,671,660,649,613,627,616,605,571,560,572,561,550,539,508,517,506,495,466,473,462,451,423,430,425,426,411,418,412,414,414,415,411,415,414,416,412,412,414,417,420,418,418,422,418,419,419,422,427,422,426,418,418,423,888,890,936,902,960,1169,1288,1470,1576,1582,1579,1616,1517,1500,1475,1462,1430,1412,1346,1374,1350,1260,1223,1203,1175,1149,1109,1092,1061,1024,1006,975,947,920,896,903,908,905,897,893,913,927,907,922,904,922,902,932,916,905,913,914,927,943,928,922,924,913,922,925,925,930,911,928,919,942,908,934,925,979,1043,1263,1312,1390,1519,1422,1411,1379,1359,1332,1481,1345,1288,1245,1271,1256,1238,1185,1139,1157,1150,1126,1043,1078,995,974,988,960,955,929,888,932,928,923,932,925,939,939,952,934,957,937,942,930,934,930,957,946,945,944,954,946,939,951,959,942,952,929,946,936,673,669,677,679,696,864,873,1071,1085,1119,1128,1180,1091,1072,1053,1058,1000,991,979,961,936,924,905,893,868,844,831,813,794,776,757,739,720,702,699,683,681,688,689,693,679,697,702,702,710,709,697,697,702,710,701,695,697,708,700,700,705,700,693,695,691,702,695,699,680,292,293,294,295,295,312,353,432,435,475,487,479,505,463,456,448,440,432,425,417,409,401,394,421,378,370,363,355,347,339,332,324,316,308,301,296,297,298,288,285,288,294,293,289,295,291,289,296,291,291,297,305,304,300,316,297,291,293,291,294,288,296,293,297,291,0,0,0,0,0,0,0,0,0,0,0,0,0,0,0,0,0,0,0,0,0,0,0,0,0,0,0,0,0,0,0,0,0,0,0,0,0,0,0,0,0,0,0,0,0,0,0,0,0,0,0,0,0,0,0,0,0,0,0,0,0,0,0,0,0,538,545,541,563,555,612,677,767,852,895,908,883,881,897,853,819,799,796,777,768,793,744,719,708,715,682,658,665,630,653,627,593,582,560,584,551,568,569,559,559,557,563,563,571,562,572,564,562,568,562,562,565,568,573,572,575,564,570,572,576,570,582,572,584,575,0,0,0,0,0,0,0,0,0,0,0,0,0,0,0,0,0,0,0,0,0,0,0,0,0,0,0,0,0,0,0,0,0,0,0,0,0,0,0,0,0,0,0,0,0,0,0,0,0,0,0,0,0,0,0,0,0,0,0,0,0,0,0,0,0,763,782,827,821,872,1016,1096,1189,1311,1249,1248,1227,1209,1216,1236,1242,1130,1111,1152,1072,1052,1089,1074,994,1043,975,935,910,941,920,899,837,810,837,817,825,799,778,805,800,807,814,816,813,817,815,825,818,814,815,818,844,868,851,848,835,814,835,822,814,824,816,822,830,807,883,885,888,894,925,1028,1163,1294,1393,1506,1438,1415,1392,1370,1350,1381,1357,1358,1256,1233,1210,1188,1165,1142,1119,1097,1074,1051,1028,1006,1025,960,937,916,899,896,898,900,913,899,900,899,916,937,913,921,922,943,951,962,960,966,952,967,950,943,945,954,968,994,967,975,973,997,978,1252,1246,1279,1309,1461,1613,1747,1978,2098,2086,2058,1999,2077,1920,1891,1930,1833,1791,1816,1723,1691,1709,1611,1655,1562,1477,1543,1412,1468,1479,1418,1375,1308,1314,1267,1271,1277,1330,1337,1334,1349,1375,1359,1355,1342,1360,1351,1383,1371,1371,1428,1451,1494,1456,1413,1386,1375,1394,1380,1372,1381,1406,1374,1401,1373,110,110,111,111,111,114,128,143,158,172,183,181,178,175,172,169,166,163,160,158,155,152,149,146,143,140,137,134,132,129,126,123,120,117,114,112,112,112,97,97,98,100,100,100,100,100,100,101,100,101,102,108,104,101,98,101,100,98,98,102,100,98,97,101,98,1113,1151,1120,1190,1218,1363,1543,1678,1769,1874,1800,1772,1743,1714,1689,1761,1683,1600,1643,1543,1514,1485,1457,1428,1400,1371,1342,1384,1285,1256,1269,1199,1171,1148,1133,1130,1133,1136,1167,1174,1168,1188,1214,1213,1227,1236,1196,1235,1239,1230,1257,1242,1238,1234,1225,1214,1233,1216,1204,1215,1225,1225,1219,1241,1208,1156,1158,1162,1258,1348,1558,1794,1950,2012,2036,2017,1981,2089,1907,1871,1830,1798,1761,1725,1688,1651,1662,1623,1629,1505,1468,1432,1392,1359,1322,1285,1287,1213,1187,1215,1179,1225,1192,1231,1282,1236,1260,1276,1268,1253,1276,1257,1276,1272,1246,1265,1268,1283,1284,1280,1283,1277,1268,1294,1274,1287,1298,1302,1299,1289,380,382,383,384,385,413,471,522,607,637,638,623,613,603,608,583,573,563,550,543,532,522,512,502,492,491,472,462,452,441,431,421,411,401,391,386,387,388,370,368,370,372,372,372,373,374,372,377,376,377,377,379,378,378,379,381,381,383,381,385,385,385,385,385,385,1066,1078,1110,1124,1199,1310,1485,1644,1740,1807,1768,1745,1717,1662,1637,1690,1661,1570,1622,1484,1467,1467,1447,1401,1383,1355,1299,1271,1243,1207,1221,1188,1132,1109,1108,1120,1108,1096,1121,1153,1105,1115,1136,1120,1129,1144,1131,1134,1170,1133,1137,1150,1151,1154,1133,1158,1162,1156,1179,1122,1145,1156,1182,1133,1130,764,783,828,822,873,1078,1097,1190,1377,1250,1249,1228,1210,1217,1237,1243,1131,1112,1153,1073,1053,1090,1075,995,1044,976,936,911,942,921,900,838,811,838,818,826,800,779,809,806,804,813,808,833,843,839,818,824,837,828,823,817,821,847,852,825,823,825,820,825,823,822,829,863,822,961,932,873,976,932,1124,1184,1320,1459,1464,1483,1461,1481,1363,1419,1316,1293,1293,1359,1223,1199,1298,1228,1129,1231,1083,1156,1122,1073,989,966,978,953,897,884,882,885,887,893,898,888,896,894,914,897,912,911,1051,900,898,896,904,915,885,908,908,900,913,890,898,908,909,896,909,901,669,649,692,653,670,736,834,889,1015,1016,1017,1003,1015,971,955,958,957,908,920,908,891,855,828,812,819,840,765,841,733,763,749,732,707,696,685,662,664,653,662,661,664,678,663,668,662,667,669,675,671,671,670,661,697,720,683,674,682,682,679,679,685,679,670,679,677,667,637,639,674,667,729,821,917,1047,1088,1099,1053,1036,995,980,964,947,954,960,897,881,865,846,833,817,814,835,804,753,737,712,731,720,673,648,675,646,648,660,657,652,664,707,706,698,692,676,720,702,698,701,667,678,714,709,675,700,687,666,701,685,708,701,709,679,343,344,346,346,347,369,417,465,509,557,568,557,550,541,532,518,514,507,495,487,478,469,460,451,441,432,424,415,408,395,387,379,370,363,351,348,349,350,340,340,342,342,349,349,355,374,351,358,350,353,349,354,350,363,361,354,354,347,343,355,351,355,347,357,349,536,510,513,520,526,565,706,740,782,877,838,824,855,799,786,794,800,747,734,722,746,693,714,670,691,638,655,645,601,622,619,566,574,540,535,516,523,524,531,529,531,532,544,536,545,550,544,533,536,536,532,537,537,560,537,536,534,538,539,539,537,540,536,557,538,1028,1039,1071,1054,1119,1251,1417,1554,1635,1743,1683,1657,1618,1603,1579,1605,1577,1495,1541,1431,1415,1388,1397,1334,1308,1281,1254,1227,1200,1165,1180,1120,1093,1070,1054,1080,1046,1057,1090,1090,1074,1090,1073,1112,1080,1089,1115,1164,1092,1107,1101,1104,1100,1116,1123,1098,1089,1088,1095,1103,1096,1104,1101,1100,1085,1158,1023,1137,1056,1130,1348,1611,1657,1732,1748,1710,1726,1601,1633,1663,1548,1540,1606,1509,1443,1517,1428,1437,1337,1324,1260,1335,1205,1284,1214,1194,1109,1072,1097,1056,1038,1074,1046,1080,1067,1066,1068,1073,1111,1101,1110,1095,1103,1119,1105,1106,1104,1103,1130,1134,1100,1111,1115,1116,1136,1118,1118,1133,1179,1129,1151,1110,1052,1161,1153,1376,1503,1618,1750,1750,1764,1737,1753,1630,1696,1575,1547,1542,1536,1463,1435,1500,1454,1351,1317,1282,1356,1272,1271,1184,1156,1162,1140,1077,1064,1114,1066,1069,1119,1093,1122,1103,1099,1112,1157,1116,1098,1120,1146,1137,1129,1128,1128,1137,1120,1136,1119,1130,1127,1122,1120,1121,1123,1154,1141,228,229,230,230,231,241,272,304,336,368,424,375,369,363,357,351,345,339,333,327,321,315,309,303,297,290,284,278,272,266,260,254,276,242,236,232,232,233,223,226,218,222,230,227,242,238,224,228,228,234,232,224,225,231,228,226,230,227,223,227,223,230,230,230,220,406,407,408,409,411,444,503,562,621,668,687,664,653,642,631,624,610,599,588,578,567,556,545,534,524,513,502,491,484,470,462,448,438,427,416,420,413,414,426,400,404,407,401,416,408,418,415,412,418,404,408,408,407,411,411,410,409,411,408,408,407,412,410,417,412,0,0,0,0,0,0,0,0,0,0,0,0,0,0,0,0,0,0,0,0,0,0,0,0,0,0,0,0,0,0,0,0,0,0,0,0,0,0,0,0,0,0,0,0,0,0,0,0,0,0,0,0,0,0,0,0,0,0,0,0,0,0,0,0,0 ]);
