n = 10;
D = [231,91,294,156,152,159,228,215,202,173 ];
q = 0;
prec = array2d(1..0,1..2,[]);
steps = 64;
l = 360;
r = 0;
which = [];
interval = array2d(1..0,1..2,[]);
T = array3d(1..11,1..11,0..64,[0,0,0,0,0,0,0,0,0,0,0,0,0,0,0,0,0,0,0,0,0,0,0,0,0,0,0,0,0,0,0,0,0,0,0,0,0,0,0,0,0,0,0,0,0,0,0,0,0,0,0,0,0,0,0,0,0,0,0,0,0,0,0,0,0,624,563,565,629,574,642,719,831,876,921,926,895,898,869,870,856,842,828,836,800,786,772,746,744,709,740,688,666,670,660,667,608,666,577,570,570,571,593,577,584,584,573,591,605,608,586,584,609,591,590,586,590,585,591,591,596,588,586,587,588,588,593,595,594,584,771,825,827,778,871,984,1076,1233,1224,1264,1263,1312,1307,1272,1212,1192,1172,1152,1127,1112,1140,1119,1040,1110,991,1035,1001,971,901,951,930,886,899,805,834,783,837,802,828,828,845,929,845,828,850,878,855,837,847,840,844,835,848,845,848,838,837,835,847,855,832,858,836,846,851,979,959,999,1027,1082,1178,1303,1450,1555,1605,1579,1588,1528,1586,1470,1450,1432,1389,1356,1304,1285,1260,1257,1278,1189,1171,1158,1153,1131,1074,1074,1043,1073,1029,972,970,1007,975,1027,1009,1005,1028,1000,997,998,1022,1016,1096,993,1009,1023,1013,1051,1007,1028,1026,1036,1016,1006,1016,1028,1017,1020,1014,1012,883,915,885,923,962,1058,1166,1303,1345,1447,1421,1526,1373,1419,1333,1311,1289,1271,1234,1207,1184,1130,1129,1117,1099,1077,1084,1043,1012,990,981,931,946,893,862,891,892,923,888,893,906,931,915,915,906,929,901,934,922,931,968,960,986,975,922,922,937,931,929,919,936,951,919,927,917,381,382,383,384,386,396,467,521,576,622,631,621,611,579,591,581,546,561,551,521,531,502,511,501,491,483,471,461,453,441,415,421,411,419,391,387,388,389,384,378,380,379,380,376,380,379,383,379,378,380,384,385,385,385,387,384,385,385,386,396,387,391,385,384,388,346,347,348,349,350,407,454,471,560,565,563,566,557,548,539,518,520,511,502,493,484,475,465,456,447,438,429,420,410,401,392,383,366,390,348,351,352,353,332,333,333,334,335,335,337,338,338,339,340,340,341,341,342,343,343,345,346,346,347,348,348,349,350,350,351,225,225,226,227,227,236,265,295,324,353,367,361,356,350,344,339,333,328,322,316,311,305,299,294,288,283,277,271,266,260,254,249,243,238,232,228,229,229,212,223,219,223,225,225,220,230,216,230,218,219,220,224,232,238,230,224,222,218,230,225,220,223,217,224,217,963,934,934,975,1007,1137,1177,1324,1378,1414,1413,1459,1422,1442,1387,1369,1390,1364,1259,1258,1245,1170,1216,1184,1162,1112,1117,1091,1080,1028,1022,1032,993,1004,992,944,961,964,951,992,952,950,973,954,968,976,971,970,996,967,973,980,980,986,983,994,992,988,1001,970,993,1000,1021,984,986,632,619,621,640,637,679,812,870,946,982,1063,975,959,943,939,910,899,891,899,882,854,846,818,805,808,772,753,740,725,710,717,676,646,627,613,643,628,630,629,623,634,633,616,645,630,641,634,639,662,636,629,626,638,638,641,645,655,640,656,648,633,631,634,646,619,0,0,0,0,0,0,0,0,0,0,0,0,0,0,0,0,0,0,0,0,0,0,0,0,0,0,0,0,0,0,0,0,0,0,0,0,0,0,0,0,0,0,0,0,0,0,0,0,0,0,0,0,0,0,0,0,0,0,0,0,0,0,0,0,0,613,615,606,588,597,640,733,816,896,975,1011,949,942,919,883,876,860,845,847,807,799,784,770,754,741,726,702,693,677,649,661,626,623,608,588,591,593,582,569,577,580,600,582,576,576,582,578,575,577,579,579,582,579,583,585,586,586,585,583,585,586,611,610,613,609,0,0,0,0,0,0,0,0,0,0,0,0,0,0,0,0,0,0,0,0,0,0,0,0,0,0,0,0,0,0,0,0,0,0,0,0,0,0,0,0,0,0,0,0,0,0,0,0,0,0,0,0,0,0,0,0,0,0,0,0,0,0,0,0,0,387,388,390,391,392,419,474,529,584,633,643,633,623,613,602,592,582,572,561,551,541,531,521,510,500,490,480,469,459,449,439,429,418,408,398,393,394,395,389,389,391,386,385,385,395,394,384,387,393,388,388,389,392,387,392,388,391,392,389,384,393,388,392,391,393,1057,1060,1038,1085,1140,1286,1505,1674,1644,1784,1730,1710,1680,1623,1669,1595,1584,1492,1522,1503,1432,1406,1386,1344,1327,1298,1269,1192,1299,1191,1136,1111,1113,1099,1075,1071,1075,1076,1093,1090,1099,1110,1092,1105,1110,1121,1112,1100,1113,1101,1107,1106,1112,1118,1118,1118,1105,1118,1123,1113,1107,1128,1108,1116,1111,965,967,945,981,1035,1111,1329,1534,1580,1647,1596,1528,1564,1533,1531,1442,1460,1371,1382,1353,1300,1276,1289,1198,1264,1181,1226,1106,1116,1087,1063,1014,1016,1025,982,953,981,983,980,1007,992,1023,994,988,992,1014,1005,1029,990,985,1000,996,1066,1000,1023,996,1021,1014,1014,985,1021,1029,1004,1022,1016,263,264,265,266,266,278,314,351,387,423,437,431,424,417,410,403,396,389,382,375,368,361,355,348,341,334,327,320,313,306,299,292,285,279,272,267,268,269,253,250,251,254,254,255,254,255,254,256,256,256,255,257,257,255,257,258,259,259,258,257,259,261,259,261,259,560,562,564,573,597,628,711,831,872,909,925,910,895,881,866,851,836,822,807,784,777,763,748,746,719,704,689,674,660,654,630,615,601,586,573,569,570,579,582,569,569,575,571,577,571,577,570,577,575,570,571,570,576,582,577,576,576,573,577,576,572,585,570,577,572,645,647,648,659,666,731,826,921,1007,1050,1054,1051,1021,1017,987,971,954,937,933,904,888,871,854,849,821,805,798,771,755,747,722,705,688,672,658,654,656,658,664,669,636,632,662,649,654,656,656,662,697,659,663,675,672,678,652,682,677,680,702,672,671,666,703,649,660,874,877,880,885,931,1029,1162,1255,1297,1380,1381,1362,1330,1285,1304,1316,1266,1256,1226,1212,1243,1168,1147,1124,1085,1073,1114,1035,1013,991,963,947,925,904,892,887,890,892,900,888,921,938,942,945,940,900,928,962,919,906,904,897,913,904,911,915,912,935,907,917,914,908,916,934,902,543,545,522,549,556,577,689,770,808,894,901,886,872,819,843,829,814,764,785,737,756,742,728,681,668,684,670,626,613,627,612,571,583,569,556,527,553,555,534,542,545,554,549,549,547,553,544,562,546,546,556,560,573,579,568,557,557,556,563,559,560,569,556,567,555,613,615,606,588,597,640,733,816,896,975,1011,949,942,919,883,876,860,845,847,807,799,784,770,754,741,726,702,693,677,649,661,626,623,608,588,591,593,582,569,577,580,600,582,576,576,582,578,575,577,579,579,582,579,583,585,586,586,585,583,585,586,611,610,613,609,832,844,837,842,884,984,1063,1228,1296,1296,1334,1312,1316,1270,1273,1252,1233,1202,1188,1160,1144,1124,1077,1084,1057,1013,1038,971,970,954,926,904,882,861,848,844,847,875,860,859,860,861,883,878,896,890,869,888,878,874,882,873,873,893,886,878,879,884,870,889,874,882,877,889,886,263,263,264,265,266,276,312,347,382,418,433,427,420,413,406,400,393,386,379,373,366,359,352,346,339,332,325,318,312,305,298,291,285,278,271,266,267,268,247,247,248,248,249,249,250,250,251,251,253,253,254,255,255,256,256,257,257,258,258,259,259,261,261,262,262,0,0,0,0,0,0,0,0,0,0,0,0,0,0,0,0,0,0,0,0,0,0,0,0,0,0,0,0,0,0,0,0,0,0,0,0,0,0,0,0,0,0,0,0,0,0,0,0,0,0,0,0,0,0,0,0,0,0,0,0,0,0,0,0,0,1299,1279,1333,1356,1498,1726,1953,2093,2124,2261,2130,2155,2055,2048,1936,1931,1894,1888,1882,1831,1796,1719,1659,1640,1616,1598,1565,1549,1509,1492,1435,1360,1319,1370,1355,1311,1321,1348,1382,1382,1382,1392,1418,1387,1418,1417,1409,1413,1428,1421,1494,1501,1520,1483,1554,1510,1443,1440,1426,1420,1429,1412,1422,1461,1410,1207,1186,1216,1254,1347,1561,1797,1895,1967,2075,1981,1936,1953,1955,1758,1784,1735,1795,1694,1700,1634,1586,1526,1516,1514,1484,1454,1448,1411,1389,1334,1265,1236,1253,1308,1224,1281,1290,1282,1287,1300,1329,1311,1322,1304,1319,1299,1305,1326,1305,1297,1318,1315,1345,1386,1365,1314,1321,1321,1313,1304,1300,1319,1341,1305,504,506,507,509,514,558,631,705,779,860,833,820,806,793,780,767,754,740,727,714,701,687,674,661,648,634,621,608,595,581,568,555,542,528,516,512,513,514,522,509,511,511,515,525,514,519,517,514,519,513,516,516,516,525,529,521,514,518,518,525,519,523,521,530,524,802,804,814,810,857,932,1103,1189,1274,1356,1312,1281,1270,1260,1228,1207,1186,1165,1182,1123,1102,1081,1060,1040,1011,990,969,956,935,914,901,872,851,831,817,814,810,825,817,818,822,841,847,844,868,874,841,858,862,860,901,898,902,899,855,843,855,848,838,846,845,859,850,875,846,886,889,964,899,948,1052,1190,1322,1419,1487,1438,1451,1393,1383,1347,1325,1314,1279,1256,1233,1211,1188,1165,1142,1120,1107,1074,1077,1029,1006,992,960,938,916,926,899,902,904,912,911,908,908,913,915,907,907,914,919,909,917,914,920,917,914,917,919,919,919,915,915,921,935,937,937,937,1034,1037,1039,1067,1146,1277,1480,1581,1660,1653,1723,1660,1699,1607,1581,1617,1545,1501,1470,1448,1408,1395,1369,1343,1316,1290,1270,1295,1211,1181,1151,1121,1140,1065,1053,1051,1064,1060,1062,1105,1066,1069,1087,1073,1078,1089,1089,1085,1107,1078,1084,1092,1091,1097,1095,1112,1106,1098,1115,1085,1110,1124,1142,1107,1098,785,763,790,793,829,946,1061,1184,1270,1275,1248,1288,1267,1246,1168,1204,1164,1163,1142,1131,1100,1084,1009,989,1016,995,974,953,937,920,890,829,809,828,814,797,799,801,820,793,802,815,808,815,820,830,815,815,828,817,839,838,838,830,809,809,820,817,820,805,813,822,807,821,815,832,844,837,842,884,984,1063,1228,1296,1296,1334,1312,1316,1270,1273,1252,1233,1202,1188,1160,1144,1124,1077,1084,1057,1013,1038,971,970,954,926,904,882,861,848,844,847,875,860,859,860,861,883,878,896,890,869,888,878,874,882,873,873,893,886,878,879,884,870,889,874,882,877,889,886,1083,1072,1084,1099,1191,1280,1454,1586,1639,1706,1680,1664,1650,1647,1602,1549,1545,1527,1496,1416,1422,1365,1394,1312,1298,1286,1278,1223,1208,1183,1160,1188,1126,1098,1094,1072,1109,1088,1126,1090,1099,1098,1103,1103,1104,1114,1104,1118,1124,1118,1121,1127,1130,1127,1134,1124,1126,1131,1131,1126,1133,1134,1130,1146,1150,1204,1215,1201,1252,1366,1503,1596,1775,1810,1876,1835,1811,1817,1750,1733,1716,1706,1703,1622,1599,1591,1515,1540,1457,1500,1420,1429,1348,1340,1326,1306,1292,1257,1204,1187,1189,1201,1273,1234,1262,1268,1273,1282,1262,1268,1300,1266,1261,1291,1249,1274,1273,1287,1291,1451,1402,1309,1276,1280,1273,1260,1258,1274,1326,1253,1447,1479,1495,1536,1691,1934,1975,2145,2229,2225,2239,2210,2125,2238,2144,2036,2020,2032,1925,1892,1936,1850,1806,1732,1768,1732,1685,1639,1624,1603,1589,1500,1553,1468,1452,1475,1474,1483,1535,1535,1548,1578,1548,1572,1551,1554,1549,1556,1590,1568,1575,1589,1588,1588,1586,1598,1567,1578,1590,1578,1579,1585,1570,1598,1594,0,0,0,0,0,0,0,0,0,0,0,0,0,0,0,0,0,0,0,0,0,0,0,0,0,0,0,0,0,0,0,0,0,0,0,0,0,0,0,0,0,0,0,0,0,0,0,0,0,0,0,0,0,0,0,0,0,0,0,0,0,0,0,0,0,203,203,204,205,205,213,240,267,294,321,335,330,325,319,314,309,304,299,293,288,283,278,272,267,262,257,251,246,241,236,231,225,220,215,210,206,206,207,192,187,189,193,187,200,193,204,202,193,210,193,196,194,193,201,194,195,193,196,193,192,196,196,195,208,196,999,995,970,1044,1129,1195,1307,1488,1501,1542,1652,1520,1519,1437,1433,1461,1417,1400,1402,1315,1317,1263,1229,1235,1245,1192,1135,1131,1144,1110,1096,1058,1002,994,1004,1008,1022,1022,1013,1051,1013,1012,1035,1026,1022,1032,1036,1043,1050,1022,1039,1032,1039,1046,1047,1051,1039,1053,1074,1043,1052,1051,1066,1050,1049,807,819,822,817,868,955,1010,1165,1227,1261,1281,1295,1227,1251,1231,1183,1186,1171,1151,1075,1089,1035,1035,999,996,1012,964,960,929,907,890,904,873,850,843,813,839,840,855,851,841,853,846,860,850,863,873,882,856,883,883,875,879,907,884,862,871,858,876,911,875,885,882,888,879,1007,1003,1013,1012,1097,1173,1292,1492,1521,1550,1565,1593,1503,1502,1485,1446,1446,1449,1399,1321,1349,1294,1273,1226,1231,1201,1167,1142,1131,1127,1087,1062,1067,1045,1025,1000,1031,1034,1061,1067,1055,1141,1106,1101,1087,1080,1091,1119,1092,1112,1108,1100,1068,1080,1085,1105,1105,1076,1101,1130,1097,1088,1107,1084,1081,714,764,710,700,787,793,874,956,1028,1059,1125,1110,1032,1012,1003,989,974,960,945,920,900,891,921,861,847,907,830,816,800,843,834,753,730,716,706,703,772,706,728,707,713,718,753,747,738,761,737,764,749,747,737,722,725,745,735,722,749,729,723,737,732,755,735,739,732,790,815,784,854,830,905,984,1153,1256,1236,1288,1271,1203,1201,1183,1161,1142,1156,1099,1054,1064,1015,1005,975,950,963,921,967,910,918,925,852,823,804,793,796,789,791,798,801,797,814,806,805,804,822,802,802,810,805,805,806,802,806,806,810,807,814,808,810,804,817,805,812,802,1083,1072,1084,1099,1191,1280,1454,1586,1639,1706,1680,1664,1650,1647,1602,1549,1545,1527,1496,1416,1422,1365,1394,1312,1298,1286,1278,1223,1208,1183,1160,1188,1126,1098,1094,1072,1109,1088,1126,1090,1099,1098,1103,1103,1104,1114,1104,1118,1124,1118,1121,1127,1130,1127,1134,1124,1126,1131,1131,1126,1133,1134,1130,1146,1150,900,883,916,878,940,1052,1161,1361,1366,1382,1400,1376,1327,1297,1291,1281,1247,1259,1258,1200,1204,1156,1158,1129,1088,1067,1111,1022,1056,1002,990,949,948,916,918,889,921,925,902,901,906,914,921,927,931,913,917,930,919,924,940,924,925,921,934,930,930,938,935,930,948,935,935,943,934,1006,993,992,1037,1167,1196,1356,1475,1556,1565,1545,1518,1527,1478,1460,1446,1439,1418,1466,1370,1364,1304,1278,1255,1273,1211,1189,1178,1182,1108,1096,1156,1027,1058,1030,1073,1031,1039,1058,1026,1035,1032,1073,1066,1044,1043,1044,1061,1104,1088,1089,1091,1100,1082,1107,1082,1075,1105,1118,1101,1084,1084,1113,1130,1103,1309,1269,1258,1333,1480,1639,1837,1849,1922,1925,1989,1868,1863,1874,1791,1771,1758,1704,1746,1645,1659,1654,1645,1533,1587,1520,1491,1451,1409,1390,1382,1425,1253,1285,1294,1356,1260,1268,1327,1322,1333,1351,1371,1372,1342,1366,1326,1343,1355,1350,1356,1366,1376,1384,1394,1395,1342,1358,1368,1369,1376,1382,1368,1391,1376,183,183,184,184,185,190,210,249,247,269,280,276,269,265,264,261,257,290,285,281,276,269,251,248,245,242,218,215,211,207,203,199,195,218,188,185,185,186,172,174,173,180,179,181,177,189,174,184,184,208,177,180,184,186,180,181,184,193,184,181,180,185,177,178,177,0,0,0,0,0,0,0,0,0,0,0,0,0,0,0,0,0,0,0,0,0,0,0,0,0,0,0,0,0,0,0,0,0,0,0,0,0,0,0,0,0,0,0,0,0,0,0,0,0,0,0,0,0,0,0,0,0,0,0,0,0,0,0,0,0,822,796,810,810,883,960,1033,1145,1288,1279,1221,1213,1229,1188,1197,1192,1184,1144,1101,1066,1091,1053,1054,1043,996,964,961,941,932,912,873,905,814,855,816,828,820,835,820,814,820,828,830,827,832,828,839,833,828,829,839,866,889,862,858,846,829,855,836,823,845,824,829,839,815,646,637,638,618,645,715,834,921,950,972,992,982,933,969,910,914,883,913,872,855,876,823,849,823,776,801,747,729,738,751,713,682,686,664,659,632,638,672,646,642,634,637,656,669,653,664,663,676,664,687,691,690,674,687,683,669,684,678,692,725,697,712,709,724,709,832,829,839,872,854,946,1072,1226,1272,1265,1285,1261,1213,1211,1181,1199,1145,1157,1125,1103,1108,1094,1065,1039,1080,982,983,959,969,924,935,893,869,847,864,819,843,864,828,835,844,879,844,855,839,848,843,836,848,844,851,874,867,862,854,867,861,877,875,858,863,893,864,878,869,583,584,605,587,660,719,783,787,845,882,860,866,859,928,899,824,791,825,789,766,754,742,828,719,707,695,684,685,730,737,679,706,620,668,591,651,623,592,603,605,608,607,621,607,619,624,613,619,615,615,622,622,618,624,629,623,633,626,622,619,623,630,632,630,632,604,598,600,609,643,689,765,845,1059,944,941,923,909,895,901,888,860,862,858,831,817,802,787,764,756,741,726,710,695,677,671,692,634,631,656,651,633,622,623,630,625,634,638,636,636,648,623,638,630,630,630,642,640,636,639,644,633,639,645,630,626,626,634,640,629,900,883,916,878,940,1052,1161,1361,1366,1382,1400,1376,1327,1297,1291,1281,1247,1259,1258,1200,1204,1156,1158,1129,1088,1067,1111,1022,1056,1002,990,949,948,916,918,889,921,925,902,901,906,914,921,927,931,913,917,930,919,924,940,924,925,921,934,930,930,938,935,930,948,935,935,943,934,310,311,312,313,314,329,369,410,450,488,500,493,485,478,470,463,455,447,440,432,425,417,410,402,394,465,441,431,436,426,349,342,334,326,319,314,315,316,308,311,310,314,347,337,331,337,326,345,327,327,332,320,322,338,326,316,340,318,317,334,331,342,330,325,323,309,290,291,292,293,307,371,385,424,463,475,467,460,453,445,438,430,423,416,408,401,394,386,379,372,364,357,373,342,335,327,320,313,305,298,293,294,295,293,286,281,286,285,286,341,333,286,318,301,286,286,324,331,345,335,345,335,348,337,320,309,299,289,289,285,549,550,611,554,560,569,693,868,794,901,906,859,878,904,793,851,819,805,791,726,712,748,733,718,778,645,707,661,605,591,618,564,551,537,524,536,559,561,546,539,542,545,540,548,544,548,542,552,547,540,542,544,544,548,549,547,546,544,546,548,542,554,542,549,546,814,816,838,832,865,977,1143,1255,1361,1410,1356,1350,1317,1319,1271,1280,1230,1244,1196,1175,1144,1116,1091,1055,1034,1051,1008,989,949,991,939,875,881,843,854,818,831,831,850,848,847,847,864,867,885,886,856,871,866,866,870,859,860,882,873,866,862,869,858,874,860,867,862,878,868,719,781,724,726,796,843,949,1059,1191,1222,1187,1235,1182,1173,1122,1129,1086,1099,1078,1030,1011,984,1008,948,930,982,940,876,893,874,846,798,798,806,734,744,765,744,767,769,760,807,799,775,784,798,781,792,818,795,794,783,775,783,778,785,781,776,771,774,771,779,782,779,755,0,0,0,0,0,0,0,0,0,0,0,0,0,0,0,0,0,0,0,0,0,0,0,0,0,0,0,0,0,0,0,0,0,0,0,0,0,0,0,0,0,0,0,0,0,0,0,0,0,0,0,0,0,0,0,0,0,0,0,0,0,0,0,0,0,302,303,304,305,306,323,357,399,450,481,492,484,484,476,468,460,452,466,436,428,421,413,405,397,389,381,373,365,369,349,336,333,325,317,309,306,307,308,292,287,295,297,287,296,295,299,297,294,300,291,293,289,291,295,293,293,291,291,289,287,291,291,289,296,295,395,396,397,398,400,417,471,525,578,624,634,624,614,604,594,584,574,564,555,545,535,525,515,505,495,485,475,466,456,446,436,426,416,406,396,401,393,394,388,396,385,388,400,395,410,420,392,397,397,406,397,391,394,400,400,394,399,394,393,395,392,399,396,403,388,736,727,740,731,742,851,927,1026,1039,1113,1088,1134,1120,1032,1029,1015,1047,1086,1030,1001,1000,982,970,955,928,920,900,880,861,817,822,788,774,764,738,734,774,751,747,755,759,777,759,756,763,769,763,758,824,794,751,781,822,816,836,781,772,783,800,767,761,783,778,754,749,361,362,364,373,374,391,481,496,548,593,603,593,584,574,576,555,545,590,526,516,517,507,487,478,468,458,449,439,429,429,410,409,391,381,379,367,368,369,366,354,361,363,356,378,360,377,378,363,380,363,366,368,364,374,366,364,366,374,366,368,368,370,365,374,372,310,311,312,313,314,329,369,410,450,488,500,493,485,478,470,463,455,447,440,432,425,417,410,402,394,465,441,431,436,426,349,342,334,326,319,314,315,316,308,311,310,314,347,337,331,337,326,345,327,327,332,320,322,338,326,316,340,318,317,334,331,342,330,325,323,255,256,280,280,281,270,306,341,376,412,424,417,411,404,397,391,384,377,370,364,357,350,344,337,330,323,317,310,303,297,290,283,276,270,263,282,283,260,254,258,256,264,263,266,258,270,255,268,264,281,258,265,269,276,266,266,269,273,272,265,265,270,257,262,258,676,656,634,638,649,713,842,933,1007,1029,1032,1016,1042,984,956,952,952,920,932,884,869,856,840,824,808,790,824,752,744,725,744,705,680,692,666,653,664,653,663,676,638,639,657,648,652,655,660,662,693,656,661,671,690,676,653,676,675,680,705,668,676,670,699,652,655,917,976,985,906,909,1062,1154,1374,1442,1457,1452,1373,1489,1424,1349,1285,1332,1292,1220,1306,1193,1201,1178,1110,1162,1063,1067,1069,1000,975,966,959,912,899,936,917,872,931,942,901,900,913,893,908,899,906,921,943,906,925,931,930,940,944,958,923,916,921,935,938,931,934,938,950,934,767,731,734,736,768,839,947,1080,1198,1196,1206,1160,1150,1158,1108,1097,1141,1052,1064,1040,1003,1015,1020,975,933,942,906,907,885,834,841,808,775,762,743,744,742,744,759,733,737,739,764,764,774,770,758,781,763,749,763,743,744,756,756,749,763,743,740,758,756,772,763,769,762,689,618,620,622,648,710,789,926,1005,1018,1053,1008,994,1006,948,949,959,910,926,900,868,887,880,848,806,821,799,738,781,711,738,722,672,689,629,685,627,629,648,644,647,652,654,644,641,642,638,661,685,648,652,648,657,651,669,647,644,657,645,644,651,642,653,645,648,449,447,425,429,428,461,529,614,647,693,701,690,722,668,653,647,636,625,614,599,589,582,571,560,549,536,559,518,506,492,495,491,462,460,436,431,432,447,426,429,420,429,433,461,429,434,450,440,430,435,426,433,434,424,435,437,434,433,430,433,442,452,446,453,442,0,0,0,0,0,0,0,0,0,0,0,0,0,0,0,0,0,0,0,0,0,0,0,0,0,0,0,0,0,0,0,0,0,0,0,0,0,0,0,0,0,0,0,0,0,0,0,0,0,0,0,0,0,0,0,0,0,0,0,0,0,0,0,0,0,202,203,203,204,204,211,237,263,289,315,329,324,319,314,309,304,299,294,289,284,279,274,269,264,259,254,249,244,239,234,229,224,219,214,209,205,205,206,190,194,192,193,194,192,194,196,193,194,193,193,194,195,196,197,197,196,194,195,200,197,196,196,197,198,197,797,768,784,804,852,918,960,1085,1211,1283,1206,1161,1145,1128,1112,1167,1093,1086,1053,1086,1068,1051,1033,1016,998,981,948,938,931,894,893,867,845,841,822,808,828,802,813,809,825,822,835,873,828,844,846,846,874,848,847,851,845,856,835,836,836,845,830,841,844,853,840,851,854,502,504,505,507,512,558,633,869,781,828,834,820,807,794,780,779,754,740,727,714,711,697,684,660,647,633,620,607,593,580,567,553,540,527,514,510,519,513,513,507,519,555,527,510,527,537,524,522,527,522,526,532,539,533,547,529,517,522,525,526,515,529,521,525,521,255,256,280,280,281,270,306,341,376,412,424,417,411,404,397,391,384,377,370,364,357,350,344,337,330,323,317,310,303,297,290,283,276,270,263,282,283,260,254,258,256,264,263,266,258,270,255,268,264,281,258,265,269,276,266,266,269,273,272,265,265,270,257,262,258,257,258,258,259,260,272,308,343,379,414,428,421,414,407,400,394,387,380,373,367,360,353,346,340,333,326,319,312,306,299,292,285,279,272,265,261,261,262,251,251,251,251,251,254,251,253,253,251,254,250,254,253,253,254,258,254,253,254,254,257,253,259,258,262,259,732,734,756,730,777,869,938,1045,1136,1170,1175,1153,1153,1120,1102,1109,1081,1108,1029,1024,989,988,956,927,972,891,883,885,860,850,810,783,772,780,756,743,765,747,745,747,747,752,747,753,754,758,753,791,755,751,754,753,758,760,755,760,756,761,759,760,758,768,755,762,760,993,1020,962,966,1095,1164,1290,1530,1542,1537,1668,1564,1557,1463,1531,1463,1407,1450,1425,1381,1311,1284,1292,1211,1250,1163,1191,1186,1113,1077,1052,1035,1039,1044,983,1008,973,1090,1022,1024,1022,1037,1039,1030,1038,1046,1019,1038,1034,1024,1036,1052,1045,1037,1068,1045,1027,1027,1038,1038,1017,1030,1032,1039,1027,867,870,905,920,938,1060,1225,1298,1414,1457,1428,1399,1379,1356,1358,1286,1264,1272,1266,1219,1213,1177,1171,1128,1108,1111,1078,1061,1009,984,987,966,950,925,883,877,880,903,899,901,901,917,931,919,922,939,923,934,939,948,1019,1021,1030,966,922,924,946,937,923,916,935,925,930,924,919,794,756,815,817,833,918,1020,1107,1236,1290,1269,1250,1231,1201,1187,1140,1121,1134,1116,1128,1113,1059,1029,1011,972,980,962,940,951,899,898,822,852,811,814,771,764,812,779,776,781,789,791,790,792,789,791,802,795,797,801,810,809,807,820,812,804,820,808,802,815,810,810,818,807,524,526,527,529,535,582,645,718,795,835,846,828,834,807,793,776,767,788,741,741,711,716,688,675,662,649,636,643,632,596,583,570,556,549,545,532,533,535,517,519,522,525,525,527,524,526,524,537,527,527,531,533,540,546,542,537,542,536,541,541,544,547,539,545,540,234,235,235,236,237,246,279,311,344,376,390,384,378,372,366,359,353,347,341,335,329,322,316,310,304,298,291,285,279,273,267,260,254,248,242,238,238,239,218,218,225,233,218,223,220,224,227,219,226,219,222,222,219,224,222,222,222,225,222,223,222,226,222,225,223,0,0,0,0,0,0,0,0,0,0,0,0,0,0,0,0,0,0,0,0,0,0,0,0,0,0,0,0,0,0,0,0,0,0,0,0,0,0,0,0,0,0,0,0,0,0,0,0,0,0,0,0,0,0,0,0,0,0,0,0,0,0,0,0,0,950,927,937,966,1008,1051,1202,1272,1432,1414,1405,1447,1397,1333,1385,1352,1298,1277,1301,1253,1199,1211,1209,1186,1149,1112,1097,1102,1056,1046,1039,1018,997,947,966,928,947,967,938,951,951,971,966,958,971,988,961,970,959,962,961,960,955,971,977,965,970,959,954,967,967,1004,993,1003,988,637,647,641,643,669,737,822,933,1006,1048,1051,1034,1017,1000,984,967,950,933,916,900,883,866,849,832,815,799,782,765,748,731,714,698,681,664,650,647,648,659,639,637,639,666,639,652,639,647,639,632,651,644,674,684,680,655,644,656,649,653,657,645,651,660,637,656,648,257,258,258,259,260,272,308,343,379,414,428,421,414,407,400,394,387,380,373,367,360,353,346,340,333,326,319,312,306,299,292,285,279,272,265,261,261,262,251,251,251,251,251,254,251,253,253,251,254,250,254,253,253,254,258,254,253,254,254,257,253,259,258,262,259,960,1006,997,1047,1033,1199,1329,1481,1505,1515,1493,1472,1504,1448,1427,1444,1342,1374,1406,1304,1306,1275,1201,1181,1160,1188,1167,1100,1115,1102,1089,1058,1036,1013,1009,1018,1006,1013,1043,1023,1017,1043,1011,1013,1006,1031,1030,1072,1003,1020,1032,1022,1072,1022,1043,1032,1045,1027,1021,1028,1043,1031,1030,1028,1022,868,890,914,921,948,1024,1185,1291,1414,1379,1372,1383,1333,1314,1346,1321,1256,1251,1218,1199,1179,1168,1141,1134,1115,1092,1070,1048,1004,982,987,939,978,916,993,881,883,885,911,894,892,897,911,943,920,916,917,929,951,939,948,944,942,955,968,929,939,957,959,976,952,957,980,1021,961,1093,1096,1162,1216,1209,1351,1525,1670,1800,1776,1729,1728,1678,1725,1679,1621,1579,1567,1528,1504,1505,1460,1427,1415,1391,1338,1310,1307,1255,1228,1276,1173,1152,1123,1118,1109,1112,1115,1151,1159,1135,1149,1169,1127,1188,1143,1146,1180,1168,1158,1141,1208,1161,1153,1221,1150,1153,1181,1219,1153,1159,1154,1161,1152,1154,643,630,632,635,647,709,799,914,971,1061,1031,978,984,968,950,937,923,921,909,888,861,842,840,811,798,779,764,751,706,705,709,685,667,653,643,637,639,661,633,633,640,654,646,654,654,670,656,652,667,656,675,674,674,676,647,645,657,659,657,645,654,660,646,659,649,649,634,652,696,649,724,809,949,973,1014,1035,1060,1074,974,959,919,929,914,899,884,867,854,839,824,809,794,779,764,767,715,754,686,733,674,661,641,659,661,657,661,655,656,670,675,699,709,672,683,679,683,680,676,672,699,686,675,679,671,663,679,670,682,674,685,666,824,838,839,854,901,983,1128,1209,1273,1334,1259,1313,1241,1236,1236,1250,1225,1165,1177,1164,1139,1082,1102,1075,1038,1021,1011,1004,969,964,907,905,888,867,855,848,853,840,855,854,851,921,882,854,858,882,874,884,912,879,888,870,859,867,881,881,863,876,855,870,863,889,906,898,879,800,775,775,776,835,894,1010,1125,1209,1249,1264,1287,1239,1187,1167,1195,1128,1143,1092,1104,1084,1030,1036,998,972,959,975,939,956,874,891,837,842,798,783,814,809,817,795,821,816,902,823,806,800,816,818,852,832,833,853,824,818,810,847,839,822,827,897,848,837,809,844,825,817,985,953,976,970,1015,1118,1236,1348,1412,1445,1459,1403,1418,1363,1343,1379,1324,1283,1298,1243,1232,1203,1290,1163,1143,1123,1103,1083,1063,1042,1107,1025,982,984,955,955,957,959,983,963,976,1042,981,965,986,1015,990,974,984,978,982,974,988,983,991,980,977,974,989,997,973,1000,978,989,993,0,0,0,0,0,0,0,0,0,0,0,0,0,0,0,0,0,0,0,0,0,0,0,0,0,0,0,0,0,0,0,0,0,0,0,0,0,0,0,0,0,0,0,0,0,0,0,0,0,0,0,0,0,0,0,0,0,0,0,0,0,0,0,0,0,459,456,461,461,464,502,526,564,602,666,637,630,623,616,608,601,594,587,580,573,565,558,551,544,537,529,522,515,508,501,493,486,479,484,465,475,464,464,444,447,462,476,460,468,448,463,447,476,455,449,455,458,469,480,465,460,467,454,463,467,461,468,446,454,448,960,1006,997,1047,1033,1199,1329,1481,1505,1515,1493,1472,1504,1448,1427,1444,1342,1374,1406,1304,1306,1275,1201,1181,1160,1188,1167,1100,1115,1102,1089,1058,1036,1013,1009,1018,1006,1013,1043,1023,1017,1043,1011,1013,1006,1031,1030,1072,1003,1020,1032,1022,1072,1022,1043,1032,1045,1027,1021,1028,1043,1031,1030,1028,1022,706,672,674,676,763,801,922,1030,1042,1084,1159,1177,1053,1085,1085,1066,1031,1030,1011,1024,960,956,937,907,929,871,874,845,827,765,789,803,762,729,683,717,759,730,707,709,701,705,717,723,716,730,728,752,726,740,723,730,725,740,725,728,745,731,730,748,738,746,736,740,737,507,509,510,547,516,560,633,737,779,826,832,819,806,885,780,767,754,741,728,715,701,741,675,687,649,660,647,610,597,584,592,558,565,551,539,515,516,537,513,517,523,531,527,534,518,525,518,548,524,523,529,527,546,563,541,534,541,527,534,538,542,549,525,533,525,731,734,772,773,764,929,989,1071,1159,1199,1224,1180,1216,1252,1122,1103,1136,1065,1046,1027,1072,1030,990,1035,987,912,937,916,855,836,839,820,779,759,746,743,744,746,771,751,748,756,759,775,817,814,762,794,778,760,767,806,810,816,807,825,813,831,810,793,790,775,761,756,747,648,651,652,654,673,788,875,944,1036,1051,1124,1125,1069,1016,1052,1037,1001,974,969,922,928,929,864,879,797,811,815,797,760,743,702,710,704,694,647,660,662,653,663,655,663,663,668,666,674,668,668,669,672,668,676,684,687,682,686,689,666,675,676,667,666,677,675,678,664,579,560,562,563,570,663,745,803,944,880,955,982,970,937,1018,854,841,828,807,802,790,777,728,751,701,688,675,701,648,701,661,609,595,582,570,566,567,569,564,553,553,556,591,580,568,563,568,564,588,588,616,591,611,577,611,580,591,623,652,600,590,599,623,645,592,479,476,478,469,470,525,593,668,755,779,786,773,742,748,736,723,716,704,686,668,661,641,641,624,616,598,590,573,565,549,523,524,511,498,487,527,484,485,490,484,488,485,495,498,490,496,494,530,496,487,498,496,493,503,500,496,490,503,490,506,495,493,490,500,506,584,570,572,574,577,631,753,845,879,934,938,923,909,894,916,901,901,834,810,804,789,795,759,764,721,719,734,684,669,652,639,618,603,588,581,585,579,588,571,579,582,600,592,584,585,596,582,596,594,602,623,618,640,636,594,588,598,592,598,585,594,601,588,598,590,653,664,666,708,675,742,946,936,1022,1065,1067,1050,1034,1017,1000,983,999,949,933,916,911,882,865,886,832,815,808,781,764,747,731,721,721,703,667,663,665,675,669,667,671,685,676,680,676,687,679,674,680,674,684,687,695,695,691,686,672,694,684,679,683,702,690,702,686,451,428,429,430,432,464,516,548,579,614,635,627,620,612,640,589,641,633,625,589,553,606,595,563,551,540,529,517,506,494,483,471,460,472,437,432,434,436,430,427,431,442,433,432,431,444,437,452,440,437,448,430,449,438,446,441,434,449,441,447,444,441,437,444,439,0,0,0,0,0,0,0,0,0,0,0,0,0,0,0,0,0,0,0,0,0,0,0,0,0,0,0,0,0,0,0,0,0,0,0,0,0,0,0,0,0,0,0,0,0,0,0,0,0,0,0,0,0,0,0,0,0,0,0,0,0,0,0,0,0,706,672,674,676,763,801,922,1030,1042,1084,1159,1177,1053,1085,1085,1066,1031,1030,1011,1024,960,956,937,907,929,871,874,845,827,765,789,803,762,729,683,717,759,730,707,709,701,705,717,723,716,730,728,752,726,740,723,730,725,740,725,728,745,731,730,748,738,746,736,740,737,0,0,0,0,0,0,0,0,0,0,0,0,0,0,0,0,0,0,0,0,0,0,0,0,0,0,0,0,0,0,0,0,0,0,0,0,0,0,0,0,0,0,0,0,0,0,0,0,0,0,0,0,0,0,0,0,0,0,0,0,0,0,0,0,0,624,563,565,629,574,642,719,831,876,921,926,895,898,869,870,856,842,828,836,800,786,772,746,744,709,740,688,666,670,660,667,608,666,577,570,570,571,593,577,584,584,573,591,605,608,586,584,609,591,590,586,590,585,591,591,596,588,586,587,588,588,593,595,594,584,771,825,827,778,871,984,1076,1233,1224,1264,1263,1312,1307,1272,1212,1192,1172,1152,1127,1112,1140,1119,1040,1110,991,1035,1001,971,901,951,930,886,899,805,834,783,837,802,828,828,845,929,845,828,850,878,855,837,847,840,844,835,848,845,848,838,837,835,847,855,832,858,836,846,851,979,959,999,1027,1082,1178,1303,1450,1555,1605,1579,1588,1528,1586,1470,1450,1432,1389,1356,1304,1285,1260,1257,1278,1189,1171,1158,1153,1131,1074,1074,1043,1073,1029,972,970,1007,975,1027,1009,1005,1028,1000,997,998,1022,1016,1096,993,1009,1023,1013,1051,1007,1028,1026,1036,1016,1006,1016,1028,1017,1020,1014,1012,883,915,885,923,962,1058,1166,1303,1345,1447,1421,1526,1373,1419,1333,1311,1289,1271,1234,1207,1184,1130,1129,1117,1099,1077,1084,1043,1012,990,981,931,946,893,862,891,892,923,888,893,906,931,915,915,906,929,901,934,922,931,968,960,986,975,922,922,937,931,929,919,936,951,919,927,917,381,382,383,384,386,396,467,521,576,622,631,621,611,579,591,581,546,561,551,521,531,502,511,501,491,483,471,461,453,441,415,421,411,419,391,387,388,389,384,378,380,379,380,376,380,379,383,379,378,380,384,385,385,385,387,384,385,385,386,396,387,391,385,384,388,346,347,348,349,350,407,454,471,560,565,563,566,557,548,539,518,520,511,502,493,484,475,465,456,447,438,429,420,410,401,392,383,366,390,348,351,352,353,332,333,333,334,335,335,337,338,338,339,340,340,341,341,342,343,343,345,346,346,347,348,348,349,350,350,351,225,225,226,227,227,236,265,295,324,353,367,361,356,350,344,339,333,328,322,316,311,305,299,294,288,283,277,271,266,260,254,249,243,238,232,228,229,229,212,223,219,223,225,225,220,230,216,230,218,219,220,224,232,238,230,224,222,218,230,225,220,223,217,224,217,963,934,934,975,1007,1137,1177,1324,1378,1414,1413,1459,1422,1442,1387,1369,1390,1364,1259,1258,1245,1170,1216,1184,1162,1112,1117,1091,1080,1028,1022,1032,993,1004,992,944,961,964,951,992,952,950,973,954,968,976,971,970,996,967,973,980,980,986,983,994,992,988,1001,970,993,1000,1021,984,986,632,619,621,640,637,679,812,870,946,982,1063,975,959,943,939,910,899,891,899,882,854,846,818,805,808,772,753,740,725,710,717,676,646,627,613,643,628,630,629,623,634,633,616,645,630,641,634,639,662,636,629,626,638,638,641,645,655,640,656,648,633,631,634,646,619,0,0,0,0,0,0,0,0,0,0,0,0,0,0,0,0,0,0,0,0,0,0,0,0,0,0,0,0,0,0,0,0,0,0,0,0,0,0,0,0,0,0,0,0,0,0,0,0,0,0,0,0,0,0,0,0,0,0,0,0,0,0,0,0,0 ]);
