n = 10;
D = [252,274,203,114,151,107,148,125,162,64 ];
q = 0;
prec = array2d(1..0,1..2,[]);
steps = 64;
l = 360;
r = 0;
which = [];
interval = array2d(1..0,1..2,[]);
T = array3d(1..11,1..11,0..64,[0,0,0,0,0,0,0,0,0,0,0,0,0,0,0,0,0,0,0,0,0,0,0,0,0,0,0,0,0,0,0,0,0,0,0,0,0,0,0,0,0,0,0,0,0,0,0,0,0,0,0,0,0,0,0,0,0,0,0,0,0,0,0,0,0,525,527,528,549,550,643,772,895,1018,1032,1096,1032,1016,1001,983,966,993,933,918,941,924,867,852,835,829,810,838,821,776,752,751,670,654,645,592,562,563,564,484,483,482,483,486,486,485,489,486,491,487,484,485,483,485,488,488,485,487,486,484,489,485,490,486,486,486,893,882,894,924,945,1167,1428,1616,1726,1746,1768,1706,1726,1710,1667,1629,1615,1579,1545,1491,1490,1465,1433,1383,1371,1352,1310,1295,1238,1132,1118,1016,973,954,933,928,903,878,796,794,794,795,798,798,797,801,798,803,799,796,797,795,797,800,800,797,799,798,796,801,797,802,798,798,798,1181,1191,1196,1220,1365,1855,2081,2286,2448,2480,2449,2415,2370,2332,2288,2244,2203,2157,2117,2072,2029,1981,1953,1912,1873,1831,1799,1611,1468,1423,1353,1314,1276,1255,1241,1241,1231,1237,1158,1171,1170,1174,1177,1180,1175,1183,1182,1178,1191,1183,1182,1178,1182,1183,1184,1178,1180,1182,1182,1178,1178,1182,1184,1184,1184,271,272,272,292,302,347,391,437,482,528,554,546,537,529,519,510,502,491,484,474,467,456,449,439,432,421,414,405,396,387,378,370,361,352,343,303,304,305,248,247,247,247,251,250,250,253,250,256,251,249,250,248,249,252,252,249,251,250,248,253,250,253,251,251,251,922,931,944,937,1024,1339,1591,1804,1943,1984,1959,1947,1938,1893,1831,1794,1759,1724,1688,1654,1619,1581,1566,1528,1495,1457,1433,1398,1353,1228,1077,1051,1015,994,979,977,971,988,905,903,907,916,909,920,920,926,923,921,931,915,916,920,925,925,918,921,923,925,925,921,921,925,927,927,927,628,632,633,655,667,813,953,1094,1200,1263,1277,1257,1237,1213,1196,1174,1154,1133,1113,1093,1053,1051,1032,1011,992,970,950,930,910,863,853,823,768,718,665,639,652,654,581,580,579,580,583,583,582,586,583,588,584,581,582,580,582,585,585,582,584,583,581,586,582,587,583,583,583,685,686,688,691,693,969,1088,1201,1317,1378,1378,1357,1333,1312,1274,1268,1246,1225,1203,1181,1158,1136,1115,1092,1069,1047,1025,1003,981,945,924,904,838,717,704,696,697,699,666,666,668,672,703,687,693,688,681,689,687,681,689,676,676,687,683,672,702,676,667,691,688,698,690,689,682,303,304,305,325,335,388,438,487,537,586,614,605,594,586,575,566,557,546,537,527,519,508,499,489,480,469,461,451,442,431,422,413,404,392,380,336,337,376,275,277,277,281,281,283,281,286,282,288,284,281,284,282,287,304,287,283,288,285,285,286,289,292,286,286,286,516,518,519,540,542,612,786,874,962,1030,1050,1032,1016,1001,991,967,950,930,916,899,882,865,847,842,815,797,782,764,747,730,713,697,624,615,555,548,545,546,473,473,473,478,482,479,481,489,476,487,482,489,476,475,480,486,480,479,483,490,477,481,478,481,479,479,479,0,0,0,0,0,0,0,0,0,0,0,0,0,0,0,0,0,0,0,0,0,0,0,0,0,0,0,0,0,0,0,0,0,0,0,0,0,0,0,0,0,0,0,0,0,0,0,0,0,0,0,0,0,0,0,0,0,0,0,0,0,0,0,0,0,569,571,572,574,576,687,919,996,1106,1210,1155,1180,1120,1145,1083,1065,1047,1025,1006,994,971,960,928,969,882,805,903,772,756,811,722,653,663,586,612,577,579,583,571,574,577,585,607,589,580,589,573,591,589,619,585,584,603,626,586,584,584,594,587,586,577,621,577,588,577,0,0,0,0,0,0,0,0,0,0,0,0,0,0,0,0,0,0,0,0,0,0,0,0,0,0,0,0,0,0,0,0,0,0,0,0,0,0,0,0,0,0,0,0,0,0,0,0,0,0,0,0,0,0,0,0,0,0,0,0,0,0,0,0,0,496,497,499,500,502,609,735,821,907,985,1009,996,968,958,936,919,904,888,877,861,845,834,811,801,786,765,759,728,712,696,678,631,624,534,508,504,505,507,472,475,474,477,504,491,487,496,488,501,499,505,514,480,485,497,491,480,505,489,480,489,496,498,502,496,491,1328,1329,1334,1369,1481,1884,2292,2509,2598,2629,2616,2568,2538,2503,2477,2412,2371,2336,2267,2215,2173,2144,2104,2062,2019,1966,1747,1733,1511,1530,1470,1416,1357,1351,1336,1348,1319,1306,1284,1280,1284,1288,1286,1294,1288,1297,1293,1298,1296,1306,1306,1307,1295,1289,1292,1292,1296,1293,1286,1288,1292,1294,1293,1290,1289,342,343,344,345,347,401,513,573,633,647,694,683,672,636,650,639,600,617,606,573,584,552,562,551,540,531,518,507,498,485,456,463,412,453,389,348,386,387,345,337,342,341,337,338,339,341,344,341,340,342,340,344,346,346,348,345,346,346,347,353,348,349,346,345,348,1068,1069,1074,1080,1131,1548,1850,2122,2176,2217,2242,2134,2096,2041,2040,1981,1943,1939,1925,1884,1845,1797,1755,1726,1687,1623,1602,1545,1414,1219,1284,1153,1090,1090,1073,1083,1082,1087,1051,1057,1056,1061,1095,1085,1065,1080,1068,1084,1087,1084,1084,1088,1092,1091,1082,1092,1087,1089,1085,1085,1084,1118,1083,1086,1074,208,209,210,256,258,269,305,342,377,413,429,421,414,408,401,393,387,380,374,367,359,353,346,339,332,325,319,312,304,298,291,284,278,270,264,259,260,260,207,199,199,200,202,201,201,203,200,207,201,200,202,203,202,201,207,204,205,203,203,205,203,204,205,207,207,566,544,569,570,583,647,852,912,1042,1118,1134,1117,1061,1051,1061,1043,1025,973,955,958,920,939,916,869,851,864,821,826,781,793,775,757,717,590,577,574,576,554,551,550,553,553,553,554,554,554,554,555,555,552,556,556,556,557,557,557,553,557,554,557,549,558,553,557,554,273,274,275,276,277,353,397,446,492,536,548,541,532,523,514,507,498,489,480,473,464,455,446,437,430,421,412,403,396,387,378,369,361,353,344,278,278,279,245,252,245,250,263,255,252,255,247,255,252,272,246,247,252,308,251,251,255,250,250,255,252,269,247,253,249,364,365,370,371,388,439,529,594,674,716,741,729,717,705,688,677,665,653,620,609,597,586,575,564,552,541,540,519,507,496,484,474,461,452,372,390,390,370,347,339,338,338,342,348,345,352,349,344,352,343,345,343,344,349,346,346,344,345,344,343,344,346,345,352,349,569,571,572,574,576,687,919,996,1106,1210,1155,1180,1120,1145,1083,1065,1047,1025,1006,994,971,960,928,969,882,805,903,772,756,811,722,653,663,586,612,577,579,583,571,574,577,585,607,589,580,589,573,591,589,619,585,584,603,626,586,584,584,594,587,586,577,621,577,588,577,957,942,945,965,1010,1284,1516,1691,1825,1885,1861,1850,1830,1786,1766,1710,1718,1665,1644,1606,1574,1536,1548,1475,1453,1415,1392,1370,1252,1197,1102,1064,1004,1008,958,961,964,933,912,902,909,913,908,925,910,926,919,918,923,919,922,921,919,923,914,916,922,927,917,924,921,922,919,927,920,527,528,530,530,535,694,784,876,967,1043,1045,1037,1019,1002,995,966,952,935,918,918,888,872,861,845,825,801,793,778,751,742,717,704,681,541,532,536,534,524,504,496,503,504,497,515,504,515,510,507,512,513,517,519,524,521,510,505,515,518,510,513,514,515,510,519,512,0,0,0,0,0,0,0,0,0,0,0,0,0,0,0,0,0,0,0,0,0,0,0,0,0,0,0,0,0,0,0,0,0,0,0,0,0,0,0,0,0,0,0,0,0,0,0,0,0,0,0,0,0,0,0,0,0,0,0,0,0,0,0,0,0,925,927,978,941,1035,1441,1710,1896,1996,2022,2041,1970,1930,1896,1895,1822,1783,1785,1711,1673,1637,1601,1650,1608,1490,1454,1416,1380,1342,1306,1200,1045,977,977,936,939,942,949,951,964,963,971,988,956,973,992,975,967,1006,985,999,1008,1016,1016,1052,965,992,990,979,965,974,963,974,987,962,690,693,694,697,706,866,1059,1180,1301,1374,1374,1360,1338,1311,1293,1263,1249,1227,1201,1191,1165,1145,1130,1102,1076,1056,1034,1019,989,957,927,829,809,724,702,701,704,642,624,614,618,621,616,632,620,633,626,625,630,626,629,628,626,637,626,624,629,634,624,631,628,629,626,634,627,1095,1098,1104,1124,1163,1476,1805,1985,2136,2182,2156,2120,2087,2052,2018,1984,1950,1941,1881,1846,1812,1778,1743,1710,1675,1641,1607,1574,1537,1370,1202,1174,1147,1126,1114,1111,1110,1113,1103,1100,1092,1084,1118,1111,1113,1115,1116,1127,1135,1119,1127,1145,1136,1128,1124,1132,1110,1133,1121,1120,1116,1118,1120,1124,1117,552,554,555,566,567,757,871,952,1046,1119,1098,1082,1082,1048,1052,1035,996,979,962,944,927,910,893,875,873,841,825,844,789,773,755,739,590,576,564,560,601,568,564,567,567,573,574,577,573,564,571,573,573,576,578,575,570,576,574,577,575,568,576,582,575,569,565,576,563,999,1018,1017,1034,1138,1498,1714,1871,1979,2015,2004,1968,1942,1920,1897,1854,1822,1789,1745,1695,1683,1657,1599,1592,1560,1519,1426,1466,1352,1327,1170,1074,1104,1038,1034,1027,988,1028,1017,1004,1012,1020,1032,1005,1012,1015,1017,1031,1036,1034,1030,1041,1028,1026,1047,1037,1029,1033,1039,1040,1033,1035,1043,1042,1031,699,700,701,703,717,946,1068,1193,1311,1381,1377,1362,1339,1317,1306,1267,1252,1230,1208,1205,1168,1147,1130,1110,1084,1056,1041,1023,990,975,946,822,738,716,706,711,710,674,656,649,651,661,660,670,666,671,663,664,666,664,668,673,664,693,690,678,670,675,664,665,666,666,678,672,663,525,525,529,530,537,615,787,883,973,1045,1064,1039,1021,1016,1001,978,968,943,928,910,892,871,858,837,820,809,786,761,742,737,684,637,603,548,535,537,533,529,484,483,477,481,493,498,491,496,491,501,496,500,503,510,504,507,500,496,501,497,500,506,502,499,500,500,499,957,942,945,965,1010,1284,1516,1691,1825,1885,1861,1850,1830,1786,1766,1710,1718,1665,1644,1606,1574,1536,1548,1475,1453,1415,1392,1370,1252,1197,1102,1064,1004,1008,958,961,964,933,912,902,909,913,908,925,910,926,919,918,923,919,922,921,919,923,914,916,922,927,917,924,921,922,919,927,920,1167,1171,1175,1187,1266,1822,2154,2315,2410,2447,2427,2383,2341,2299,2257,2213,2172,2129,2088,2044,2001,1975,1917,1868,1832,1750,1747,1730,1617,1569,1364,1287,1228,1230,1207,1190,1215,1205,1201,1192,1193,1194,1196,1205,1205,1211,1213,1211,1214,1212,1207,1213,1208,1207,1211,1220,1218,1221,1213,1218,1216,1253,1209,1215,1211,1317,1321,1334,1350,1566,2093,2464,2577,2687,2694,2676,2646,2608,2543,2504,2443,2406,2359,2316,2279,2218,2194,2149,2072,2043,1989,1922,1666,1615,1594,1484,1425,1391,1346,1346,1320,1316,1319,1309,1299,1308,1305,1304,1309,1307,1308,1309,1305,1310,1305,1307,1309,1304,1311,1311,1315,1312,1311,1310,1315,1313,1344,1306,1312,1308,1019,1022,1022,1059,1128,1604,1857,2044,2162,2204,2185,2146,2106,2066,2030,1992,1953,1908,1868,1832,1793,1792,1710,1675,1663,1596,1552,1512,1510,1432,1275,1107,1090,1049,1033,1042,1039,1045,1038,1032,1041,1037,1050,1062,1049,1056,1047,1063,1063,1052,1050,1075,1079,1075,1081,1093,1072,1088,1084,1080,1068,1055,1062,1065,1044,0,0,0,0,0,0,0,0,0,0,0,0,0,0,0,0,0,0,0,0,0,0,0,0,0,0,0,0,0,0,0,0,0,0,0,0,0,0,0,0,0,0,0,0,0,0,0,0,0,0,0,0,0,0,0,0,0,0,0,0,0,0,0,0,0,1068,1067,1074,1086,1139,1635,1945,2109,2209,2252,2215,2198,2150,2103,2079,2034,1993,1957,1917,1883,1838,1797,1758,1714,1678,1646,1605,1564,1529,1456,1265,1157,1132,1093,1083,1084,1080,1084,1074,1063,1073,1069,1069,1073,1072,1073,1073,1070,1075,1070,1071,1073,1068,1075,1080,1079,1076,1075,1075,1078,1078,1108,1070,1076,1072,410,411,412,414,415,558,620,691,766,816,825,822,799,786,773,760,746,734,721,708,695,682,669,656,643,630,617,603,591,578,565,560,539,481,420,416,417,418,411,402,403,405,407,412,409,414,408,408,410,404,406,405,406,412,410,409,409,407,408,410,408,416,407,416,409,1433,1439,1429,1498,1625,2342,2666,2808,2921,2920,2889,2866,2815,2733,2692,2641,2578,2554,2506,2456,2368,2319,2289,2221,2189,2149,2043,1929,1796,1692,1570,1492,1503,1469,1459,1417,1413,1416,1406,1396,1405,1402,1401,1406,1404,1405,1406,1402,1407,1402,1404,1406,1401,1408,1408,1412,1409,1408,1407,1412,1410,1441,1403,1409,1405,1543,1535,1553,1627,1917,2536,2891,3027,3104,3124,3077,3038,2985,2920,2879,2827,2777,2724,2669,2616,2573,2534,2462,2395,2350,2100,1965,1796,1753,1710,1666,1620,1573,1577,1545,1559,1557,1570,1549,1551,1553,1546,1546,1556,1551,1548,1558,1556,1559,1555,1558,1560,1561,1558,1559,1569,1558,1565,1566,1565,1569,1597,1558,1564,1560,1105,1108,1112,1118,1175,1698,2021,2186,2284,2324,2291,2264,2222,2172,2142,2101,2062,2021,1982,1944,1901,1877,1828,1774,1740,1705,1659,1618,1572,1323,1231,1191,1164,1136,1173,1126,1129,1138,1118,1111,1114,1114,1113,1120,1114,1115,1116,1117,1116,1111,1113,1115,1114,1116,1118,1119,1114,1115,1114,1117,1114,1151,1112,1118,1114,1046,1049,1053,1089,1210,1607,1845,1991,2067,2073,2062,2052,1996,1963,1930,1897,1891,1831,1798,1790,1756,1728,1689,1653,1622,1586,1553,1520,1471,1331,1161,1133,1126,1088,1077,1062,1049,1065,1051,1061,1064,1071,1057,1070,1059,1057,1061,1068,1094,1071,1070,1075,1074,1112,1076,1079,1068,1083,1075,1092,1079,1081,1073,1109,1086,1167,1171,1175,1187,1266,1822,2154,2315,2410,2447,2427,2383,2341,2299,2257,2213,2172,2129,2088,2044,2001,1975,1917,1868,1832,1750,1747,1730,1617,1569,1364,1287,1228,1230,1207,1190,1215,1205,1201,1192,1193,1194,1196,1205,1205,1211,1213,1211,1214,1212,1207,1213,1208,1207,1211,1220,1218,1221,1213,1218,1216,1253,1209,1215,1211,358,359,363,361,362,351,510,600,599,715,725,678,702,691,618,668,655,645,633,566,555,599,587,576,564,503,470,530,450,442,495,360,351,343,334,345,367,423,342,342,342,355,353,345,342,348,349,353,358,368,375,366,358,378,351,350,352,354,345,353,349,346,345,355,347,279,279,280,281,282,296,405,451,495,536,550,542,533,525,517,509,500,491,484,475,467,458,451,442,433,469,485,474,463,453,383,376,300,293,287,282,283,284,236,236,235,236,235,236,235,236,236,235,236,235,235,235,236,236,236,236,236,236,236,236,235,237,235,234,234,630,628,633,635,640,754,956,1043,1190,1253,1224,1227,1163,1206,1178,1167,1134,1120,1092,1062,1022,1028,1020,990,949,947,931,917,895,846,747,740,689,657,658,641,633,630,548,548,547,548,547,548,547,548,548,547,548,547,547,547,548,548,548,548,548,548,548,548,547,549,547,546,546,1083,1101,1104,1110,1155,1637,1948,2136,2260,2288,2263,2224,2184,2144,2103,2067,2022,1982,1945,1911,1870,1827,1780,1747,1708,1669,1652,1578,1506,1336,1262,1170,1174,1113,1103,1103,1096,1097,1101,1102,1102,1115,1110,1119,1114,1126,1119,1127,1123,1118,1161,1123,1165,1122,1125,1142,1119,1132,1119,1120,1141,1141,1119,1120,1106,0,0,0,0,0,0,0,0,0,0,0,0,0,0,0,0,0,0,0,0,0,0,0,0,0,0,0,0,0,0,0,0,0,0,0,0,0,0,0,0,0,0,0,0,0,0,0,0,0,0,0,0,0,0,0,0,0,0,0,0,0,0,0,0,0,824,841,844,846,890,1191,1420,1646,1749,1782,1769,1738,1706,1674,1643,1646,1587,1547,1515,1483,1452,1421,1379,1357,1325,1293,1285,1221,1221,1118,928,957,908,852,839,838,835,854,845,832,840,842,831,857,848,869,849,851,861,844,846,844,842,853,850,852,848,848,846,842,849,869,850,850,850,396,396,398,399,402,457,601,673,743,792,800,801,778,765,753,740,727,713,701,688,703,660,650,646,624,611,598,583,569,557,544,534,460,445,436,402,403,432,333,333,332,333,332,333,332,333,333,332,333,332,332,332,333,333,333,333,333,333,333,333,332,334,332,331,331,611,612,614,639,634,771,970,1083,1181,1245,1229,1210,1191,1171,1151,1131,1112,1092,1072,1113,1032,1046,994,1006,954,935,915,895,875,855,822,737,769,636,623,620,621,671,613,608,610,611,624,626,614,627,618,614,623,625,618,624,626,634,629,637,627,632,629,634,634,636,626,626,626,223,224,224,225,225,269,320,356,390,427,465,458,451,444,436,429,422,415,408,400,393,386,379,371,365,357,350,343,336,328,309,313,290,282,276,225,226,227,182,180,178,180,189,189,185,188,186,189,187,192,191,184,187,189,189,184,189,188,183,190,192,191,191,190,190,250,250,251,252,252,265,362,403,445,488,507,499,491,485,478,477,462,453,445,438,430,421,413,405,403,389,381,373,364,358,346,338,331,263,257,253,254,254,225,226,226,231,231,229,231,236,226,231,231,239,226,227,231,234,228,230,232,240,229,228,228,228,228,228,228,358,359,363,361,362,351,510,600,599,715,725,678,702,691,618,668,655,645,633,566,555,599,587,576,564,503,470,530,450,442,495,360,351,343,334,345,367,423,342,342,342,355,353,345,342,348,349,353,358,368,375,366,358,378,351,350,352,354,345,353,349,346,345,355,347,930,939,905,940,981,1439,1596,1792,1948,1925,1925,1890,1855,1810,1795,1845,1709,1690,1643,1608,1574,1569,1505,1472,1439,1432,1333,1299,1366,1309,1121,1030,955,931,921,947,943,923,944,937,940,941,932,942,946,944,958,953,951,949,951,954,949,949,952,955,954,954,949,954,954,972,974,981,954,1052,1054,1057,1098,1110,1601,1927,2118,2177,2202,2195,2135,2118,2079,2043,2093,1999,1919,1871,1841,1820,1764,1738,1712,1648,1614,1598,1538,1235,1205,1173,1160,1112,1094,1081,1067,1049,1041,1029,1039,1030,1052,1039,1048,1039,1060,1047,1054,1054,1050,1056,1055,1066,1058,1074,1067,1066,1070,1065,1062,1066,1080,1057,1056,1055,1137,1140,1145,1160,1288,1729,1979,2132,2235,2268,2251,2240,2180,2142,2108,2096,2036,2000,1985,1929,1912,1856,1819,1783,1780,1726,1693,1643,1606,1441,1292,1247,1197,1170,1158,1154,1127,1128,1125,1131,1137,1142,1148,1141,1142,1151,1139,1138,1140,1147,1145,1155,1146,1145,1151,1155,1152,1153,1148,1145,1147,1146,1144,1144,1139,396,398,398,415,428,446,576,645,712,778,800,788,775,762,750,743,731,711,698,686,673,661,647,634,622,609,597,584,570,558,545,472,461,414,405,400,402,403,394,379,381,383,405,400,392,392,391,392,412,414,413,411,414,399,405,402,406,415,406,406,399,405,407,410,404,796,797,800,802,863,1184,1391,1578,1692,1724,1723,1679,1657,1626,1603,1659,1532,1510,1468,1447,1416,1384,1346,1321,1290,1250,1233,1195,1164,1132,1102,925,859,835,813,807,813,805,794,803,795,816,804,814,803,825,812,819,819,815,820,819,830,822,838,836,830,834,830,825,831,844,821,820,819,0,0,0,0,0,0,0,0,0,0,0,0,0,0,0,0,0,0,0,0,0,0,0,0,0,0,0,0,0,0,0,0,0,0,0,0,0,0,0,0,0,0,0,0,0,0,0,0,0,0,0,0,0,0,0,0,0,0,0,0,0,0,0,0,0,1175,1163,1178,1194,1373,1825,2113,2310,2378,2435,2414,2368,2338,2299,2212,2282,2144,2095,2056,2031,1995,1914,1868,1866,1816,1782,1741,1698,1519,1430,1341,1270,1237,1181,1209,1185,1146,1138,1126,1136,1127,1149,1136,1145,1136,1157,1144,1151,1151,1147,1153,1152,1163,1155,1171,1164,1163,1167,1162,1159,1163,1177,1154,1153,1152,1273,1278,1280,1333,1565,2087,2330,2514,2589,2627,2603,2556,2578,2458,2414,2474,2324,2280,2285,2190,2146,2112,2055,2024,2031,1921,1892,1769,1695,1426,1389,1368,1334,1308,1336,1282,1292,1283,1290,1296,1302,1313,1294,1333,1306,1320,1314,1326,1313,1313,1320,1333,1328,1337,1346,1338,1328,1323,1333,1324,1320,1339,1344,1329,1314,837,839,842,849,900,1313,1461,1644,1755,1798,1788,1756,1790,1692,1661,1743,1598,1566,1586,1502,1470,1439,1408,1376,1412,1312,1297,1267,1217,1185,985,958,931,867,905,850,855,855,858,865,865,869,865,890,873,888,871,883,872,870,873,888,883,884,904,894,878,879,883,872,872,870,898,883,868,925,898,951,914,1033,1348,1582,1845,1872,1912,1900,1866,1833,1799,1766,1789,1699,1716,1631,1664,1564,1531,1497,1464,1430,1451,1364,1329,1329,1262,1061,1032,950,926,910,935,914,918,926,929,937,930,945,940,938,939,936,947,942,941,951,938,948,954,961,956,947,945,953,948,948,953,941,956,951,930,939,905,940,981,1439,1596,1792,1948,1925,1925,1890,1855,1810,1795,1845,1709,1690,1643,1608,1574,1569,1505,1472,1439,1432,1333,1299,1366,1309,1121,1030,955,931,921,947,943,923,944,937,940,941,932,942,946,944,958,953,951,949,951,954,949,949,952,955,954,954,949,954,954,972,974,981,954,774,774,777,780,821,1075,1265,1415,1560,1546,1552,1530,1503,1524,1455,1472,1402,1383,1397,1329,1310,1268,1307,1248,1131,1223,1084,1062,1046,974,998,893,820,801,787,785,820,788,775,793,786,799,799,800,797,798,801,810,799,797,797,819,820,810,797,795,805,796,802,802,804,791,796,806,788,225,226,226,227,279,291,330,369,408,446,463,455,448,441,433,425,419,411,403,396,389,381,374,366,359,352,344,336,330,322,314,308,300,292,284,280,280,281,223,214,216,216,214,217,216,218,216,218,223,220,217,220,217,221,220,218,220,218,220,222,222,224,221,225,222,561,534,535,537,554,682,824,922,1068,1062,1083,1067,1104,1086,1068,998,1031,987,945,976,911,941,875,859,842,824,807,789,813,756,737,738,648,560,578,554,542,543,539,527,532,551,543,538,543,546,541,541,545,549,582,567,573,576,558,546,541,561,585,587,597,625,595,602,556,1468,1470,1476,1572,1795,2313,2726,2893,2975,3004,2965,2898,2858,2832,2782,2714,2687,2620,2582,2534,2486,2428,2365,2313,2258,2106,2028,1742,1698,1668,1636,1575,1545,1496,1492,1496,1490,1495,1440,1427,1434,1444,1448,1443,1455,1442,1444,1447,1452,1456,1501,1456,1457,1464,1451,1451,1455,1464,1502,1513,1492,1510,1497,1494,1463,546,548,553,554,534,707,804,903,993,1057,1043,1027,1015,1048,1035,1012,994,976,959,948,877,861,849,832,815,837,782,765,749,766,737,698,612,614,532,575,579,577,538,535,536,544,540,549,541,544,549,546,545,542,540,545,541,539,545,548,547,545,544,542,549,573,553,570,551,1263,1277,1283,1326,1603,1919,2308,2502,2531,2531,2525,2481,2489,2480,2400,2365,2341,2230,2236,2204,2115,2033,1989,1942,1911,1887,1878,1774,1579,1541,1366,1337,1296,1279,1254,1266,1299,1268,1258,1272,1265,1289,1294,1285,1287,1287,1291,1286,1282,1298,1301,1306,1303,1296,1295,1297,1295,1294,1301,1309,1308,1297,1294,1303,1285,0,0,0,0,0,0,0,0,0,0,0,0,0,0,0,0,0,0,0,0,0,0,0,0,0,0,0,0,0,0,0,0,0,0,0,0,0,0,0,0,0,0,0,0,0,0,0,0,0,0,0,0,0,0,0,0,0,0,0,0,0,0,0,0,0,625,630,636,638,640,860,998,1108,1214,1261,1267,1245,1225,1217,1184,1164,1155,1124,1113,1083,1074,1052,1023,1002,983,970,942,921,909,855,867,833,670,654,676,638,639,666,635,623,625,629,627,637,633,633,633,631,636,630,633,630,630,635,641,638,630,635,630,636,633,666,635,657,639,477,478,479,481,486,645,728,815,899,948,957,941,927,911,896,881,866,851,836,821,806,790,776,761,745,731,716,700,686,671,655,640,625,499,487,484,486,462,453,461,454,466,465,472,462,472,464,473,460,458,460,468,469,465,466,466,461,459,471,477,461,461,461,478,460,541,556,557,558,568,706,844,943,1061,1123,1114,1068,1086,1067,1043,1003,1008,979,961,965,937,919,902,893,866,849,840,822,795,785,608,607,593,565,566,599,564,561,500,486,490,504,504,502,511,502,509,510,520,520,556,513,518,529,506,514,515,519,557,560,554,569,557,556,525,774,774,777,780,821,1075,1265,1415,1560,1546,1552,1530,1503,1524,1455,1472,1402,1383,1397,1329,1310,1268,1307,1248,1131,1223,1084,1062,1046,974,998,893,820,801,787,785,820,788,775,793,786,799,799,800,797,798,801,810,799,797,797,819,820,810,797,795,805,796,802,802,804,791,796,806,788,756,759,732,731,800,1023,1173,1357,1406,1510,1494,1483,1458,1434,1375,1386,1328,1344,1319,1294,1216,1247,1170,1147,1124,1100,1078,1056,1032,1009,983,796,880,753,806,728,729,759,759,756,756,758,759,759,759,759,759,759,759,759,759,759,759,759,759,759,759,759,759,759,759,759,759,759,759,468,469,471,473,478,638,750,807,892,943,950,937,908,894,889,874,861,845,828,812,798,783,767,754,737,746,707,683,668,661,645,623,617,491,479,476,477,478,471,471,473,478,478,478,474,478,478,478,478,478,478,478,478,478,478,478,478,478,478,478,478,478,478,478,478,808,835,887,820,862,1180,1418,1491,1621,1670,1611,1586,1626,1534,1576,1482,1456,1427,1397,1384,1405,1327,1302,1304,1308,1278,1265,1192,1151,1122,1018,905,898,838,873,834,863,825,848,844,850,850,850,850,850,850,850,850,850,850,850,850,850,850,850,850,850,850,850,850,850,850,850,850,850,1473,1476,1524,1680,2168,2552,3018,3148,3210,3200,3172,3111,3083,3027,2978,2923,2866,2808,2753,2690,2634,2588,2517,2465,2313,2090,2015,1813,1800,1718,1656,1574,1560,1531,1484,1547,1510,1528,1584,1584,1584,1584,1584,1584,1584,1584,1584,1584,1584,1584,1584,1584,1584,1584,1584,1584,1584,1584,1584,1584,1584,1584,1584,1584,1584,601,603,604,681,622,814,949,1060,1248,1200,1278,1188,1228,1149,1130,1111,1092,1072,1053,1034,1015,995,976,1014,938,1026,899,880,861,841,787,754,641,626,611,610,612,613,614,610,614,614,614,614,614,614,614,614,609,614,614,614,614,614,614,614,614,614,614,614,614,614,614,614,614,1326,1332,1339,1402,1729,2059,2510,2661,2723,2721,2699,2651,2631,2573,2536,2489,2439,2391,2343,2290,2239,2199,2151,2103,2056,2006,1957,1838,1628,1507,1458,1414,1400,1364,1346,1343,1355,1324,1314,1314,1314,1314,1314,1314,1314,1314,1314,1314,1314,1314,1314,1314,1314,1314,1314,1314,1314,1314,1314,1314,1314,1314,1314,1314,1314,447,448,450,451,495,484,684,749,840,880,887,873,859,844,852,817,822,808,774,760,745,731,734,721,705,688,675,646,647,632,502,603,480,572,497,496,445,489,427,428,431,432,430,432,431,431,432,432,433,433,434,441,474,467,440,436,433,436,433,435,433,434,434,434,434,0,0,0,0,0,0,0,0,0,0,0,0,0,0,0,0,0,0,0,0,0,0,0,0,0,0,0,0,0,0,0,0,0,0,0,0,0,0,0,0,0,0,0,0,0,0,0,0,0,0,0,0,0,0,0,0,0,0,0,0,0,0,0,0,0,531,533,535,536,545,606,823,918,1009,1056,1064,1048,1031,1015,997,981,964,948,930,914,897,881,863,847,830,812,796,779,763,745,729,597,583,555,541,540,540,518,509,509,509,509,509,509,509,509,509,509,509,509,509,509,509,509,509,509,509,509,509,509,509,509,509,509,509,793,784,798,796,872,1157,1312,1469,1537,1576,1584,1565,1510,1475,1486,1456,1433,1421,1382,1359,1332,1306,1288,1238,1231,1218,1180,1133,1121,1091,878,879,878,824,808,805,808,789,785,787,786,787,790,788,791,790,788,788,788,788,788,788,788,788,788,788,788,788,788,788,788,788,788,788,788,756,759,732,731,800,1023,1173,1357,1406,1510,1494,1483,1458,1434,1375,1386,1328,1344,1319,1294,1216,1247,1170,1147,1124,1100,1078,1056,1032,1009,983,796,880,753,806,728,729,759,759,756,756,758,759,759,759,759,759,759,759,759,759,759,759,759,759,759,759,759,759,759,759,759,759,759,759,414,415,417,418,421,555,628,701,775,829,839,826,812,798,785,772,759,745,732,719,706,693,678,665,652,639,625,612,599,586,572,558,545,532,519,421,485,517,474,415,414,418,414,420,417,420,417,415,418,412,415,414,415,416,417,418,416,418,418,417,415,519,415,421,417,408,410,411,412,414,548,621,695,783,821,831,818,804,790,777,764,751,738,724,711,698,685,671,657,644,631,618,605,591,578,565,530,537,413,419,414,415,417,400,401,408,413,405,415,409,418,406,411,410,409,413,415,412,418,411,411,414,414,412,411,413,415,413,419,413,753,769,797,800,801,1029,1233,1429,1467,1501,1504,1482,1458,1506,1410,1415,1367,1343,1362,1290,1312,1241,1238,1193,1169,1145,1122,1116,1096,1047,981,818,799,783,768,765,793,769,721,707,717,735,745,767,728,762,748,755,766,740,749,735,737,754,742,738,756,735,735,754,754,757,754,762,747,1235,1237,1241,1276,1368,1890,2187,2394,2530,2572,2545,2501,2458,2408,2364,2328,2282,2232,2188,2151,2110,2062,2027,1991,1947,1900,1856,1743,1600,1434,1412,1362,1306,1286,1258,1254,1249,1254,1223,1226,1234,1250,1239,1233,1253,1270,1243,1253,1254,1242,1312,1260,1330,1289,1265,1322,1259,1265,1290,1276,1314,1281,1251,1251,1249,250,251,252,252,253,265,367,409,452,493,509,500,492,485,476,468,460,452,444,436,427,420,412,404,396,388,380,371,364,356,347,339,271,264,258,253,254,255,268,233,229,229,252,252,248,239,241,250,274,255,264,277,281,264,245,252,263,284,283,281,249,250,283,250,239,975,977,981,987,1038,1420,1710,1869,2027,2084,2058,2022,1985,1948,1911,1874,1838,1801,1780,1732,1702,1662,1637,1608,1572,1534,1494,1461,1414,1288,1108,1098,1045,1061,996,989,989,1008,954,956,964,967,977,984,968,983,971,999,987,973,995,995,1014,1014,987,996,987,992,991,984,988,1017,991,988,978,383,384,386,387,388,511,579,647,716,768,779,767,754,742,730,717,705,693,679,667,655,642,630,618,605,592,580,567,555,540,530,518,506,403,393,389,390,391,386,390,389,387,382,396,396,403,387,389,409,390,410,395,400,404,408,413,403,396,406,403,391,387,383,408,378,435,436,438,439,442,587,665,743,822,1005,884,870,855,841,827,812,798,785,771,756,742,728,713,699,685,672,657,643,629,614,600,586,573,600,445,441,442,444,438,428,432,431,439,443,432,445,436,437,443,443,441,443,447,445,445,453,442,446,450,444,450,452,448,531,446,0,0,0,0,0,0,0,0,0,0,0,0,0,0,0,0,0,0,0,0,0,0,0,0,0,0,0,0,0,0,0,0,0,0,0,0,0,0,0,0,0,0,0,0,0,0,0,0,0,0,0,0,0,0,0,0,0,0,0,0,0,0,0,0,0,467,469,470,471,473,530,734,805,884,948,947,932,917,902,886,871,865,841,825,811,796,788,765,758,735,721,713,690,684,661,653,588,571,491,494,474,491,492,450,435,440,443,438,464,442,468,455,447,467,447,449,453,447,454,447,449,451,451,446,448,448,452,447,458,449,414,415,417,418,421,555,628,701,775,829,839,826,812,798,785,772,759,745,732,719,706,693,678,665,652,639,625,612,599,586,572,558,545,532,519,421,485,517,474,415,414,418,414,420,417,420,417,415,418,412,415,414,415,416,417,418,416,418,418,417,415,519,415,421,417,599,604,603,629,621,777,970,1042,1168,1267,1203,1184,1180,1193,1188,1113,1093,1128,1050,1088,1061,1032,1023,1020,981,917,903,874,845,883,760,735,713,621,603,606,607,603,603,609,608,627,603,623,611,624,618,618,621,610,625,616,628,625,613,618,622,623,685,622,622,672,628,636,635,439,440,441,442,443,493,642,715,791,876,886,872,862,847,832,820,804,788,776,760,748,731,717,704,689,675,662,648,596,583,518,561,537,484,450,445,450,448,391,385,390,393,391,391,390,395,390,397,393,393,396,400,399,396,397,398,395,398,396,397,393,396,396,396,396,480,484,486,487,489,548,680,793,876,955,977,968,954,929,922,906,891,875,859,844,829,780,796,770,765,728,713,718,676,654,640,553,545,512,496,491,492,480,386,387,397,420,391,394,391,397,389,392,391,389,390,395,396,398,397,395,393,392,399,398,393,394,387,391,389,996,1006,1002,1022,1099,1365,1649,1826,1935,1960,1951,1955,1891,1862,1831,1801,1789,1745,1716,1688,1664,1627,1594,1596,1538,1504,1480,1443,1349,1242,1172,1091,1053,1039,1025,1012,1009,965,957,955,958,962,971,964,963,967,961,970,966,970,963,963,963,965,964,963,969,965,963,966,966,971,965,965,965,371,360,366,352,376,439,559,600,690,742,751,740,728,716,708,713,641,668,656,608,609,620,581,596,542,553,547,548,521,524,472,471,459,382,437,368,356,426,365,366,367,374,375,376,377,400,376,376,396,393,375,376,378,398,373,372,379,382,379,372,375,377,369,377,373,802,804,806,808,867,1215,1425,1578,1694,1744,1733,1702,1716,1640,1617,1577,1546,1514,1491,1442,1421,1395,1363,1330,1285,1268,1233,1202,1171,1137,1050,949,855,856,870,814,838,817,819,795,805,833,799,820,812,828,818,813,835,809,811,808,809,857,811,814,812,813,811,804,813,844,809,840,815,581,558,573,586,587,717,842,968,1085,1166,1175,1105,1139,1069,1056,1042,1014,996,978,1004,987,926,948,930,887,851,872,816,815,795,774,610,651,609,590,589,588,584,520,518,517,522,530,527,532,547,525,531,530,529,530,526,532,534,535,528,531,524,525,528,524,530,530,530,530,876,898,891,905,964,1241,1424,1645,1735,1769,1762,1727,1706,1692,1650,1637,1612,1577,1553,1523,1496,1452,1481,1408,1365,1342,1330,1298,1227,1117,1086,945,934,922,917,900,897,905,894,901,901,902,901,908,903,913,909,918,907,904,914,909,918,914,915,913,917,916,920,910,917,915,915,915,915,497,499,500,502,508,635,763,854,941,991,996,981,965,949,933,919,903,885,871,855,839,823,878,793,776,761,745,730,713,698,683,667,646,583,508,504,506,483,470,484,473,489,471,492,476,503,483,492,486,477,490,482,493,491,488,488,494,488,502,487,487,495,488,487,487,0,0,0,0,0,0,0,0,0,0,0,0,0,0,0,0,0,0,0,0,0,0,0,0,0,0,0,0,0,0,0,0,0,0,0,0,0,0,0,0,0,0,0,0,0,0,0,0,0,0,0,0,0,0,0,0,0,0,0,0,0,0,0,0,0,599,604,603,629,621,777,970,1042,1168,1267,1203,1184,1180,1193,1188,1113,1093,1128,1050,1088,1061,1032,1023,1020,981,917,903,874,845,883,760,735,713,621,603,606,607,603,603,609,608,627,603,623,611,624,618,618,621,610,625,616,628,625,613,618,622,623,685,622,622,672,628,636,635,0,0,0,0,0,0,0,0,0,0,0,0,0,0,0,0,0,0,0,0,0,0,0,0,0,0,0,0,0,0,0,0,0,0,0,0,0,0,0,0,0,0,0,0,0,0,0,0,0,0,0,0,0,0,0,0,0,0,0,0,0,0,0,0,0,525,527,528,549,550,643,772,895,1018,1032,1096,1032,1016,1001,983,966,993,933,918,941,924,867,852,835,829,810,838,821,776,752,751,670,654,645,592,562,563,564,484,483,482,483,486,486,485,489,486,491,487,484,485,483,485,488,488,485,487,486,484,489,485,490,486,486,486,893,882,894,924,945,1167,1428,1616,1726,1746,1768,1706,1726,1710,1667,1629,1615,1579,1545,1491,1490,1465,1433,1383,1371,1352,1310,1295,1238,1132,1118,1016,973,954,933,928,903,878,796,794,794,795,798,798,797,801,798,803,799,796,797,795,797,800,800,797,799,798,796,801,797,802,798,798,798,1181,1191,1196,1220,1365,1855,2081,2286,2448,2480,2449,2415,2370,2332,2288,2244,2203,2157,2117,2072,2029,1981,1953,1912,1873,1831,1799,1611,1468,1423,1353,1314,1276,1255,1241,1241,1231,1237,1158,1171,1170,1174,1177,1180,1175,1183,1182,1178,1191,1183,1182,1178,1182,1183,1184,1178,1180,1182,1182,1178,1178,1182,1184,1184,1184,271,272,272,292,302,347,391,437,482,528,554,546,537,529,519,510,502,491,484,474,467,456,449,439,432,421,414,405,396,387,378,370,361,352,343,303,304,305,248,247,247,247,251,250,250,253,250,256,251,249,250,248,249,252,252,249,251,250,248,253,250,253,251,251,251,922,931,944,937,1024,1339,1591,1804,1943,1984,1959,1947,1938,1893,1831,1794,1759,1724,1688,1654,1619,1581,1566,1528,1495,1457,1433,1398,1353,1228,1077,1051,1015,994,979,977,971,988,905,903,907,916,909,920,920,926,923,921,931,915,916,920,925,925,918,921,923,925,925,921,921,925,927,927,927,628,632,633,655,667,813,953,1094,1200,1263,1277,1257,1237,1213,1196,1174,1154,1133,1113,1093,1053,1051,1032,1011,992,970,950,930,910,863,853,823,768,718,665,639,652,654,581,580,579,580,583,583,582,586,583,588,584,581,582,580,582,585,585,582,584,583,581,586,582,587,583,583,583,685,686,688,691,693,969,1088,1201,1317,1378,1378,1357,1333,1312,1274,1268,1246,1225,1203,1181,1158,1136,1115,1092,1069,1047,1025,1003,981,945,924,904,838,717,704,696,697,699,666,666,668,672,703,687,693,688,681,689,687,681,689,676,676,687,683,672,702,676,667,691,688,698,690,689,682,303,304,305,325,335,388,438,487,537,586,614,605,594,586,575,566,557,546,537,527,519,508,499,489,480,469,461,451,442,431,422,413,404,392,380,336,337,376,275,277,277,281,281,283,281,286,282,288,284,281,284,282,287,304,287,283,288,285,285,286,289,292,286,286,286,516,518,519,540,542,612,786,874,962,1030,1050,1032,1016,1001,991,967,950,930,916,899,882,865,847,842,815,797,782,764,747,730,713,697,624,615,555,548,545,546,473,473,473,478,482,479,481,489,476,487,482,489,476,475,480,486,480,479,483,490,477,481,478,481,479,479,479,0,0,0,0,0,0,0,0,0,0,0,0,0,0,0,0,0,0,0,0,0,0,0,0,0,0,0,0,0,0,0,0,0,0,0,0,0,0,0,0,0,0,0,0,0,0,0,0,0,0,0,0,0,0,0,0,0,0,0,0,0,0,0,0,0 ]);
