n = 10;
D = [279,106,146,244,252,237,205,147,285,202 ];
q = 0;
prec = array2d(1..0,1..2,[]);
steps = 64;
l = 360;
r = 0;
which = [];
interval = array2d(1..0,1..2,[]);
T = array3d(1..11,1..11,0..64,[0,0,0,0,0,0,0,0,0,0,0,0,0,0,0,0,0,0,0,0,0,0,0,0,0,0,0,0,0,0,0,0,0,0,0,0,0,0,0,0,0,0,0,0,0,0,0,0,0,0,0,0,0,0,0,0,0,0,0,0,0,0,0,0,0,959,973,982,1042,1069,1667,1984,2170,2221,2283,2294,2283,2223,2171,2122,2089,2098,2045,2037,1990,1928,1887,1852,1830,1824,1758,1704,1548,1446,1086,1044,1064,1014,974,973,993,976,954,940,930,935,939,931,937,940,941,941,943,941,936,941,939,938,939,942,941,941,944,940,937,938,942,939,943,942,495,496,498,516,508,685,890,973,1050,1119,1148,1138,1104,1089,1087,1059,1045,1030,1026,1012,997,983,956,942,925,912,891,873,845,826,692,700,628,514,520,518,503,504,470,470,470,472,471,470,470,471,471,474,471,471,473,470,472,472,472,472,471,475,472,473,472,472,472,473,472,625,631,632,680,659,920,1175,1304,1426,1498,1519,1495,1453,1430,1406,1399,1377,1338,1330,1308,1286,1245,1222,1200,1192,1168,1146,1107,1084,955,836,677,683,646,658,649,636,637,608,608,608,610,609,608,608,609,609,612,609,609,611,608,610,610,610,610,609,613,610,611,610,610,610,611,610,472,474,482,476,485,818,983,1148,1307,1404,1398,1370,1341,1314,1285,1257,1251,1201,1172,1144,1134,1088,1059,1030,1003,974,946,918,904,861,834,608,582,499,482,480,493,488,484,489,489,494,513,488,498,493,493,490,492,494,494,500,496,627,505,495,504,500,495,492,494,494,500,496,492,200,200,201,201,202,318,360,402,445,486,502,494,487,478,470,463,454,446,439,430,422,414,406,398,390,382,374,366,358,350,342,333,326,318,309,203,204,204,189,187,193,282,199,189,187,190,190,286,310,191,198,200,198,192,196,200,188,190,193,190,191,190,190,196,189,111,111,168,168,168,170,188,206,224,241,255,252,248,244,241,237,234,230,226,223,220,217,213,210,206,202,199,195,192,188,186,182,178,175,171,169,169,169,101,101,101,103,102,101,101,102,102,105,102,102,104,101,103,103,103,103,102,106,103,104,103,103,103,104,103,471,472,474,536,484,669,854,947,1038,1117,1159,1126,1093,1076,1056,1042,1024,1004,1003,987,970,939,922,906,889,883,855,837,792,779,649,658,584,490,480,478,479,480,449,449,449,451,450,449,449,450,450,453,450,450,452,449,451,451,451,451,450,454,451,452,451,451,451,452,451,731,740,742,745,762,1129,1449,1592,1702,1735,1734,1714,1690,1659,1641,1612,1588,1561,1536,1511,1487,1464,1437,1415,1393,1358,1341,1305,1127,953,897,800,788,756,765,767,738,732,696,692,700,702,701,700,700,701,701,704,701,701,703,700,702,702,702,702,701,705,702,703,702,702,702,703,702,785,791,790,852,895,1208,1531,1709,1815,1883,1898,1866,1820,1790,1759,1731,1701,1671,1657,1629,1599,1554,1482,1457,1444,1417,1392,1352,1223,1039,1024,901,895,813,797,811,797,762,731,731,731,733,732,731,731,732,732,735,732,732,734,731,733,733,733,733,732,736,733,734,733,733,733,734,733,0,0,0,0,0,0,0,0,0,0,0,0,0,0,0,0,0,0,0,0,0,0,0,0,0,0,0,0,0,0,0,0,0,0,0,0,0,0,0,0,0,0,0,0,0,0,0,0,0,0,0,0,0,0,0,0,0,0,0,0,0,0,0,0,0,913,917,901,906,986,1546,1850,2072,2174,2193,2185,2158,2122,2089,2050,2013,2018,1980,1941,1867,1836,1800,1765,1726,1690,1653,1621,1493,1438,1288,986,988,939,921,911,910,912,884,877,875,885,893,894,885,894,903,891,895,897,893,896,899,898,905,895,900,901,899,905,898,903,906,897,899,890,0,0,0,0,0,0,0,0,0,0,0,0,0,0,0,0,0,0,0,0,0,0,0,0,0,0,0,0,0,0,0,0,0,0,0,0,0,0,0,0,0,0,0,0,0,0,0,0,0,0,0,0,0,0,0,0,0,0,0,0,0,0,0,0,0,591,592,581,583,596,929,1125,1245,1348,1404,1407,1386,1364,1342,1312,1290,1299,1278,1256,1204,1192,1147,1125,1128,1094,1073,1063,1042,1004,951,739,718,614,593,598,607,589,554,542,545,554,555,550,560,551,559,553,553,555,548,555,552,553,572,552,555,553,555,555,555,550,564,548,558,549,436,437,439,440,446,658,821,913,1017,1071,1078,1062,1044,1027,1010,994,975,958,942,924,907,890,873,855,838,822,805,787,770,753,735,640,624,577,446,442,444,444,419,424,427,432,427,433,422,430,421,428,427,427,421,427,432,452,432,434,435,430,433,435,432,439,423,433,428,902,888,889,915,1016,1784,2084,2289,2468,2455,2425,2422,2307,2262,2217,2197,2126,2082,2062,2017,1946,1900,1936,1810,1792,1719,1675,1629,1386,1026,996,965,952,911,901,930,908,938,936,937,952,952,957,961,949,970,946,968,964,955,965,973,975,980,964,963,972,976,962,953,952,978,967,971,952,825,829,812,818,867,1362,1646,1885,1968,2004,1995,1963,1929,1900,1864,1832,1838,1804,1769,1698,1667,1634,1601,1568,1535,1501,1480,1439,1344,1214,1023,872,851,832,823,822,823,795,787,786,795,804,809,803,810,810,809,811,808,805,806,806,810,824,806,811,808,809,808,809,807,821,805,815,806,820,841,824,834,919,1531,1669,1831,1958,1962,1957,1983,1967,1888,1897,1801,1822,1790,1737,1668,1733,1614,1640,1554,1563,1525,1507,1419,1349,1258,1058,877,870,889,829,861,831,848,833,838,856,861,850,855,844,869,846,870,858,844,854,855,865,872,863,860,864,857,863,863,858,865,846,862,850,562,564,553,555,568,941,1070,1209,1300,1348,1352,1330,1309,1287,1266,1246,1263,1232,1209,1159,1137,1111,1089,1072,1039,1029,1007,987,964,917,705,689,590,569,560,570,561,548,538,540,547,548,544,554,546,553,548,548,549,543,549,546,547,566,547,551,550,550,550,552,548,562,546,556,547,585,587,588,591,593,926,1102,1261,1336,1441,1442,1419,1395,1321,1373,1276,1304,1232,1260,1237,1212,1196,1165,1144,1119,1095,1072,1010,1016,841,818,792,699,584,598,595,572,573,566,569,567,572,574,579,571,580,571,570,576,577,567,574,573,580,573,578,578,575,576,576,571,581,567,579,571,458,459,460,462,469,739,905,1003,1081,1169,1165,1158,1128,1119,1090,1072,1066,1035,1016,984,951,948,960,897,922,861,843,825,832,813,770,734,600,581,536,464,480,482,451,456,455,455,460,457,461,461,459,458,459,460,459,463,467,470,468,475,461,466,470,464,464,463,468,470,464,913,917,901,906,986,1546,1850,2072,2174,2193,2185,2158,2122,2089,2050,2013,2018,1980,1941,1867,1836,1800,1765,1726,1690,1653,1621,1493,1438,1288,986,988,939,921,911,910,912,884,877,875,885,893,894,885,894,903,891,895,897,893,896,899,898,905,895,900,901,899,905,898,903,906,897,899,890,403,404,405,407,408,454,757,838,921,974,996,964,963,949,921,906,891,877,888,847,839,823,807,792,775,760,758,728,684,616,552,463,453,428,413,419,427,412,390,388,388,388,388,388,388,388,388,388,388,388,388,388,388,388,388,388,388,388,388,388,388,388,388,388,388,577,579,579,565,601,745,1103,1250,1383,1391,1378,1407,1368,1313,1322,1302,1262,1255,1186,1165,1189,1138,1144,1122,1100,1077,1026,1033,1008,828,700,756,649,582,579,585,571,565,555,555,555,555,555,555,555,555,555,555,555,555,555,555,555,555,555,555,555,555,555,555,555,555,555,555,555,0,0,0,0,0,0,0,0,0,0,0,0,0,0,0,0,0,0,0,0,0,0,0,0,0,0,0,0,0,0,0,0,0,0,0,0,0,0,0,0,0,0,0,0,0,0,0,0,0,0,0,0,0,0,0,0,0,0,0,0,0,0,0,0,0,230,246,232,232,233,368,414,460,507,568,565,556,548,538,530,522,513,504,495,487,477,469,460,452,442,434,426,417,408,399,391,381,373,364,297,233,249,293,219,219,221,221,221,221,220,221,220,221,221,221,220,221,221,221,221,221,221,221,221,221,221,221,219,221,221,651,652,654,656,662,1092,1470,1650,1798,1831,1823,1774,1751,1723,1691,1644,1620,1575,1545,1512,1474,1438,1405,1368,1332,1297,1260,1224,1190,1137,1072,887,699,676,663,661,668,673,647,647,647,647,647,647,647,647,647,647,647,647,647,647,647,647,647,647,647,647,647,647,647,647,647,647,647,326,327,328,328,330,433,611,676,745,790,816,786,789,776,752,739,727,715,725,692,686,673,660,647,634,622,612,595,582,539,486,453,443,343,333,331,332,333,294,295,295,295,295,295,295,295,295,295,295,295,295,295,295,295,295,295,295,295,295,295,295,295,295,295,295,397,414,388,387,392,457,685,756,776,812,837,842,819,809,780,788,778,779,740,802,787,750,760,749,737,691,694,690,663,685,413,572,415,426,394,396,392,376,364,364,364,364,364,364,364,364,364,364,364,364,364,364,364,364,364,364,364,364,364,364,364,364,364,364,364,127,128,128,128,129,130,80,124,128,132,135,135,134,133,133,132,130,130,129,129,128,127,127,126,124,124,82,81,81,80,80,140,138,134,132,129,129,129,59,59,59,59,59,59,59,59,59,59,59,59,59,59,59,59,59,59,59,59,59,59,59,59,59,59,59,356,356,357,358,361,490,663,740,814,872,879,866,852,838,824,810,798,782,769,756,741,727,712,699,686,671,657,643,629,615,601,494,482,390,364,361,390,363,318,318,318,318,318,318,318,318,318,318,318,318,318,318,318,318,318,318,318,318,318,318,318,318,318,318,318,389,390,392,393,394,480,671,778,897,950,957,942,926,911,897,882,865,851,836,820,806,790,775,761,704,692,678,669,658,644,531,558,436,426,402,401,401,412,340,340,340,340,340,340,340,340,340,340,340,340,340,340,340,340,340,340,340,340,340,340,340,340,340,340,340,403,404,405,407,408,454,757,838,921,974,996,964,963,949,921,906,891,877,888,847,839,823,807,792,775,760,758,728,684,616,552,463,453,428,413,419,427,412,390,388,388,388,388,388,388,388,388,388,388,388,388,388,388,388,388,388,388,388,388,388,388,388,388,388,388,540,542,543,545,548,831,1049,1171,1309,1358,1358,1335,1314,1290,1268,1246,1223,1200,1179,1155,1134,1112,1089,1068,1045,1022,1000,978,955,883,783,759,689,562,551,548,550,552,541,541,538,545,545,562,548,585,560,581,563,548,547,544,547,559,548,547,551,550,546,547,544,568,543,564,541,440,441,442,444,450,500,805,922,995,1080,1092,1074,1037,1039,1022,1004,987,969,952,934,916,882,882,865,847,830,812,795,777,760,607,490,489,451,465,446,448,448,417,408,411,414,414,412,418,419,421,415,425,415,419,424,420,426,421,422,422,422,422,422,422,422,422,422,422,252,253,253,254,255,366,445,490,537,582,597,631,579,571,562,553,544,575,528,519,510,501,493,484,475,466,458,450,441,432,423,415,380,372,364,279,323,323,236,236,238,241,240,241,236,240,237,235,239,239,235,240,239,240,240,244,241,242,242,242,240,248,237,241,240,0,0,0,0,0,0,0,0,0,0,0,0,0,0,0,0,0,0,0,0,0,0,0,0,0,0,0,0,0,0,0,0,0,0,0,0,0,0,0,0,0,0,0,0,0,0,0,0,0,0,0,0,0,0,0,0,0,0,0,0,0,0,0,0,0,778,780,781,784,792,1411,1748,1973,2120,2149,2131,2090,2049,2007,1966,1924,1882,1841,1800,1759,1719,1684,1644,1604,1563,1538,1497,1454,1401,1253,1041,923,844,802,794,790,796,801,798,794,799,798,795,821,799,798,800,844,826,811,811,814,816,834,813,816,809,815,827,817,824,829,807,849,823,453,454,455,456,460,672,872,976,1096,1148,1152,1132,1113,1094,1075,1056,1036,1017,998,979,960,940,921,902,883,864,844,825,806,787,682,607,591,473,463,460,461,463,452,449,449,453,486,464,458,457,460,460,472,460,468,454,460,464,467,458,470,457,456,474,470,474,477,489,466,594,592,576,577,591,735,1107,1158,1270,1284,1305,1316,1254,1237,1219,1231,1212,1232,1228,1197,1146,1155,1141,1110,1097,1077,1031,963,945,845,700,682,674,620,586,612,582,580,562,565,571,571,571,578,570,581,578,571,580,575,576,578,575,581,578,582,582,582,580,584,582,585,586,586,580,250,297,252,252,255,404,454,510,556,609,622,613,598,590,586,572,564,554,547,537,528,520,516,495,494,478,477,458,448,439,429,434,359,346,326,321,321,323,248,249,248,249,248,252,251,252,252,249,252,248,249,248,248,249,252,251,248,249,251,252,248,255,249,255,252,219,220,220,221,251,258,394,439,486,532,552,542,534,530,516,507,499,489,481,471,463,454,445,436,428,405,410,402,392,384,331,323,269,264,256,251,252,253,189,190,189,190,190,194,191,194,190,194,191,192,194,196,196,195,196,194,192,193,193,195,190,190,190,190,190,241,242,243,244,244,330,358,463,516,563,579,573,566,559,551,543,534,524,518,508,500,468,470,451,446,384,379,372,367,362,364,356,386,340,339,245,246,246,212,216,213,216,217,219,217,240,226,216,229,216,216,215,215,218,214,213,213,213,213,213,213,213,213,213,213,540,542,543,545,548,831,1049,1171,1309,1358,1358,1335,1314,1290,1268,1246,1223,1200,1179,1155,1134,1112,1089,1068,1045,1022,1000,978,955,883,783,759,689,562,551,548,550,552,541,541,538,545,545,562,548,585,560,581,563,548,547,544,547,559,548,547,551,550,546,547,544,568,543,564,541,435,436,437,438,444,757,888,1017,1140,1201,1202,1179,1158,1135,1112,1090,1068,1045,1023,1000,978,956,933,910,889,866,843,822,799,776,754,732,651,458,444,442,444,448,448,437,442,458,438,552,443,448,450,451,556,451,452,447,447,580,555,449,443,455,444,452,450,444,452,551,450,1030,1032,1040,1084,1180,1838,2311,2509,2617,2656,2637,2595,2570,2463,2469,2458,2405,2368,2319,2258,2186,2174,2132,2070,2077,1969,1920,1614,1458,1251,1146,1113,1082,1057,1045,1048,1054,1060,1093,1094,1096,1098,1094,1098,1098,1100,1098,1097,1101,1096,1098,1094,1096,1099,1098,1098,1094,1096,1094,1094,1098,1096,1098,1105,1100,760,760,763,766,805,1325,1584,1755,1878,1929,1919,1888,1857,1812,1803,1765,1734,1687,1675,1638,1612,1576,1544,1509,1464,1444,1409,1345,1301,1176,919,951,806,785,774,770,774,726,721,730,724,727,723,741,733,739,739,744,743,731,744,735,747,741,746,744,744,742,748,741,741,747,742,752,744,890,908,894,905,1020,1645,1957,2136,2241,2284,2266,2228,2187,2147,2118,2085,2036,1981,1964,1924,1884,1839,1804,1762,1723,1682,1644,1588,1351,1247,991,984,965,917,904,903,908,901,907,907,910,916,913,916,916,911,911,917,924,915,916,932,936,920,940,943,922,920,923,936,932,927,947,928,920,0,0,0,0,0,0,0,0,0,0,0,0,0,0,0,0,0,0,0,0,0,0,0,0,0,0,0,0,0,0,0,0,0,0,0,0,0,0,0,0,0,0,0,0,0,0,0,0,0,0,0,0,0,0,0,0,0,0,0,0,0,0,0,0,0,418,419,420,420,426,726,852,978,1098,1159,1161,1140,1118,1096,1075,1052,1030,1009,987,966,944,922,900,878,856,835,813,792,769,747,726,607,590,440,427,424,428,430,420,424,431,438,435,440,425,438,426,515,432,428,435,436,511,549,444,438,514,435,444,512,442,516,432,437,433,546,593,573,549,594,963,1111,1243,1348,1449,1446,1380,1394,1369,1312,1316,1292,1246,1243,1201,1189,1156,1134,1112,1088,1060,1035,1010,985,958,874,604,587,569,556,553,556,549,549,538,545,560,539,595,545,550,555,553,590,555,553,550,550,619,620,551,549,558,548,555,553,547,556,620,553,736,736,739,742,805,1289,1567,1767,1870,1917,1908,1875,1840,1795,1776,1743,1710,1662,1640,1594,1577,1542,1508,1473,1428,1406,1334,1293,1251,1157,920,896,782,761,748,745,750,735,730,739,733,736,731,750,741,747,747,753,752,740,750,744,753,750,752,753,753,751,756,750,750,756,751,761,753,882,908,887,912,1050,1713,1950,2140,2250,2291,2273,2290,2194,2154,2113,2077,2038,1998,1957,1916,1875,1835,1853,1755,1714,1679,1638,1598,1396,1154,1070,1051,939,910,903,920,871,876,886,876,881,889,884,893,893,927,896,892,899,891,896,896,896,896,900,895,904,900,895,891,898,956,899,897,897,1051,1053,1055,1098,1212,1894,2255,2452,2609,2623,2591,2539,2520,2455,2428,2389,2363,2291,2264,2212,2144,2098,2054,2013,1972,1929,1897,1683,1491,1288,1234,1194,1104,1078,1065,1065,1032,1032,1038,1045,1042,1052,1047,1063,1046,1050,1056,1054,1054,1062,1052,1064,1064,1057,1060,1059,1074,1070,1057,1060,1052,1054,1065,1057,1049,435,436,437,438,444,757,888,1017,1140,1201,1202,1179,1158,1135,1112,1090,1068,1045,1023,1000,978,956,933,910,889,866,843,822,799,776,754,732,651,458,444,442,444,448,448,437,442,458,438,552,443,448,450,451,556,451,452,447,447,580,555,449,443,455,444,452,450,444,452,551,450,215,216,216,216,217,343,387,433,478,524,540,531,522,513,505,496,488,478,470,462,453,445,436,427,418,410,402,393,385,375,367,358,350,342,222,218,219,220,212,209,211,211,219,215,216,216,213,216,222,220,225,226,229,284,216,216,219,215,214,212,216,216,214,217,216,918,921,900,917,950,1452,1852,2105,2152,2208,2190,2158,2109,2065,2044,2018,2008,1976,1946,1911,1874,1817,1811,1768,1690,1693,1621,1548,1232,1192,1075,979,964,953,937,935,944,925,863,866,862,870,874,869,868,873,865,876,869,872,886,891,892,878,875,869,869,870,873,869,868,867,866,872,866,397,399,400,400,403,530,741,812,876,924,937,926,916,906,894,884,873,862,851,840,822,826,828,807,766,742,734,721,680,625,608,557,569,494,406,403,404,404,338,342,337,342,347,344,342,348,339,349,341,343,341,346,344,348,345,346,342,341,347,345,341,341,341,344,341,571,573,575,577,578,843,1055,1225,1359,1407,1408,1384,1362,1338,1315,1294,1270,1252,1231,1209,1186,1164,1144,1119,1099,1076,1045,1020,957,919,854,689,694,641,609,583,584,585,539,532,533,539,539,548,538,551,540,546,545,543,542,547,549,553,549,543,542,544,546,544,542,545,541,553,544,471,472,472,474,489,813,979,1166,1309,1419,1393,1365,1338,1309,1281,1252,1243,1196,1168,1140,1112,1083,1072,1027,999,970,943,914,886,858,830,788,586,497,480,479,483,487,478,480,486,489,488,500,484,540,484,500,490,482,487,491,496,540,496,492,492,486,495,494,488,492,481,490,484,0,0,0,0,0,0,0,0,0,0,0,0,0,0,0,0,0,0,0,0,0,0,0,0,0,0,0,0,0,0,0,0,0,0,0,0,0,0,0,0,0,0,0,0,0,0,0,0,0,0,0,0,0,0,0,0,0,0,0,0,0,0,0,0,0,325,326,327,328,328,513,590,655,719,776,788,776,764,752,740,728,716,704,692,680,668,656,644,632,620,608,596,584,572,560,548,536,435,425,333,329,330,331,313,310,312,314,321,316,317,318,315,321,324,322,329,327,332,337,319,319,321,321,317,316,319,319,317,321,319,395,396,412,413,421,457,706,831,895,943,956,945,936,925,914,903,892,881,870,860,841,823,824,801,760,745,732,714,596,583,558,516,485,413,461,453,454,421,347,351,346,351,356,352,351,356,347,357,350,352,350,352,353,354,354,352,351,350,356,353,350,350,350,353,350,538,540,541,544,560,806,1048,1171,1275,1324,1328,1306,1286,1264,1243,1222,1201,1180,1159,1137,1116,1094,1074,1053,1031,1010,988,968,951,929,852,674,575,560,550,570,548,558,520,511,516,528,531,531,523,530,532,523,527,527,527,522,530,540,531,535,527,523,527,536,535,535,536,531,531,731,734,736,738,762,945,1412,1630,1750,1793,1787,1757,1728,1698,1668,1641,1612,1587,1559,1531,1500,1478,1406,1378,1353,1325,1294,1258,1187,1091,951,911,833,802,746,746,745,710,662,671,672,678,686,675,683,678,667,684,665,670,677,681,684,685,684,677,674,683,690,676,674,672,669,676,667,215,216,216,216,217,343,387,433,478,524,540,531,522,513,505,496,488,478,470,462,453,445,436,427,418,410,402,393,385,375,367,358,350,342,222,218,219,220,212,209,211,211,219,215,216,216,213,216,222,220,225,226,229,284,216,216,219,215,214,212,216,216,214,217,216,140,140,141,141,142,216,238,260,283,304,321,316,313,308,304,300,295,291,286,282,278,273,270,265,260,256,252,247,243,238,235,230,225,222,217,142,142,214,132,128,131,136,132,132,127,130,131,141,141,135,139,135,138,135,141,136,129,136,130,133,131,129,135,133,130,853,862,871,874,898,1486,1771,1908,2045,2042,2045,2048,2017,1940,1894,1864,1884,1842,1812,1790,1716,1696,1677,1641,1626,1558,1558,1497,1314,1126,1101,929,921,890,885,879,880,867,839,839,839,839,839,836,839,839,839,839,839,839,839,839,839,839,839,839,839,839,839,839,839,839,839,839,839,388,392,390,392,431,520,706,771,831,878,899,897,868,858,846,841,823,812,800,789,777,766,772,744,732,717,704,690,662,650,534,524,496,427,396,393,394,396,369,369,369,369,369,369,369,369,369,369,369,369,369,369,369,369,369,369,369,369,369,369,369,369,369,369,369,522,520,521,523,548,832,991,1102,1207,1257,1270,1290,1222,1202,1183,1162,1143,1133,1104,1094,1074,1045,1056,1005,986,966,954,927,925,888,816,692,712,539,528,526,527,528,507,507,507,507,507,507,507,507,507,507,507,507,507,507,507,507,507,507,507,507,507,507,507,507,507,507,507,568,576,577,572,582,968,1149,1368,1536,1563,1506,1531,1501,1473,1444,1424,1387,1352,1329,1306,1272,1243,1214,1184,1166,1126,1105,1075,1049,988,967,659,639,592,584,583,582,590,580,580,580,580,580,580,580,580,580,580,580,580,580,580,580,580,580,580,580,580,580,580,580,580,580,580,580,295,296,303,304,298,471,529,602,644,681,686,680,672,664,657,649,640,633,624,616,609,596,593,584,562,552,541,530,519,508,512,486,475,464,302,299,300,300,272,272,272,272,272,272,272,272,272,272,272,272,272,272,272,272,272,272,272,272,272,272,272,272,272,272,272,0,0,0,0,0,0,0,0,0,0,0,0,0,0,0,0,0,0,0,0,0,0,0,0,0,0,0,0,0,0,0,0,0,0,0,0,0,0,0,0,0,0,0,0,0,0,0,0,0,0,0,0,0,0,0,0,0,0,0,0,0,0,0,0,0,364,365,366,368,368,491,670,745,819,876,906,881,859,846,831,823,804,790,777,764,750,736,722,709,696,681,668,654,604,596,574,544,412,381,372,369,370,372,348,348,348,348,348,348,348,348,348,348,348,348,348,348,348,348,348,348,348,348,348,348,348,348,348,348,348,659,662,662,664,676,840,1264,1376,1470,1508,1496,1475,1454,1433,1413,1399,1378,1352,1340,1310,1290,1268,1248,1226,1204,1184,1162,1142,995,767,751,731,691,689,670,669,682,643,599,599,599,599,599,599,599,599,599,599,599,599,599,599,599,599,599,599,599,599,599,599,599,599,599,599,599,678,680,683,684,731,979,1347,1491,1596,1642,1649,1636,1588,1562,1535,1517,1492,1476,1438,1422,1396,1360,1344,1264,1240,1217,1197,1174,1178,1060,977,886,717,706,689,688,689,652,630,630,630,630,630,630,630,630,630,630,630,630,630,630,630,630,630,630,630,630,630,630,630,630,630,630,630,140,140,141,141,142,216,238,260,283,304,321,316,313,308,304,300,295,291,286,282,278,273,270,265,260,256,252,247,243,238,235,230,225,222,217,142,142,214,132,128,131,136,132,132,127,130,131,141,141,135,139,135,138,135,141,136,129,136,130,133,131,129,135,133,130,388,389,390,392,392,523,723,803,882,949,984,940,925,910,895,916,865,850,835,820,805,790,801,760,745,754,714,723,684,643,560,538,526,508,455,395,396,396,387,384,381,389,392,390,396,400,390,387,389,396,394,388,389,400,395,395,392,400,388,395,391,397,403,425,425,575,576,556,580,574,751,1098,1231,1331,1391,1328,1303,1342,1271,1302,1232,1260,1190,1219,1212,1177,1158,1138,1118,1065,1076,1064,994,991,828,766,757,604,596,593,569,585,563,551,551,551,551,551,551,551,551,551,551,551,551,551,551,551,551,551,551,551,551,551,551,551,551,551,551,551,84,84,84,84,84,84,84,84,84,84,84,84,84,84,84,84,84,84,84,84,84,84,84,84,84,84,84,84,84,84,84,84,84,84,84,84,84,84,40,37,34,35,36,37,76,76,35,52,44,35,34,76,76,76,76,76,76,76,76,76,47,40,36,36,34,228,229,230,231,232,366,410,455,491,527,535,528,520,515,508,500,493,486,480,472,465,460,453,446,438,432,425,418,404,396,387,378,369,361,305,232,243,283,216,216,216,216,216,216,216,216,216,216,216,216,216,216,216,216,216,216,216,216,216,216,216,216,216,216,216,643,645,647,648,650,1208,1440,1615,1759,1803,1811,1755,1722,1687,1653,1654,1585,1550,1516,1482,1448,1413,1404,1352,1317,1299,1242,1230,1173,1122,1067,894,691,668,707,652,662,662,660,665,656,667,669,671,694,691,668,671,672,699,677,663,666,708,674,672,672,700,664,673,665,675,672,684,662,315,316,316,317,319,465,577,641,706,764,804,761,749,737,725,783,700,688,676,664,652,640,654,616,604,616,578,591,555,543,518,510,396,388,380,319,320,321,290,291,288,296,294,293,318,325,296,293,293,324,297,291,291,326,293,294,294,325,290,297,291,296,293,296,290,368,384,371,372,388,398,692,681,735,852,848,784,814,764,753,803,793,730,733,723,750,738,728,721,692,695,684,674,651,652,497,572,451,424,383,376,376,374,363,357,365,385,372,366,371,372,369,377,377,370,377,382,384,382,382,381,369,374,370,372,365,378,375,384,372,0,0,0,0,0,0,0,0,0,0,0,0,0,0,0,0,0,0,0,0,0,0,0,0,0,0,0,0,0,0,0,0,0,0,0,0,0,0,0,0,0,0,0,0,0,0,0,0,0,0,0,0,0,0,0,0,0,0,0,0,0,0,0,0,0,375,376,377,379,410,528,702,780,858,900,901,888,876,868,852,837,822,812,800,786,772,760,747,735,724,722,711,683,662,648,633,557,517,410,394,380,392,390,358,355,352,353,354,355,365,365,353,365,362,353,352,365,365,365,365,365,365,365,365,365,365,358,354,354,352,387,389,391,392,392,556,666,772,882,926,909,900,891,887,874,860,846,833,820,805,794,782,767,758,700,690,678,671,653,641,591,483,520,424,400,392,394,395,336,336,336,336,336,336,336,336,336,336,336,336,336,336,336,336,336,336,336,336,336,336,336,336,336,336,336,388,389,390,392,392,523,723,803,882,949,984,940,925,910,895,916,865,850,835,820,805,790,801,760,745,754,714,723,684,643,560,538,526,508,455,395,396,396,387,384,381,389,392,390,396,400,390,387,389,396,394,388,389,400,395,395,392,400,388,395,391,397,403,425,425,647,641,653,649,671,924,1276,1437,1547,1584,1574,1554,1528,1498,1486,1462,1458,1401,1413,1354,1320,1294,1303,1251,1218,1219,1171,1140,1114,988,866,841,680,661,651,653,649,652,626,630,632,638,642,637,639,641,635,636,636,634,632,632,636,633,631,636,636,631,633,633,635,634,635,635,635,617,634,615,627,639,693,1147,1313,1444,1514,1527,1503,1478,1455,1425,1405,1378,1353,1330,1304,1279,1236,1229,1206,1180,1156,1131,1108,1092,827,835,754,710,661,651,637,639,641,586,585,589,596,595,589,598,597,591,598,600,596,598,599,597,599,595,602,595,592,595,594,595,598,597,597,597,384,386,387,388,390,469,677,749,828,901,926,910,897,885,868,856,841,828,814,800,791,771,758,744,734,721,706,688,678,661,620,547,476,404,403,400,392,392,330,327,328,331,329,330,331,335,334,334,334,333,333,333,334,334,333,334,334,333,335,335,333,335,333,333,333,217,218,218,223,223,299,382,425,470,514,543,534,526,518,509,501,490,482,475,464,458,447,440,431,423,415,406,397,389,379,372,363,354,346,337,265,265,266,183,184,186,182,184,182,183,182,184,184,185,184,181,183,184,184,183,186,188,183,185,185,183,185,181,181,181,885,880,892,893,924,1504,2029,2249,2348,2356,2337,2301,2255,2208,2176,2134,2110,2042,2039,1954,1903,1863,1852,1779,1729,1710,1643,1604,1434,1253,980,952,942,902,893,899,898,909,879,891,885,888,897,888,891,895,898,915,901,898,902,901,902,898,900,895,903,912,903,918,898,898,916,916,916,560,553,565,560,568,748,1090,1224,1334,1376,1370,1353,1330,1304,1294,1274,1273,1219,1234,1178,1147,1125,1136,1088,1058,1062,1017,997,975,846,776,701,681,573,563,564,560,563,536,541,542,560,551,555,555,560,564,558,550,562,542,545,559,552,542,567,545,541,561,560,563,565,561,561,561,703,698,696,698,726,1027,1256,1382,1510,1578,1580,1557,1534,1500,1488,1467,1465,1478,1452,1407,1402,1382,1322,1317,1290,1279,1151,1132,1133,1014,897,735,757,728,723,716,717,701,654,656,660,671,660,660,663,669,661,661,661,660,660,660,661,661,660,661,661,660,662,662,660,662,660,660,660,382,384,385,388,391,445,688,767,847,927,954,930,916,905,888,881,860,847,833,818,810,787,772,758,747,731,717,697,683,672,586,551,483,404,403,398,392,392,339,340,341,342,341,340,343,345,343,343,343,342,342,342,343,343,342,343,343,342,344,344,342,344,342,342,342,0,0,0,0,0,0,0,0,0,0,0,0,0,0,0,0,0,0,0,0,0,0,0,0,0,0,0,0,0,0,0,0,0,0,0,0,0,0,0,0,0,0,0,0,0,0,0,0,0,0,0,0,0,0,0,0,0,0,0,0,0,0,0,0,0,237,248,248,249,250,253,481,499,549,596,610,603,572,561,553,564,535,544,516,526,517,488,496,487,478,451,458,448,439,425,420,440,400,391,254,250,251,252,243,248,246,251,248,263,249,264,264,249,264,249,252,252,249,269,249,249,252,255,249,249,248,254,248,256,248,647,641,653,649,671,924,1276,1437,1547,1584,1574,1554,1528,1498,1486,1462,1458,1401,1413,1354,1320,1294,1303,1251,1218,1219,1171,1140,1114,988,866,841,680,661,651,653,649,652,626,630,632,638,642,637,639,641,635,636,636,634,632,632,636,633,631,636,636,631,633,633,635,634,635,635,635,729,720,735,734,759,1043,1444,1658,1720,1839,1753,1802,1696,1738,1637,1659,1579,1551,1569,1495,1509,1487,1453,1423,1393,1323,1334,1285,1202,1119,988,871,768,740,751,742,743,738,725,720,730,736,747,740,750,749,737,749,743,736,733,737,748,748,741,746,740,740,737,735,739,746,737,742,729,429,431,432,433,439,475,816,910,1012,1060,1068,1094,1033,1050,999,982,1004,945,931,914,896,879,890,828,873,811,820,810,760,768,650,608,452,450,440,436,447,439,432,439,439,443,441,440,443,448,444,446,439,443,441,448,451,453,445,447,445,440,446,450,445,445,442,446,443,441,430,445,443,449,570,772,909,942,998,1005,1070,975,1034,944,980,961,898,932,868,900,884,867,848,836,777,804,790,750,734,728,588,569,448,450,448,448,449,413,399,401,403,405,404,409,407,408,406,412,415,422,412,416,424,412,413,413,418,428,427,425,425,425,425,425,194,195,195,196,196,307,348,387,427,486,500,494,486,480,451,445,436,427,422,415,408,399,392,402,376,369,360,354,346,338,331,324,315,306,200,197,197,196,188,185,188,192,192,191,190,188,190,196,191,191,192,212,212,211,213,194,190,196,191,188,190,192,190,198,188,968,958,974,978,1095,1623,2146,2339,2480,2559,2526,2514,2413,2422,2315,2316,2220,2172,2173,2079,2076,2043,1992,1951,1897,1810,1810,1756,1453,1093,1093,1043,1010,982,994,988,992,995,978,981,983,986,989,991,983,990,1000,1006,1006,1000,1003,1006,1011,1013,1010,1004,1005,1021,1007,1021,1001,1010,1020,1022,1011,642,632,647,646,660,884,1232,1444,1510,1632,1550,1603,1500,1546,1448,1472,1397,1371,1393,1321,1340,1320,1287,1260,1234,1167,1182,1158,1110,1020,881,800,680,652,663,653,654,649,635,631,639,645,654,655,648,645,650,652,655,668,643,650,667,667,652,668,647,650,667,662,660,666,662,667,654,690,692,694,696,779,908,1318,1499,1590,1689,1683,1716,1662,1610,1581,1537,1575,1518,1441,1523,1440,1389,1356,1321,1299,1279,1262,1236,1138,1032,763,748,729,763,705,749,704,706,722,716,711,711,725,712,723,729,726,729,735,724,738,723,729,745,737,727,731,734,735,740,738,738,738,738,738,428,427,428,429,433,515,774,864,961,1009,1030,1041,997,1000,963,969,932,918,904,888,885,872,857,838,822,796,781,768,751,736,694,533,522,438,430,431,433,430,409,395,395,396,398,397,404,401,402,401,407,409,417,406,410,418,406,408,409,415,423,422,422,422,422,422,422,251,251,253,236,237,375,446,476,558,608,628,579,616,607,596,541,532,552,513,504,523,512,502,493,482,447,438,452,442,433,423,412,381,358,241,281,281,326,193,196,192,198,201,199,199,199,195,196,197,198,195,194,195,197,196,196,197,196,195,199,194,201,195,197,194,0,0,0,0,0,0,0,0,0,0,0,0,0,0,0,0,0,0,0,0,0,0,0,0,0,0,0,0,0,0,0,0,0,0,0,0,0,0,0,0,0,0,0,0,0,0,0,0,0,0,0,0,0,0,0,0,0,0,0,0,0,0,0,0,0,729,720,735,734,759,1043,1444,1658,1720,1839,1753,1802,1696,1738,1637,1659,1579,1551,1569,1495,1509,1487,1453,1423,1393,1323,1334,1285,1202,1119,988,871,768,740,751,742,743,738,725,720,730,736,747,740,750,749,737,749,743,736,733,737,748,748,741,746,740,740,737,735,739,746,737,742,729,0,0,0,0,0,0,0,0,0,0,0,0,0,0,0,0,0,0,0,0,0,0,0,0,0,0,0,0,0,0,0,0,0,0,0,0,0,0,0,0,0,0,0,0,0,0,0,0,0,0,0,0,0,0,0,0,0,0,0,0,0,0,0,0,0,959,973,982,1042,1069,1667,1984,2170,2221,2283,2294,2283,2223,2171,2122,2089,2098,2045,2037,1990,1928,1887,1852,1830,1824,1758,1704,1548,1446,1086,1044,1064,1014,974,973,993,976,954,940,930,935,939,931,937,940,941,941,943,941,936,941,939,938,939,942,941,941,944,940,937,938,942,939,943,942,495,496,498,516,508,685,890,973,1050,1119,1148,1138,1104,1089,1087,1059,1045,1030,1026,1012,997,983,956,942,925,912,891,873,845,826,692,700,628,514,520,518,503,504,470,470,470,472,471,470,470,471,471,474,471,471,473,470,472,472,472,472,471,475,472,473,472,472,472,473,472,625,631,632,680,659,920,1175,1304,1426,1498,1519,1495,1453,1430,1406,1399,1377,1338,1330,1308,1286,1245,1222,1200,1192,1168,1146,1107,1084,955,836,677,683,646,658,649,636,637,608,608,608,610,609,608,608,609,609,612,609,609,611,608,610,610,610,610,609,613,610,611,610,610,610,611,610,472,474,482,476,485,818,983,1148,1307,1404,1398,1370,1341,1314,1285,1257,1251,1201,1172,1144,1134,1088,1059,1030,1003,974,946,918,904,861,834,608,582,499,482,480,493,488,484,489,489,494,513,488,498,493,493,490,492,494,494,500,496,627,505,495,504,500,495,492,494,494,500,496,492,200,200,201,201,202,318,360,402,445,486,502,494,487,478,470,463,454,446,439,430,422,414,406,398,390,382,374,366,358,350,342,333,326,318,309,203,204,204,189,187,193,282,199,189,187,190,190,286,310,191,198,200,198,192,196,200,188,190,193,190,191,190,190,196,189,111,111,168,168,168,170,188,206,224,241,255,252,248,244,241,237,234,230,226,223,220,217,213,210,206,202,199,195,192,188,186,182,178,175,171,169,169,169,101,101,101,103,102,101,101,102,102,105,102,102,104,101,103,103,103,103,102,106,103,104,103,103,103,104,103,471,472,474,536,484,669,854,947,1038,1117,1159,1126,1093,1076,1056,1042,1024,1004,1003,987,970,939,922,906,889,883,855,837,792,779,649,658,584,490,480,478,479,480,449,449,449,451,450,449,449,450,450,453,450,450,452,449,451,451,451,451,450,454,451,452,451,451,451,452,451,731,740,742,745,762,1129,1449,1592,1702,1735,1734,1714,1690,1659,1641,1612,1588,1561,1536,1511,1487,1464,1437,1415,1393,1358,1341,1305,1127,953,897,800,788,756,765,767,738,732,696,692,700,702,701,700,700,701,701,704,701,701,703,700,702,702,702,702,701,705,702,703,702,702,702,703,702,785,791,790,852,895,1208,1531,1709,1815,1883,1898,1866,1820,1790,1759,1731,1701,1671,1657,1629,1599,1554,1482,1457,1444,1417,1392,1352,1223,1039,1024,901,895,813,797,811,797,762,731,731,731,733,732,731,731,732,732,735,732,732,734,731,733,733,733,733,732,736,733,734,733,733,733,734,733,0,0,0,0,0,0,0,0,0,0,0,0,0,0,0,0,0,0,0,0,0,0,0,0,0,0,0,0,0,0,0,0,0,0,0,0,0,0,0,0,0,0,0,0,0,0,0,0,0,0,0,0,0,0,0,0,0,0,0,0,0,0,0,0,0 ]);
