num_variables= 605;
min_domain = 0;
max_domain = 13;
domains = [{0,2},{0,2},{0,2},{0,2},{0,2},{0,2},{0,2},{0,2},{0,2},{0,2},{0,2},{0,2},{0,2},{0,2},{0,2},{0,2},{0,2},{0,2},{0,2},{0,2},{0,2},{0,2},{0,2},{0,2},{0,2},{0,2},{0,2},{0,2},{0,2},{0,2},{0,2},{0,2},{0,2},{0,2},{0,2},{0,2},{0,2},{0,2},{0,1,2,3},{0,2},{0,1,2,3},{0,2},{0,2},{0,1,2,3},{0,2},{0,2},{0,2},{0,2},{0,2},{0,2},{0,2},{0,1,2,3},{0,2},{0,2},{0,2},{0,2},{0,13},{0,2},{0,2},{0,13},{0,13},{0,2},{0,2},{0,13},{0,13},{0,13},{0,13},{0,2},{0,2},{0,2},{0,2},{0,2},{0,2},{0,2},{0,1,2,3},{0,2},{0,2},{0,2},{0,1,2,3},{0,1,2,3},{0,13},{0,1,2,3},{0,1,2,3},{0,13},{0,1,2,3},{0,13},{0,13},{0,1,2,3},{0,1,2,3},{0,2},{0,1,2,3},{0,1,2,3},{0,1,2,3},{0,2},{0,2},{0,13},{0,13},{0,2},{0,13},{0,2},{0,2},{0,2},{0,2},{0,2},{0,1,2,3},{0,1,2,3},{0,1,2,3},{0,1,2,3},{0,1,2,3},{0,1,2,3},{0,2},{0,2},{0,2},{0,2},{0,1,2,3},{0,1,2,3},{0,1,2,3},{0,1,2,3},{0,1,2,3},{0,1,2,3},{0,2},{0,2},{0,2},{0,2},{0,2},{0,2},{0,2},{0,1,2,3},{0,1,2,3},{0,1,2,3},{0,2},{0,2},{0,2},{0,2},{0,2},{0,2},{0,2},{0,2},{0,1,2,3},{0,1,2,3},{0,1,2,3},{0,2},{0,2},{0,2},{0,2},{0,2},{0,2},{0,2},{0,2},{0,1,2,3},{0,1,2,3},{0,1,2,3},{0,2},{0,2},{0,1,2,3},{0,2},{0,1,2,3},{0,1,2,3},{0,1,2,3},{0,2},{0,2},{0,2},{0,1,2,3},{0,2},{0,1,2,3},{0,1,2,3},{0,1,2,3},{0,1,2,3},{0,2},{0,2},{0,2},{0,2},{0,2},{0,2},{0,2},{0,2},{0,2},{0,2},{0,2},{0,2},{0,2},{0,2},{0,2},{0,2},{0,1,2,3},{0,1,2,3},{0,1,2,3},{0,1,2,3},{0,1,2,3},{0,1,2,3},{0,1,2,3},{0,1,2,3},{0,1,2,3},{0,1,2,3},{0,1,2,3},{0,1,2,3},{0,13},{0,13},{0,1,2,3},{0,1,2,3},{0,1,2,3},{0,1,2,3},{0,1,2,3},{0,1,2,3},{0,1,2,3},{0,1,2,3},{0,1,2,3},{0,13},{0,13},{0,2},{0,1,2,3},{0,1,2,3},{0,1,2,3},{0,1,2,3},{0,1,2,3},{0,1,2,3},{0,1,2,3},{0,1,2,3},{0,1,2,3},{0,1,2,3},{0,1,2,3},{0,1,2,3},{0,1,2,3},{0,1,2,3},{0,1,2,3},{0,2},{0,2},{0,2},{0,2},{0,13},{0,13},{0,13},{0,13},{0,2},{0,2},{0,2},{0,2},{0,2},{0,2},{0,13},{0,13},{0,13},{0,1,2,3},{0,1,2,3},{0,1,2,3},{0,1,2,3},{0,1,2,3},{0,1,2,3},{0,1,2,3},{0,13},{0,13},{0,13},{0,13},{0,13},{0,13},{0,13},{0,13},{0,13},{0,13},{0,13},{0,13},{0,13},{0,13},{0,1,2,3},{0,1,2,3},{0,13},{0,13},{0,13},{0,13},{0,2},{0,2},{0,2},{0,2},{0,2},{0,2},{0,13},{0,13},{0,13},{0,13},{0,2},{0,2},{0,2},{0,2},{0,2},{0,3},{0,1,2,3},{0,1,2,3},{0,1,2,3},{0,1,2,3},{0,1,2,3},{0,1,2,3},{0,1,2,3},{0,1,2,3},{0,1,2,3},{0,1,2,3},{0,1,2,3},{0,1,2,3},{0,13},{0,1,2,3},{0,1,2,3},{0,1,2,3},{0,1,2,3},{0,1,2,3},{0,1,2,3},{0,1,2,3},{0,1,2,3},{0,1,2,3},{0,1,2,3},{0,1,2,3},{0,1,2,3},{0,1,2,3},{0,1,2,3},{0,1,2,3},{0,1,2,3},{0,1,2,3},{0,1,2,3},{0,1,2,3},{0,1,2,3},{0,1,2,3},{0,1,2,3},{0,1,2,3},{0,1,2,3},{0,1,2,3},{0,1,2,3},{0,1,2,3},{0,1,2,3},{0,1,2,3},{0,1,2,3},{0,1,2,3},{0,1,2,3},{0,1,2,3},{0,1,2,3},{0,2},{0,2},{0,13},{0,13},{0,13},{0,2},{0,13},{0,13},{0,13},{0,13},{0,13},{0,13},{0,13},{0,13},{0,13},{0,13},{0,13},{0,13},{0,13},{0,13},{0,13},{0,13},{0,1,2,3},{0,1,2,3},{0,1,2,3},{0,1,2,3},{0,1,2,3},{0,1,2,3},{0,1,2,3},{0,1,2,3},{0,1,2,3},{0,1,2,3},{0,1,2,3},{0,1,2,3},{0,1,2,3},{0,1,2,3},{0,1,2,3},{0,1,2,3},{0,1,2,3},{0,13},{0,13},{0,13},{0,13},{0,13},{0,1,2,3},{0,13},{0,13},{0,13},{0,13},{0,13},{0,13},{0,13},{0,1,2,3},{0,1,2,3},{0,1,2,3},{0,2},{0,2},{0,13},{0,13},{0,13},{0,13},{0,13},{0,13},{0,13},{0,1,2,3},{0,1,2,3},{0,1,2,3},{0,1,2,3},{0,1,2,3},{0,1,2,3},{0,1,2,3},{0,1,2,3},{0,13},{0,13},{0,13},{0,13},{0,13},{0,13},{0,13},{0,2},{0,2},{0,2},{0,1,2,3},{0,2},{0,2},{0,2},{0,1,2,3},{0,1,2,3},{0,1,2,3},{0,2},{0,1,2,3},{0,1,2,3},{0,1,2,3},{0,1,2,3},{0,1,2,3},{0,1,2,3},{0,1,2,3},{0,1,2,3},{0,1,2,3},{0,13},{0,13},{0,1,2,3},{0,1,2,3},{0,13},{0,13},{0,13},{0,13},{0,1,2,3},{0,1,2,3},{0,1,2,3},{0,1,2,3},{0,1,2,3},{0,2},{0,2},{0,1,2,3},{0,1,2,3},{0,1,2,3},{0,2},{0,1,2,3},{0,1,2,3},{0,1,2,3},{0,13},{0,1,2,3},{0,1,2,3},{0,1,2,3},{0,1,2,3},{0,1,2,3},{0,1,2,3},{0,1,2,3},{0,1,2,3},{0,1,2,3},{0,1,2,3},{0,1,2,3},{0,1,2,3},{0,1,2,3},{0,1,2,3},{0,1,2,3},{0,1,2,3},{0,1,2,3},{0,1,2,3},{0,1,2,3},{0,1,2,3},{0,1,2,3},{0,1,2,3},{0,1,2,3},{0,1,2,3},{0,1,2,3},{0,1,2,3},{0,1,2,3},{0,1,2,3},{0,1,2,3},{0,1,2,3},{0,1,2,3},{0,1,2,3},{0,1,2,3},{0,1,2,3},{0,1,2,3},{0,1,2,3},{0,1,2,3},{0,1,2,3},{0,1,2,3},{0,1,2,3},{0,1,2,3},{0,1,2,3},{0,1,2,3},{0,1,2,3},{0,1,2,3},{0,1,2,3},{0,1,2,3},{0,1,2,3},{0,1,2,3},{0,1,2,3},{0,1,2,3},{0,1,2,3},{0,1,2,3},{0,1,2,3},{0,1,2,3},{0,1,2,3},{0,1,2,3},{0,1,2,3},{0,1,2,3},{0,1,2,3},{0,1,2,3},{0,1,2,3},{0,1,2,3},{0,1,2,3},{0,1,2,3},{0,1,2,3},{0,1,2,3},{0,1,2,3},{0,1,2,3},{0,1,2,3},{0,1,2,3},{0,1,2,3},{0,1,2,3},{0,1,2,3},{0,1,2,3},{0,1,2,3},{0,1,2,3},{0,1,2,3},{0,1,2,3},{0,1,2,3},{0,1,2,3},{0,1,2,3},{0,1,2,3},{0,1,2,3},{0,1,2,3},{0,1,2,3},{0,1,2,3},{0,1,2,3},{0,1,2,3},{0,1,2,3},{0,1,2,3},{0,1,2,3},{0,1,2,3},{0,2},{0,1,2,3},{0,1,2,3},{0,1,2,3},{0,2},{0,1,2,3},{0,1,2,3},{0,1,2,3},{0,1,2,3},{0,1,2,3},{0,1,2,3},{0,1,2,3},{0,1,2,3},{0,1,2,3},{0,1,2,3},{0,1,2,3},{0,1,2,3},{0,1,2,3},{0,1,2,3},{0,1,2,3},{0,13},{0,13},{0,13},{0,13},{0,1,2,3},{0,1,2,3},{0,13},{0,13},{0,13},{0,2},{0,1,2,3},{0,13},{0,13},{0,13},{0,13},{0,13},{0,13},{0,1,2,3},{0,1,2,3},{0,13},{0,13},{0,1,2,3},{0,1,2,3},{0,1,2,3},{0,1,2,3},{0,1,2,3},{0,1,2,3},{0,1,2,3},{0,1,2,3},{0,1,2,3},{0,1,2,3},{0,1,2,3},{0,1,2,3},{0,1,2,3},{0,1,2,3},{0,1,2,3},{0,1,2,3},{0,1,2,3}];
costs = [1000,1000,1000,1000,1000,1000,1000,1000,1000,1000,1000,1000,1000,1000,1000,1000,1000,1000,1000,1000,1000,1000,1000,1000,1000,1000,1000,1000,1000,1000,1000,1000,1000,1000,1000,1000,1000,1,2,1000,2,1,1,2,1000,1000,1000,1000,1000,1000,1000,2000,1000,1000,1000,2000,2,1000,1000,2000,2000,1000,1000,2000,2000,2000,2000,2000,2000,1000,2000,2000,1000,1000,2000,1000,1000,1000,2000,2000,2000,2000,2000,2,2000,2000,2,2000,2000,2000,2000,2000,2000,1000,1000,2000,2000,2000,2000,2000,2000,1000,2000,2000,2000,2000,1,1,2000,1,2000,2000,2000,2000,2000,1,1,2000,1,1,2000,2000,2000,2000,2000,2000,2000,2000,2000,2000,2000,2000,2000,2000,2000,2000,2000,2000,2000,2000,2000,2000,2000,2000,2000,2000,2000,2000,2000,2000,2000,2000,2000,2000,2000,2000,2000,2000,2000,2000,2000,2000,2000,2000,2000,2000,2000,2000,2000,2000,2000,2000,2000,1,1,1,1,1,1,1,1,1,1,1,1000,1000,1000,1000,1000,1000,1000,1000,1000,1000,1000,1000,1000,1000,1000,1000,1000,1000,1000,1000,1000,1000,1000,1000,1000,1000,1,1,1,1,1,1,1,1,1,1,1,1,1,1,1,1000,1000,1000,1000,1000,1000,2,2,1,1,1,1,1,1,2,2,2,1,1,1,1,1,1,1,2,2,2,2,2,2,2,2,2,2,2,2,2,2,1,1,2,2,2,2,5,5,5,5,1,1,2,2,2,2,1,1,1,5,5,1,1,1,1,1,1,1,1,1,1,1,1,1,2,1,1,1,1,1,1,1,1,1,1,1,1,1,1,1,1,1,1,1,1,1,1,1,1,1,1,1,1,1,1,1,1,1,1,1,1,2,2,2,1,2,2,2,2,2,2,2,2,2,2,2,2,2,2,2,2,1,1,1,1,1,1,1,1,1,1,1,1,1,1,1,1,1,2,2,2,2,2,1,2,2,2,2,2,2,2,1,1,1,1,1,2,2,2,2,2,2,2,1,1,1,1,1,1,1,1,2,2,2,2,2,2,2,1,1,1,1,1,1,1,1,1,1,1,1,1,1,1,1,1,1,1,1,2,2,1,1,2,2,2,2,1,1,1,1,1,1,1,1,1,1,1,1,1,1,5,1,1,1,1,1,1,1,1,1,1,1,1,1,1,1,1,1,1,1,1,1,1,1,1,1,1,1,1,1,1,1,1,1,1,1,1,1,1,1,1,1,1,1,1,1,1,1,1,1,1,1,1,1,1,1,1,1,1,1,1,1,1,1,1,1,1,1,1,1,1,1,1,1,1,1,1,1,1,1,1,1,1,1,1,1,1,1,1,1,1,1,1,1,1,1,1,1,1,1,1,1,1,1,1,1,1,1,1,1,1,1,1,1,2,2,2,2,1,1,2,2,2,1,1,2,2,2,2,2,2,1,1,2,2,1,1,1,1,1,1,1,1,1,1,1,1,1,1,1,1,1];
num_constraints2= 2700;
max_constraints2 = 45972;
scopes2x = [529,483,200,140,568,376,170,89,408,173,55,534,114,109,127,575,166,522,511,104,381,411,69,490,292,22,309,584,537,576,392,308,147,430,380,44,344,384,599,97,390,400,159,48,517,43,75,580,41,250,109,279,150,472,89,571,379,449,533,384,405,202,149,480,137,571,113,292,321,148,382,429,517,141,423,432,482,599,592,457,408,432,3,361,458,396,58,44,499,379,493,526,151,38,497,374,103,97,323,43,202,502,325,140,171,298,252,325,568,444,272,576,152,215,77,161,598,28,472,521,508,298,586,465,52,252,369,506,349,418,130,369,130,90,544,381,544,106,481,396,202,568,398,109,128,109,128,365,390,426,97,19,186,297,70,483,150,376,380,117,130,178,420,437,593,378,113,473,415,417,104,465,531,106,535,504,445,107,259,332,298,127,543,129,112,381,349,342,329,313,97,384,120,406,96,202,517,504,123,495,157,99,482,242,399,67,545,223,376,467,295,454,166,516,169,220,138,583,217,540,582,540,16,546,201,514,77,379,495,125,141,167,566,405,472,480,96,52,495,151,382,588,347,385,349,258,152,470,105,380,404,596,303,376,573,256,140,510,80,492,591,114,565,451,407,41,462,518,21,534,298,9,97,300,521,488,421,408,455,166,127,130,490,438,516,301,569,150,483,98,405,312,500,102,392,296,478,365,415,81,495,172,455,492,529,314,533,84,74,376,584,192,382,348,490,320,76,532,159,505,484,573,568,258,404,365,466,313,237,382,481,41,233,291,130,141,449,41,564,361,128,505,471,77,470,374,382,526,500,306,15,251,204,325,150,454,91,34,81,296,342,409,298,571,3,545,515,37,520,105,545,514,453,304,530,588,171,80,546,546,251,106,434,61,342,172,534,531,522,325,98,409,304,384,115,479,293,167,169,537,418,130,55,260,225,97,473,282,248,298,433,382,66,139,364,593,103,303,532,570,547,420,390,395,373,258,415,599,194,516,394,372,586,578,565,428,503,81,110,108,363,604,545,342,152,205,145,584,200,315,147,505,565,31,73,506,494,383,259,92,597,108,96,109,130,596,411,392,489,66,118,583,409,158,128,451,13,219,390,221,295,97,398,406,441,470,205,390,408,250,140,329,7,522,361,552,505,451,254,39,477,390,455,382,566,151,51,431,495,349,484,574,572,414,316,47,61,381,239,437,408,170,581,434,138,154,345,420,418,298,106,380,315,117,467,102,295,328,454,302,329,568,375,155,494,117,582,42,501,125,308,12,410,335,255,415,159,506,341,567,482,424,115,36,411,373,409,418,345,447,297,114,70,467,429,28,391,126,472,217,603,396,491,572,451,410,400,419,444,411,506,451,405,579,420,480,324,318,152,590,185,129,415,408,417,195,286,402,48,384,59,379,7,375,568,469,286,269,375,103,433,376,482,174,360,534,532,182,368,168,204,593,304,126,42,171,99,38,457,530,151,84,175,504,533,10,99,167,18,593,414,533,375,298,351,322,265,175,109,341,88,129,165,410,140,588,381,415,75,182,368,194,584,52,247,293,483,245,193,414,321,311,166,364,374,405,593,34,487,437,447,405,120,437,82,104,534,286,88,154,200,44,495,438,25,99,428,539,16,571,138,383,513,38,375,492,393,148,179,84,596,407,381,483,94,51,39,152,458,216,139,462,217,391,179,114,195,374,141,605,113,374,332,150,513,379,436,85,259,450,588,410,500,407,571,129,376,293,504,482,214,476,25,384,494,490,473,44,54,151,81,44,458,437,591,39,115,254,118,152,119,134,43,560,419,22,115,347,89,331,587,423,483,439,304,493,532,217,308,495,383,337,259,393,95,568,317,505,504,517,361,81,137,461,202,96,216,407,566,373,342,381,108,372,129,396,480,212,325,382,548,139,380,42,548,251,260,472,517,96,152,82,534,151,361,341,178,395,192,140,21,601,103,394,545,92,163,430,105,454,503,191,258,361,455,436,569,97,587,174,303,109,201,559,31,19,484,109,373,24,175,421,531,345,582,402,139,19,139,553,446,454,378,75,109,50,562,449,195,42,375,259,317,391,393,411,483,568,601,84,130,533,296,373,289,383,158,272,462,92,60,484,374,482,584,12,599,6,128,568,132,561,52,473,404,97,360,469,432,96,129,350,383,190,560,396,575,150,596,411,172,118,568,225,462,52,426,484,588,181,329,107,361,114,216,567,469,166,467,571,165,298,313,411,484,10,406,440,139,141,455,83,237,520,252,501,143,103,405,597,596,73,221,436,571,495,532,316,375,99,77,408,378,530,402,483,255,63,291,269,249,351,454,34,349,532,575,407,84,378,383,408,196,212,384,79,155,15,594,167,421,44,499,409,289,99,163,130,424,163,437,151,374,406,182,151,221,545,128,545,542,472,345,256,170,118,43,87,191,141,516,428,130,199,177,543,369,129,546,546,517,128,441,406,506,571,511,22,519,477,163,130,190,408,562,382,571,484,128,186,433,256,61,587,573,562,454,173,113,376,501,451,216,395,315,437,163,287,327,28,154,394,482,118,442,371,381,376,114,245,383,130,115,105,484,328,534,367,220,432,542,252,114,203,321,87,155,158,567,75,583,378,373,480,365,96,372,494,401,561,439,567,201,34,34,41,502,33,189,246,318,258,120,390,313,87,106,421,375,119,166,192,22,9,518,55,454,82,119,93,484,212,266,181,472,337,176,373,471,599,130,104,60,372,574,30,13,391,393,364,128,149,365,287,379,165,99,438,229,447,65,165,145,307,329,155,162,139,127,506,383,432,387,395,517,506,394,410,571,81,176,483,157,433,473,378,411,202,113,597,216,329,256,468,170,405,74,105,435,373,4,216,345,436,31,436,372,443,152,324,290,7,337,495,584,18,166,167,471,54,125,82,331,179,194,117,130,450,501,570,191,298,99,446,317,251,169,128,248,454,158,339,491,159,475,532,402,518,238,380,4,488,141,411,592,430,341,112,255,375,163,518,381,451,409,75,583,493,374,110,33,380,91,126,16,458,179,192,415,411,417,288,89,391,393,117,473,13,533,408,118,433,518,433,129,87,297,118,49,341,200,379,493,70,358,584,376,155,163,469,599,494,103,566,309,473,361,182,390,349,140,574,28,379,430,223,148,503,138,495,398,564,540,597,481,120,498,141,281,447,152,562,238,292,592,380,186,109,308,12,393,73,150,130,252,314,479,405,128,106,181,115,424,149,411,270,171,369,437,374,175,279,405,252,499,325,141,325,152,458,297,223,220,120,173,139,405,359,484,384,16,449,167,258,372,486,141,172,6,151,517,130,129,561,450,531,393,75,128,516,576,587,537,411,509,454,570,493,328,495,297,380,165,207,568,204,269,293,129,104,604,151,476,505,427,379,158,522,383,114,115,89,258,140,235,158,191,195,161,50,426,420,150,509,79,170,250,214,415,141,159,268,365,384,205,515,365,506,106,532,226,130,4,428,114,286,152,106,441,186,304,424,120,256,163,533,378,583,166,113,409,96,106,420,407,160,120,570,432,325,137,584,482,454,246,582,205,369,102,105,72,252,396,407,139,340,110,442,134,536,293,155,159,93,342,38,471,446,221,470,433,96,321,118,369,39,103,376,80,129,297,246,108,505,259,171,392,580,402,419,205,506,149,381,286,378,575,185,393,258,409,436,383,327,471,380,470,99,336,601,10,494,367,52,130,337,80,109,590,93,150,136,571,522,383,10,451,598,513,439,191,205,31,19,87,367,426,63,99,374,568,30,430,396,194,297,483,143,562,152,39,320,202,521,215,336,319,39,569,104,576,110,9,510,129,473,293,472,164,221,173,256,411,365,299,483,451,82,494,151,473,309,75,312,162,378,419,516,33,552,381,113,308,455,552,439,341,443,118,576,403,492,163,567,380,547,394,455,582,544,590,293,542,542,42,498,455,207,303,298,561,152,99,25,87,28,255,48,432,447,66,381,114,493,292,220,235,576,571,48,585,517,380,396,512,141,454,47,384,74,387,243,383,490,171,75,502,503,411,150,449,593,315,165,95,323,340,42,597,379,447,505,468,55,151,454,193,250,147,188,410,307,518,372,484,605,454,504,221,92,292,361,441,75,159,38,591,450,97,159,41,24,182,52,151,34,491,169,404,494,568,363,583,182,408,103,25,536,148,440,461,251,433,411,190,74,446,395,381,597,342,334,41,106,105,150,243,481,407,166,384,59,380,571,351,480,469,393,129,565,176,221,472,109,37,75,72,324,3,315,493,286,157,381,368,581,119,55,505,114,127,328,61,403,19,75,597,167,411,289,503,518,456,184,454,592,91,504,22,551,134,167,27,478,249,75,368,104,127,506,479,115,13,500,128,391,393,411,318,392,379,104,318,569,192,583,518,428,238,119,99,211,592,537,53,88,173,544,413,293,118,483,195,179,380,411,433,81,229,518,242,405,360,473,378,582,451,376,172,406,132,601,484,543,375,55,384,21,189,408,560,599,141,105,194,150,561,454,298,151,384,514,48,185,471,195,426,75,560,105,374,494,7,568,447,102,435,406,115,408,364,409,52,568,98,302,158,104,82,379,157,492,461,428,381,375,30,178,19,174,84,47,81,395,411,167,452,394,373,380,378,478,36,303,85,597,409,168,104,22,533,336,4,215,118,585,332,506,150,518,277,6,216,390,379,516,493,217,424,503,82,138,110,473,530,149,361,165,581,300,115,361,291,438,596,419,571,365,145,536,28,113,444,384,408,74,158,41,408,494,211,504,489,113,140,204,155,191,409,105,118,432,217,574,304,579,196,130,170,140,348,544,74,152,307,128,217,553,477,398,148,175,252,138,444,600,31,448,90,418,212,444,484,220,381,141,531,167,152,444,303,445,449,380,470,450,392,543,381,601,55,176,54,468,435,546,441,151,192,10,4,419,376,186,324,374,430,211,176,172,411,139,493,75,73,439,502,458,87,27,215,471,488,519,521,383,365,384,259,583,90,544,74,424,420,201,460,39,408,76,323,16,140,516,102,195,51,130,217,588,392,410,379,165,599,128,401,51,37,381,97,543,167,546,126,250,491,481,382,164,380,502,410,261,513,155,360,581,256,126,378,185,471,81,162,41,136,93,228,489,116,421,596,203,179,321,484,157,220,148,152,505,396,434,157,103,582,178,381,340,98,568,127,455,249,584,259,39,548,139,205,524,526,70,473,10,414,384,178,580,501,106,376,472,405,410,454,123,568,472,379,587,251,137,190,382,106,454,109,473,258,320,437,163,66,252,518,152,159,382,454,376,396,139,129,487,129,591,136,184,302,451,98,571,129,469,204,568,392,503,379,383,419,325,190,462,407,249,534,344,149,381,37,99,98,495,132,59,332,534,13,411,69,52,249,392,491,298,506,571,432,391,393,51,547,410,172,7,84,219,79,141,192,547,298,259,25,97,375,600,601,229,152,186,18,296,378,137,15,199,42,481,576,440,246,566,568,106,515,189,587,337,138,99,329,167,369,406,382,364,84,79,163,492,130,93,92,481,531,494,176,454,128,504,466,430,104,584,537,290,405,219,415,152,115,380,541,583,580,398,88,107,531,365,166,172,324,454,97,24,529,479,328,575,348,407,110,368,466,277,102,119,453,163,51,107,599,506,361,96,44,116,562,419,433,171,428,541,479,173,96,113,568,568,570,108,581,177,454,528,471,568,43,62,294,149,313,453,300,581,167,221,511,312,380,382,31,37,179,191,105,559,381,402,454,435,304,80,87,54,176,419,286,429,520,522,505,205,419,597,562,166,369,150,494,586,373,398,93,304,129,44,567,140,372,116,410,105,470,530,439,192,349,77,489,96,457,85,371,376,468,395,291,571,159,515,87,378,571,27,63,568,518,495,375,562,443,571,202,568,81,534,126,371,604,566,379,384,401,431,592,115,292,567,495,549,52,570,16,549,151,251,192,238,410,293,25,482,561,59,36,80,140,179,464,593,140,600,455,324,390,395,91,411,157,512,567,383,329,484,533,506,13,137,410,582,376,143,403,599,358,239,492,7,428,52,390,495,129,375,217,349,248,348,316,118,199,103,41,441,413,304,201,381,116,52,405,502,491,217,348,405,571,378,62,201,342,478,167,94,380,50,435,546,129,130,468,81,281,259];
scopes2y = [527,485,197,138,559,390,166,91,425,167,58,537,113,107,126,573,148,519,510,110,365,432,71,487,291,21,311,580,528,574,419,307,144,431,365,48,346,394,591,110,392,399,158,47,523,48,69,589,37,247,106,276,131,466,93,575,382,458,537,396,403,201,154,479,134,570,110,296,319,144,357,451,522,156,420,430,475,598,590,456,432,410,1,359,461,395,56,46,498,365,485,527,124,40,496,385,119,91,327,46,204,500,326,163,165,302,247,324,586,441,271,569,154,214,73,156,595,27,465,523,507,303,589,464,54,251,364,505,347,422,125,367,165,94,539,377,538,108,480,419,198,576,397,119,125,105,165,368,404,423,93,14,187,295,68,479,145,378,377,111,144,174,422,435,594,370,121,471,422,422,107,463,529,117,527,498,448,112,257,326,297,122,539,149,111,380,343,344,331,312,107,371,117,387,128,200,520,497,122,498,164,97,477,241,397,64,542,224,364,465,294,453,147,515,168,214,133,579,216,539,589,538,11,542,198,521,72,377,497,122,143,151,560,420,470,477,57,49,494,128,369,587,346,386,348,260,126,466,107,368,400,592,306,362,578,251,162,512,78,488,595,119,563,458,422,38,461,523,23,531,294,5,60,301,520,486,417,423,456,128,132,129,488,441,522,305,574,153,477,94,417,310,498,108,403,299,474,366,420,89,490,170,457,489,528,310,531,80,71,374,588,194,393,350,489,323,71,536,155,496,479,577,560,251,403,370,465,314,236,396,476,40,232,296,127,140,456,42,558,362,127,501,467,78,467,363,394,528,497,305,17,249,203,323,149,428,98,30,102,300,335,431,291,576,2,540,514,36,519,119,544,519,452,302,527,585,166,88,545,540,250,110,448,57,343,164,529,535,524,328,100,398,303,378,111,476,295,166,167,535,416,166,53,257,222,128,467,280,247,296,428,386,67,133,359,595,120,299,537,578,546,416,385,419,360,254,417,597,187,521,419,360,590,577,559,455,498,88,100,111,362,605,541,336,151,207,142,583,199,311,153,500,564,30,69,499,485,357,253,90,593,100,108,120,150,594,426,420,485,64,119,586,430,156,150,450,8,213,400,219,299,61,401,429,449,469,199,402,409,248,161,330,6,514,357,549,503,456,257,35,474,403,461,371,565,126,47,440,487,346,474,573,578,416,320,49,65,390,236,433,426,169,586,441,136,156,347,413,413,299,107,390,314,112,464,110,300,330,448,306,322,562,378,156,493,116,579,36,497,124,302,8,431,339,254,413,163,507,345,560,478,423,113,40,437,377,406,412,343,450,290,120,72,463,449,30,386,132,468,214,602,420,485,577,455,398,397,416,445,400,498,446,421,578,412,478,322,314,148,594,188,123,412,429,412,188,293,404,45,382,56,390,5,364,565,465,289,266,367,100,409,368,480,167,357,535,531,184,363,167,200,590,306,131,37,170,110,36,459,528,146,86,165,496,530,6,129,128,14,591,413,532,362,292,347,326,264,177,100,344,83,151,160,430,136,589,378,421,76,177,366,197,581,55,253,289,478,244,187,412,320,310,144,362,378,419,598,32,485,431,446,399,119,438,78,117,533,288,85,146,198,38,496,434,21,91,431,538,14,578,137,393,514,37,374,486,391,154,180,79,595,430,367,480,100,53,45,124,456,219,136,460,213,415,181,111,189,364,163,602,117,367,327,125,515,378,434,83,256,455,595,406,496,421,565,127,366,288,500,476,218,474,27,377,491,486,464,40,53,132,83,42,457,430,600,43,112,253,120,147,111,135,40,558,418,17,116,343,92,330,589,422,481,441,299,490,529,215,306,488,386,339,252,392,94,604,321,497,503,514,363,85,142,459,203,93,211,406,564,361,340,374,112,361,166,398,476,211,319,395,550,134,374,38,551,247,254,475,515,107,128,80,527,148,366,343,167,420,191,139,17,600,101,420,543,98,136,451,100,456,501,189,257,370,458,431,578,92,595,165,302,104,203,563,27,21,480,103,372,20,166,422,528,346,586,400,137,15,160,552,449,457,393,73,101,53,563,452,196,40,377,250,316,404,404,434,476,564,602,82,126,527,294,359,288,358,160,273,456,91,64,464,365,479,589,11,601,5,126,569,131,563,47,476,401,130,363,464,428,60,124,346,391,188,563,421,579,127,591,397,166,111,602,224,457,59,427,463,590,183,326,101,358,121,214,563,463,145,466,557,162,301,315,415,481,12,424,452,138,133,460,86,234,523,253,496,142,116,422,601,598,68,218,430,574,492,530,321,368,128,71,397,386,535,403,482,257,62,294,267,253,346,433,35,351,535,574,405,89,366,392,415,198,214,370,78,160,11,595,146,420,47,497,425,290,57,137,146,422,160,440,153,377,423,178,147,222,539,146,538,540,467,339,260,168,115,47,82,195,135,514,440,123,197,167,538,362,128,539,538,521,123,447,428,501,564,512,23,524,476,139,122,189,424,559,377,569,476,122,191,434,253,60,590,572,564,461,171,107,379,500,452,213,398,316,436,138,289,330,23,153,398,474,113,447,367,368,375,112,247,387,151,120,103,487,331,528,362,223,409,541,254,116,199,324,84,153,163,559,77,587,391,364,474,363,61,364,490,399,559,434,564,200,33,29,45,499,35,187,247,316,253,111,401,311,89,100,416,361,112,149,188,24,11,522,54,431,86,116,90,482,213,267,177,469,335,174,362,474,600,132,119,57,362,572,32,15,385,385,366,132,146,371,288,368,161,96,435,228,452,64,144,146,306,323,163,156,162,131,504,395,429,388,421,519,503,421,425,593,87,175,474,156,431,474,392,401,197,119,600,218,328,254,464,167,416,69,116,440,374,1,220,344,440,29,435,374,447,146,323,295,9,336,486,582,17,164,148,465,58,131,79,326,174,193,121,148,452,499,572,187,290,108,445,320,248,164,148,253,430,162,343,490,160,474,527,397,521,235,366,3,485,136,419,600,429,340,121,253,390,164,520,370,449,423,80,585,491,361,111,29,370,95,125,12,452,175,189,416,409,416,290,90,403,403,101,465,14,529,407,112,430,513,410,126,80,294,116,56,339,196,366,489,71,359,579,385,162,162,466,593,487,108,558,310,470,360,183,377,350,143,579,29,370,449,218,147,497,142,485,399,563,541,594,475,121,497,134,280,449,132,560,237,295,594,391,188,108,301,14,394,72,154,124,249,316,475,387,124,103,180,110,427,148,435,271,168,368,432,390,174,278,404,250,496,329,160,320,131,460,291,222,222,101,166,161,418,362,483,383,15,453,147,256,377,485,137,169,8,144,512,147,146,560,449,536,386,68,147,519,572,586,536,402,507,458,573,492,322,475,296,392,145,203,566,206,268,297,122,120,602,125,475,499,448,392,165,523,369,108,121,86,252,142,234,161,190,194,160,46,422,418,126,508,86,165,257,213,418,138,164,267,364,357,201,520,367,497,119,528,227,128,2,451,117,287,145,116,455,189,305,421,112,250,161,535,365,580,165,120,426,92,105,414,423,156,116,575,434,327,143,586,481,460,248,587,204,366,107,120,68,257,391,387,142,344,101,455,133,535,294,161,162,98,341,35,464,448,214,464,435,130,322,114,370,38,110,363,83,132,299,244,101,507,255,167,404,586,401,423,198,486,147,379,291,385,578,189,415,250,429,432,394,326,463,379,463,93,340,605,5,474,366,58,167,340,85,110,589,91,146,142,566,520,396,11,453,594,516,435,194,200,32,17,86,370,425,58,107,362,605,29,434,392,188,300,463,135,565,153,40,319,199,524,219,339,322,42,572,100,573,112,8,513,148,463,291,471,160,213,170,257,420,360,301,486,445,88,489,131,468,312,79,314,160,369,414,512,32,550,383,111,305,459,551,436,335,455,108,579,401,485,142,565,383,545,386,452,585,543,595,296,539,538,45,496,462,206,301,295,565,149,60,23,79,26,250,50,431,453,65,384,110,486,288,219,236,575,573,46,589,516,384,387,515,162,442,45,393,68,386,245,371,485,169,71,501,496,433,132,448,600,310,164,100,322,343,43,596,383,445,502,465,56,145,455,197,253,146,187,429,301,524,359,486,603,443,499,215,95,290,371,427,70,165,45,594,453,129,161,35,23,180,51,150,36,489,166,399,492,585,366,588,181,433,102,24,527,146,448,460,254,455,390,194,76,450,391,385,591,345,333,44,120,110,148,244,478,429,150,386,53,385,592,350,475,468,395,147,558,167,220,474,102,32,72,71,326,5,317,487,292,163,369,367,588,121,50,485,107,125,326,64,400,20,82,598,165,427,291,500,514,459,180,432,591,94,507,20,550,131,144,23,475,247,67,362,103,123,496,478,114,12,499,144,419,419,431,321,385,385,101,317,573,190,582,515,429,236,101,61,214,598,529,56,89,169,542,412,292,110,475,193,167,369,398,432,82,226,516,240,386,359,475,371,580,448,367,168,430,124,603,485,542,363,59,358,20,193,431,559,592,161,104,196,124,564,451,293,149,391,520,49,187,466,187,421,78,564,101,368,497,8,603,448,120,448,421,108,398,363,397,53,589,108,301,157,102,83,369,162,491,456,449,393,366,26,177,18,166,88,46,84,387,410,129,456,387,375,393,390,477,35,305,89,592,415,166,116,18,528,335,6,213,121,590,331,500,147,517,278,2,215,399,393,523,496,212,425,499,85,135,108,466,536,144,364,143,587,302,117,367,290,440,600,422,594,361,144,528,24,112,442,392,410,73,164,43,430,486,213,502,486,116,156,199,157,193,424,102,107,435,221,578,301,580,197,131,164,133,346,540,70,125,305,131,219,554,475,404,145,167,255,143,455,594,33,452,98,417,215,446,475,213,386,142,530,145,144,443,307,449,457,386,465,448,394,540,366,595,49,165,56,463,441,544,440,154,185,8,5,420,365,190,328,366,435,215,177,167,399,156,488,74,71,438,498,459,88,29,218,470,487,523,519,382,359,387,260,581,95,541,72,416,417,197,459,36,406,72,326,17,135,520,100,197,50,145,211,586,386,397,386,142,594,145,400,46,35,371,57,541,150,541,123,249,486,479,370,161,371,497,415,260,512,154,362,585,255,122,367,190,469,80,161,39,133,94,227,487,111,418,593,198,177,323,477,165,218,153,129,504,394,440,161,117,588,180,391,339,110,572,124,453,245,587,251,37,549,135,203,523,529,69,472,9,417,395,166,587,498,104,377,464,428,424,462,124,561,463,371,585,257,133,193,358,101,459,117,469,255,322,434,156,60,248,519,127,157,391,452,380,386,143,125,486,165,598,135,183,305,457,95,595,144,467,198,590,391,502,391,377,417,322,187,459,424,248,530,343,145,392,33,92,107,493,133,58,330,532,9,436,68,45,244,415,487,300,508,572,455,420,420,54,550,423,171,3,83,218,83,139,195,551,304,254,26,96,379,595,598,227,166,185,20,295,382,135,14,196,35,477,578,453,245,563,567,102,521,188,594,341,134,130,327,149,363,422,392,367,85,85,135,490,149,92,94,474,527,496,166,429,149,501,464,455,108,585,527,294,401,222,414,150,107,378,538,589,585,400,86,111,537,362,146,165,327,441,108,26,535,477,327,572,344,428,107,370,463,276,101,117,456,143,49,100,595,502,368,110,45,121,561,413,429,164,427,539,474,168,129,108,573,556,574,107,580,166,444,527,468,563,45,69,299,153,310,457,299,589,164,223,513,311,367,387,26,40,166,188,108,558,375,399,449,434,307,86,83,49,178,412,290,455,524,521,498,206,421,595,558,151,371,144,488,585,363,403,95,308,131,43,561,134,363,101,407,117,468,529,440,193,345,76,488,91,460,86,366,361,466,394,295,590,156,519,85,377,567,26,56,575,512,474,365,566,442,591,196,570,86,536,124,370,603,559,367,369,397,455,595,119,294,558,491,550,48,569,18,551,127,253,187,234,409,290,20,485,558,62,32,79,137,178,463,592,160,598,448,319,391,386,90,425,160,514,566,370,332,478,536,485,11,136,426,581,372,144,399,596,357,237,487,2,447,50,415,489,145,385,218,344,244,347,319,117,198,107,36,451,416,300,199,382,112,46,400,496,488,220,343,402,556,368,56,196,339,476,152,110,382,49,431,543,150,152,467,79,282,258];
num_tuples2 = [13,13,6,7,6,3,7,13,7,7,3,13,3,13,3,6,7,13,13,7,7,3,3,13,13,3,13,3,13,3,7,13,3,13,7,7,3,3,13,6,3,13,13,3,13,3,7,6,7,6,13,3,7,13,13,3,3,15,13,3,6,13,3,13,3,3,7,13,13,3,7,15,13,7,13,6,13,13,13,13,3,3,3,13,13,3,3,7,13,7,13,13,7,3,13,7,7,6,13,3,13,13,13,14,7,6,6,13,7,13,3,3,7,13,3,3,13,3,13,13,13,6,13,13,7,3,13,13,3,3,7,13,15,3,13,6,13,13,13,7,6,3,13,13,7,13,15,13,7,13,6,3,13,13,3,13,7,3,6,7,7,3,7,6,13,7,3,13,7,3,7,13,13,13,13,13,7,7,3,13,6,3,13,7,3,3,3,3,13,13,6,7,13,7,7,13,13,13,3,13,7,3,13,3,13,3,13,13,7,13,13,6,7,13,7,13,3,3,13,13,6,13,3,13,6,13,3,6,13,3,7,14,13,7,13,13,3,7,13,14,7,3,3,13,3,3,7,13,13,7,13,13,13,7,13,3,7,13,7,13,13,7,13,15,3,7,13,13,3,13,6,3,3,13,13,13,7,7,13,15,3,13,13,6,13,13,3,7,13,3,3,13,13,7,7,13,13,13,13,6,13,3,13,13,13,13,13,6,3,3,3,13,3,3,13,13,3,13,13,13,13,7,6,3,13,13,13,13,3,3,13,7,3,13,7,13,15,7,13,13,7,13,13,3,13,7,3,13,13,13,3,6,13,13,7,7,7,3,3,13,3,7,6,3,3,13,13,3,13,13,13,13,13,13,13,6,7,13,13,13,3,13,15,3,3,3,13,13,13,13,3,7,13,3,7,13,13,13,7,13,3,15,3,3,13,7,13,3,13,6,6,7,3,7,13,13,7,13,13,6,13,7,7,7,7,3,7,13,13,13,7,7,13,7,13,15,13,6,7,7,13,13,13,3,13,13,3,3,13,13,3,13,13,3,3,13,13,7,3,7,13,7,6,13,14,13,7,7,13,3,13,6,7,7,14,7,3,13,7,13,13,3,13,7,15,13,13,7,3,6,7,13,3,13,13,7,13,13,3,7,13,7,15,7,13,7,3,13,13,3,13,6,13,3,13,3,3,3,3,3,7,3,6,15,3,3,3,7,3,6,13,3,13,7,13,7,13,13,6,13,13,6,3,7,13,13,3,3,13,3,13,3,7,3,3,7,13,13,3,13,13,13,7,3,3,6,3,3,3,7,13,7,3,13,15,3,7,3,13,13,13,7,13,7,13,7,13,7,7,7,13,7,7,6,7,13,13,13,7,13,13,7,7,7,3,13,13,13,3,3,3,3,3,7,6,13,13,3,7,3,3,7,13,7,13,13,13,3,13,13,13,13,13,3,3,3,6,3,13,13,7,3,7,13,13,3,7,15,3,13,3,13,7,6,3,13,13,3,7,3,13,14,7,7,7,6,3,13,7,3,13,6,3,7,6,13,13,13,13,3,13,13,7,13,3,7,13,3,13,6,7,6,13,3,7,7,13,13,13,3,6,7,13,6,3,6,13,13,3,6,3,3,13,3,3,13,3,3,3,6,13,7,7,13,3,3,7,7,13,13,7,13,13,7,3,3,13,7,14,13,7,7,13,7,13,3,6,13,3,7,6,3,13,7,6,7,7,13,13,13,13,13,3,6,13,13,13,7,3,7,6,7,13,6,13,7,7,3,13,7,7,3,3,13,7,3,13,3,13,13,6,7,13,6,13,13,13,13,13,13,7,3,3,3,3,7,13,13,13,13,13,6,3,13,13,6,13,3,13,7,3,3,7,7,15,6,13,13,13,3,7,7,3,3,7,6,3,13,13,6,14,13,13,7,13,3,7,7,13,13,3,13,3,7,13,7,7,15,7,6,13,13,3,13,13,6,6,6,6,7,13,7,13,13,3,3,13,7,3,3,7,7,13,3,6,13,7,3,7,7,7,6,3,7,7,3,13,13,13,3,6,3,13,7,7,7,13,6,13,6,7,13,13,7,13,7,7,3,13,13,3,13,7,13,6,3,13,3,7,3,3,13,7,13,13,7,13,13,6,3,7,3,3,13,13,7,3,7,13,7,7,7,7,13,13,7,13,13,6,3,13,7,13,3,13,13,13,7,13,7,7,6,13,6,13,3,7,15,7,7,15,6,3,13,3,13,3,7,3,13,13,3,13,6,3,13,13,13,7,7,3,7,7,13,13,13,3,3,13,3,6,3,3,3,3,13,3,3,6,7,3,6,6,13,7,7,7,3,13,7,13,7,13,7,13,3,7,7,7,7,6,7,6,7,3,7,13,13,7,13,13,13,3,3,7,13,3,6,13,7,13,15,7,6,7,13,13,13,13,13,13,7,15,7,13,6,13,3,13,13,14,7,13,7,13,6,3,13,7,13,6,3,3,6,13,13,7,3,7,3,13,13,13,6,13,3,7,13,13,3,3,6,13,7,13,13,7,3,3,13,7,14,13,7,13,13,13,13,13,3,13,3,7,13,13,3,7,13,13,7,3,3,7,13,13,3,7,13,13,13,6,13,13,3,3,7,13,3,13,13,13,3,7,7,13,6,7,7,7,7,7,13,3,3,13,3,7,6,13,7,13,13,3,3,13,3,3,7,13,13,7,7,3,7,6,3,3,7,7,13,7,3,13,13,7,7,3,6,3,13,3,7,3,13,13,13,3,7,3,13,3,6,7,7,13,13,7,7,7,3,3,13,7,6,13,3,7,6,7,13,13,13,3,13,7,3,3,13,13,3,3,13,3,6,3,6,3,13,7,13,13,3,3,13,3,3,7,7,13,3,3,13,13,3,13,7,7,7,13,6,13,6,6,3,13,6,3,7,6,7,7,3,13,7,13,13,13,13,3,7,3,13,7,6,13,13,3,3,3,3,7,13,7,13,7,13,6,13,7,7,3,7,7,3,3,13,3,13,7,3,3,13,7,7,7,7,13,3,13,3,7,6,13,3,7,6,13,13,3,3,13,7,13,3,13,3,7,7,7,13,13,13,7,13,13,13,13,3,7,3,7,3,3,7,15,13,3,13,3,13,13,13,13,13,13,7,13,7,3,13,7,13,3,13,13,3,13,13,13,3,3,3,7,7,6,13,13,7,7,7,3,13,13,3,7,3,7,13,3,3,3,3,6,3,13,13,7,13,7,13,13,13,13,7,7,7,3,13,13,3,3,13,7,3,6,13,7,3,3,7,13,7,7,13,7,13,7,7,7,13,6,6,13,7,13,6,6,13,13,13,13,3,7,13,6,13,3,13,7,7,13,7,13,13,15,3,13,13,7,7,7,6,3,7,3,7,13,13,3,3,7,7,7,13,6,7,3,13,7,7,7,3,13,7,13,13,13,13,13,13,3,13,3,15,7,13,7,13,15,13,13,13,7,3,7,13,7,3,13,7,7,6,13,7,7,3,13,3,6,13,3,6,13,7,13,3,13,13,7,13,3,3,3,7,7,3,7,15,3,13,13,7,7,7,3,3,13,7,13,13,6,7,13,7,13,7,7,7,13,7,13,13,7,13,3,7,7,6,13,13,6,13,3,3,13,7,6,13,7,3,7,3,3,13,13,3,13,6,3,13,3,13,13,7,15,3,13,13,13,13,7,3,6,13,3,3,13,13,13,6,13,13,3,3,3,13,13,3,6,7,7,3,13,3,13,13,13,3,13,7,7,13,13,13,13,3,13,7,6,3,6,7,3,13,7,13,13,13,3,13,3,3,6,13,13,13,7,13,13,7,13,13,13,13,3,7,7,13,3,7,3,3,13,15,7,3,3,15,13,3,13,13,7,13,3,13,7,13,6,13,13,13,13,13,3,13,15,13,13,6,13,7,3,3,6,3,3,3,6,15,3,3,7,13,13,13,3,3,6,3,13,13,3,7,13,7,7,3,3,3,13,13,7,13,3,7,13,13,3,7,13,13,13,7,3,13,3,3,13,3,7,13,13,3,7,6,6,3,3,13,7,13,13,7,13,13,7,13,13,7,13,13,15,7,13,3,13,7,7,7,7,3,3,7,13,3,13,7,13,13,7,13,3,3,3,3,3,13,3,15,13,3,7,3,13,3,3,3,7,13,3,3,13,13,13,7,13,13,7,14,7,3,7,7,3,13,13,3,7,13,7,13,13,7,3,7,3,13,3,13,13,13,13,7,13,3,7,3,13,7,3,13,3,13,3,13,13,13,7,13,13,13,13,3,3,13,7,13,3,13,3,7,3,13,13,6,13,3,3,13,13,7,3,13,7,7,7,7,13,7,7,3,13,6,13,3,13,13,3,7,3,13,13,13,3,13,3,13,3,13,13,13,13,7,7,7,3,6,3,13,3,7,13,13,7,3,13,7,7,7,3,13,13,13,7,3,7,3,13,7,13,13,7,7,13,7,13,6,6,7,3,13,3,13,13,13,13,7,13,7,7,13,3,7,13,7,15,7,13,7,13,7,7,7,7,13,13,3,13,7,7,13,13,15,3,7,3,3,3,7,6,3,3,7,3,15,13,7,3,3,3,13,3,13,13,13,6,13,7,3,13,3,3,13,7,13,13,13,7,13,3,3,13,7,3,13,13,13,13,13,13,3,13,13,13,3,13,7,3,13,13,13,13,6,13,7,7,13,3,13,3,3,13,3,3,3,7,7,7,13,13,13,13,7,7,13,13,13,7,7,13,6,13,6,13,3,6,7,3,7,3,13,3,7,13,7,13,13,13,13,3,7,3,3,15,13,3,13,3,3,13,7,13,13,7,7,13,7,7,13,13,7,15,7,13,7,3,13,7,13,3,7,3,13,15,13,13,7,13,3,3,13,7,13,13,7,13,13,3,7,7,7,13,7,3,3,13,13,6,3,13,13,13,13,13,3,13,7,3,3,3,13,3,7,7,6,13,7,3,3,13,3,7,13,3,6,3,7,13,6,7,7,7,7,13,7,13,3,3,7,3,13,14,13,3,6,13,13,7,3,7,13,6,3,13,7,13,6,3,3,7,13,13,6,3,13,3,7,3,13,7,7,13,6,3,13,13,13,13,3,14,13,3,13,7,7,3,3,3,3,7,6,3,13,13,3,3,7,7,7,13,13,13,3,13,3,3,3,7,3,13,7,6,13,7,7,7,3,6,13,7,6,3,3,13,7,7,6,13,13,3,13,6,7,3,6,13,7,13,3,6,3,7,7,7,13,15,13,3,3,13,13,3,7,7,13,6,7,3,13,3,6,7,13,13,13,7,13,13,3,3,3,3,6,7,13,3,3,13,13,3,3,3,7,13,7,13,6,13,6,7,7,7,3,13,7,3,3,6,13,13,13,13,13,6,3,3,3,3,13,13,3,14,13,3,13,3,3,3,13,3,13,6,15,13,13,6,7,13,13,6,3,3,7,13,7,13,3,3,13,6,13,7,13,7,13,7,13,13,13,7,7,7,13,13,15,7,6,13,13,6,13,7,13,13,3,13,6,6,13,6,7,13,13,7,7,13,7,6,3,13,13,13,6,3,7,13,13,13,3,3,13,13,7,3,7,13,13,13,6,7,7,13,7,6,3,15,13,13,7,7,7,6,7,3,13,3,7,7,13,13,6,3,3,13,3,13,13,13,6,7,13,13,13,7,7,3,3,7,13,13,13,3,13,6,13,13,6,6,3,3,7,13,15,13,13,13,13,13,13,13,14,13,7,13,13,7,13,7,13,7,7,13,7,7,7,3,13,13,13,6,13,3,3,13,6,13,6,13,7,13,3,13,7,7,13,6,6,6,3,3,3,13,13,7,13,13,7,13,3,3,13,3,13,13,13,7,7,13,15,13,13,13,13,13,13,7,3,3,13,7,3,13,3,3,13,3,13,13,3,3,13,7,3,13,13,7,13,13,13,3,7,7,7,7,13,13,7,13,13,13,13,3,3,7,3,3,3,13,13,13,3,13,3,15,7,7,13,7,7,13,3,13,3,13,13,6,7,7,15,3,13,13,3,7,7,6,13,13,13,3,6,7,7,3,13,3,13,14,7,3,3,13,13,14,14,13,6,3,3];
cum_tuples2 = [0,13,26,32,39,45,48,55,68,75,82,85,98,101,114,117,123,130,143,156,163,170,173,176,189,202,205,218,221,234,237,244,257,260,273,280,287,290,293,306,312,315,328,341,344,357,360,367,373,380,386,399,402,409,422,435,438,441,456,469,472,478,491,494,507,510,513,520,533,546,549,556,571,584,591,604,610,623,636,649,662,665,668,671,684,697,700,703,710,723,730,743,756,763,766,779,786,793,799,812,815,828,841,854,868,875,881,887,900,907,920,923,926,933,946,949,952,965,968,981,994,1007,1013,1026,1039,1046,1049,1062,1075,1078,1081,1088,1101,1116,1119,1132,1138,1151,1164,1177,1184,1190,1193,1206,1219,1226,1239,1254,1267,1274,1287,1293,1296,1309,1322,1325,1338,1345,1348,1354,1361,1368,1371,1378,1384,1397,1404,1407,1420,1427,1430,1437,1450,1463,1476,1489,1502,1509,1516,1519,1532,1538,1541,1554,1561,1564,1567,1570,1573,1586,1599,1605,1612,1625,1632,1639,1652,1665,1678,1681,1694,1701,1704,1717,1720,1733,1736,1749,1762,1769,1782,1795,1801,1808,1821,1828,1841,1844,1847,1860,1873,1879,1892,1895,1908,1914,1927,1930,1936,1949,1952,1959,1973,1986,1993,2006,2019,2022,2029,2042,2056,2063,2066,2069,2082,2085,2088,2095,2108,2121,2128,2141,2154,2167,2174,2187,2190,2197,2210,2217,2230,2243,2250,2263,2278,2281,2288,2301,2314,2317,2330,2336,2339,2342,2355,2368,2381,2388,2395,2408,2423,2426,2439,2452,2458,2471,2484,2487,2494,2507,2510,2513,2526,2539,2546,2553,2566,2579,2592,2605,2611,2624,2627,2640,2653,2666,2679,2692,2698,2701,2704,2707,2720,2723,2726,2739,2752,2755,2768,2781,2794,2807,2814,2820,2823,2836,2849,2862,2875,2878,2881,2894,2901,2904,2917,2924,2937,2952,2959,2972,2985,2992,3005,3018,3021,3034,3041,3044,3057,3070,3083,3086,3092,3105,3118,3125,3132,3139,3142,3145,3158,3161,3168,3174,3177,3180,3193,3206,3209,3222,3235,3248,3261,3274,3287,3300,3306,3313,3326,3339,3352,3355,3368,3383,3386,3389,3392,3405,3418,3431,3444,3447,3454,3467,3470,3477,3490,3503,3516,3523,3536,3539,3554,3557,3560,3573,3580,3593,3596,3609,3615,3621,3628,3631,3638,3651,3664,3671,3684,3697,3703,3716,3723,3730,3737,3744,3747,3754,3767,3780,3793,3800,3807,3820,3827,3840,3855,3868,3874,3881,3888,3901,3914,3927,3930,3943,3956,3959,3962,3975,3988,3991,4004,4017,4020,4023,4036,4049,4056,4059,4066,4079,4086,4092,4105,4119,4132,4139,4146,4159,4162,4175,4181,4188,4195,4209,4216,4219,4232,4239,4252,4265,4268,4281,4288,4303,4316,4329,4336,4339,4345,4352,4365,4368,4381,4394,4401,4414,4427,4430,4437,4450,4457,4472,4479,4492,4499,4502,4515,4528,4531,4544,4550,4563,4566,4579,4582,4585,4588,4591,4594,4601,4604,4610,4625,4628,4631,4634,4641,4644,4650,4663,4666,4679,4686,4699,4706,4719,4732,4738,4751,4764,4770,4773,4780,4793,4806,4809,4812,4825,4828,4841,4844,4851,4854,4857,4864,4877,4890,4893,4906,4919,4932,4939,4942,4945,4951,4954,4957,4960,4967,4980,4987,4990,5003,5018,5021,5028,5031,5044,5057,5070,5077,5090,5097,5110,5117,5130,5137,5144,5151,5164,5171,5178,5184,5191,5204,5217,5230,5237,5250,5263,5270,5277,5284,5287,5300,5313,5326,5329,5332,5335,5338,5341,5348,5354,5367,5380,5383,5390,5393,5396,5403,5416,5423,5436,5449,5462,5465,5478,5491,5504,5517,5530,5533,5536,5539,5545,5548,5561,5574,5581,5584,5591,5604,5617,5620,5627,5642,5645,5658,5661,5674,5681,5687,5690,5703,5716,5719,5726,5729,5742,5756,5763,5770,5777,5783,5786,5799,5806,5809,5822,5828,5831,5838,5844,5857,5870,5883,5896,5899,5912,5925,5932,5945,5948,5955,5968,5971,5984,5990,5997,6003,6016,6019,6026,6033,6046,6059,6072,6075,6081,6088,6101,6107,6110,6116,6129,6142,6145,6151,6154,6157,6170,6173,6176,6189,6192,6195,6198,6204,6217,6224,6231,6244,6247,6250,6257,6264,6277,6290,6297,6310,6323,6330,6333,6336,6349,6356,6370,6383,6390,6397,6410,6417,6430,6433,6439,6452,6455,6462,6468,6471,6484,6491,6497,6504,6511,6524,6537,6550,6563,6576,6579,6585,6598,6611,6624,6631,6634,6641,6647,6654,6667,6673,6686,6693,6700,6703,6716,6723,6730,6733,6736,6749,6756,6759,6772,6775,6788,6801,6807,6814,6827,6833,6846,6859,6872,6885,6898,6911,6918,6921,6924,6927,6930,6937,6950,6963,6976,6989,7002,7008,7011,7024,7037,7043,7056,7059,7072,7079,7082,7085,7092,7099,7114,7120,7133,7146,7159,7162,7169,7176,7179,7182,7189,7195,7198,7211,7224,7230,7244,7257,7270,7277,7290,7293,7300,7307,7320,7333,7336,7349,7352,7359,7372,7379,7386,7401,7408,7414,7427,7440,7443,7456,7469,7475,7481,7487,7493,7500,7513,7520,7533,7546,7549,7552,7565,7572,7575,7578,7585,7592,7605,7608,7614,7627,7634,7637,7644,7651,7658,7664,7667,7674,7681,7684,7697,7710,7723,7726,7732,7735,7748,7755,7762,7769,7782,7788,7801,7807,7814,7827,7840,7847,7860,7867,7874,7877,7890,7903,7906,7919,7926,7939,7945,7948,7961,7964,7971,7974,7977,7990,7997,8010,8023,8030,8043,8056,8062,8065,8072,8075,8078,8091,8104,8111,8114,8121,8134,8141,8148,8155,8162,8175,8188,8195,8208,8221,8227,8230,8243,8250,8263,8266,8279,8292,8305,8312,8325,8332,8339,8345,8358,8364,8377,8380,8387,8402,8409,8416,8431,8437,8440,8453,8456,8469,8472,8479,8482,8495,8508,8511,8524,8530,8533,8546,8559,8572,8579,8586,8589,8596,8603,8616,8629,8642,8645,8648,8661,8664,8670,8673,8676,8679,8682,8695,8698,8701,8707,8714,8717,8723,8729,8742,8749,8756,8763,8766,8779,8786,8799,8806,8819,8826,8839,8842,8849,8856,8863,8870,8876,8883,8889,8896,8899,8906,8919,8932,8939,8952,8965,8978,8981,8984,8991,9004,9007,9013,9026,9033,9046,9061,9068,9074,9081,9094,9107,9120,9133,9146,9159,9166,9181,9188,9201,9207,9220,9223,9236,9249,9263,9270,9283,9290,9303,9309,9312,9325,9332,9345,9351,9354,9357,9363,9376,9389,9396,9399,9406,9409,9422,9435,9448,9454,9467,9470,9477,9490,9503,9506,9509,9515,9528,9535,9548,9561,9568,9571,9574,9587,9594,9608,9621,9628,9641,9654,9667,9680,9693,9696,9709,9712,9719,9732,9745,9748,9755,9768,9781,9788,9791,9794,9801,9814,9827,9830,9837,9850,9863,9876,9882,9895,9908,9911,9914,9921,9934,9937,9950,9963,9976,9979,9986,9993,10006,10012,10019,10026,10033,10040,10047,10060,10063,10066,10079,10082,10089,10095,10108,10115,10128,10141,10144,10147,10160,10163,10166,10173,10186,10199,10206,10213,10216,10223,10229,10232,10235,10242,10249,10262,10269,10272,10285,10298,10305,10312,10315,10321,10324,10337,10340,10347,10350,10363,10376,10389,10392,10399,10402,10415,10418,10424,10431,10438,10451,10464,10471,10478,10485,10488,10491,10504,10511,10517,10530,10533,10540,10546,10553,10566,10579,10592,10595,10608,10615,10618,10621,10634,10647,10650,10653,10666,10669,10675,10678,10684,10687,10700,10707,10720,10733,10736,10739,10752,10755,10758,10765,10772,10785,10788,10791,10804,10817,10820,10833,10840,10847,10854,10867,10873,10886,10892,10898,10901,10914,10920,10923,10930,10936,10943,10950,10953,10966,10973,10986,10999,11012,11025,11028,11035,11038,11051,11058,11064,11077,11090,11093,11096,11099,11102,11109,11122,11129,11142,11149,11162,11168,11181,11188,11195,11198,11205,11212,11215,11218,11231,11234,11247,11254,11257,11260,11273,11280,11287,11294,11301,11314,11317,11330,11333,11340,11346,11359,11362,11369,11375,11388,11401,11404,11407,11420,11427,11440,11443,11456,11459,11466,11473,11480,11493,11506,11519,11526,11539,11552,11565,11578,11581,11588,11591,11598,11601,11604,11611,11626,11639,11642,11655,11658,11671,11684,11697,11710,11723,11736,11743,11756,11763,11766,11779,11786,11799,11802,11815,11828,11831,11844,11857,11870,11873,11876,11879,11886,11893,11899,11912,11925,11932,11939,11946,11949,11962,11975,11978,11985,11988,11995,12008,12011,12014,12017,12020,12026,12029,12042,12055,12062,12075,12082,12095,12108,12121,12134,12141,12148,12155,12158,12171,12184,12187,12190,12203,12210,12213,12219,12232,12239,12242,12245,12252,12265,12272,12279,12292,12299,12312,12319,12326,12333,12346,12352,12358,12371,12378,12391,12397,12403,12416,12429,12442,12455,12458,12465,12478,12484,12497,12500,12513,12520,12527,12540,12547,12560,12573,12588,12591,12604,12617,12624,12631,12638,12644,12647,12654,12657,12664,12677,12690,12693,12696,12703,12710,12717,12730,12736,12743,12746,12759,12766,12773,12780,12783,12796,12803,12816,12829,12842,12855,12868,12881,12884,12897,12900,12915,12922,12935,12942,12955,12970,12983,12996,13009,13016,13019,13026,13039,13046,13049,13062,13069,13076,13082,13095,13102,13109,13112,13125,13128,13134,13147,13150,13156,13169,13176,13189,13192,13205,13218,13225,13238,13241,13244,13247,13254,13261,13264,13271,13286,13289,13302,13315,13322,13329,13336,13339,13342,13355,13362,13375,13388,13394,13401,13414,13421,13434,13441,13448,13455,13468,13475,13488,13501,13508,13521,13524,13531,13538,13544,13557,13570,13576,13589,13592,13595,13608,13615,13621,13634,13641,13644,13651,13654,13657,13670,13683,13686,13699,13705,13708,13721,13724,13737,13750,13757,13772,13775,13788,13801,13814,13827,13834,13837,13843,13856,13859,13862,13875,13888,13901,13907,13920,13933,13936,13939,13942,13955,13968,13971,13977,13984,13991,13994,14007,14010,14023,14036,14049,14052,14065,14072,14079,14092,14105,14118,14131,14134,14147,14154,14160,14163,14169,14176,14179,14192,14199,14212,14225,14238,14241,14254,14257,14260,14266,14279,14292,14305,14312,14325,14338,14345,14358,14371,14384,14397,14400,14407,14414,14427,14430,14437,14440,14443,14456,14471,14478,14481,14484,14499,14512,14515,14528,14541,14548,14561,14564,14577,14584,14597,14603,14616,14629,14642,14655,14668,14671,14684,14699,14712,14725,14731,14744,14751,14754,14757,14763,14766,14769,14772,14778,14793,14796,14799,14806,14819,14832,14845,14848,14851,14857,14860,14873,14886,14889,14896,14909,14916,14923,14926,14929,14932,14945,14958,14965,14978,14981,14988,15001,15014,15017,15024,15037,15050,15063,15070,15073,15086,15089,15092,15105,15108,15115,15128,15141,15144,15151,15157,15163,15166,15169,15182,15189,15202,15215,15222,15235,15248,15255,15268,15281,15288,15301,15314,15329,15336,15349,15352,15365,15372,15379,15386,15393,15396,15399,15406,15419,15422,15435,15442,15455,15468,15475,15488,15491,15494,15497,15500,15503,15516,15519,15534,15547,15550,15557,15560,15573,15576,15579,15582,15589,15602,15605,15608,15621,15634,15647,15654,15667,15680,15687,15701,15708,15711,15718,15725,15728,15741,15754,15757,15764,15777,15784,15797,15810,15817,15820,15827,15830,15843,15846,15859,15872,15885,15898,15905,15918,15921,15928,15931,15944,15951,15954,15967,15970,15983,15986,15999,16012,16025,16032,16045,16058,16071,16084,16087,16090,16103,16110,16123,16126,16139,16142,16149,16152,16165,16178,16184,16197,16200,16203,16216,16229,16236,16239,16252,16259,16266,16273,16280,16293,16300,16307,16310,16323,16329,16342,16345,16358,16371,16374,16381,16384,16397,16410,16423,16426,16439,16442,16455,16458,16471,16484,16497,16510,16517,16524,16531,16534,16540,16543,16556,16559,16566,16579,16592,16599,16602,16615,16622,16629,16636,16639,16652,16665,16678,16685,16688,16695,16698,16711,16718,16731,16744,16751,16758,16771,16778,16791,16797,16803,16810,16813,16826,16829,16842,16855,16868,16881,16888,16901,16908,16915,16928,16931,16938,16951,16958,16973,16980,16993,17000,17013,17020,17027,17034,17041,17054,17067,17070,17083,17090,17097,17110,17123,17138,17141,17148,17151,17154,17157,17164,17170,17173,17176,17183,17186,17201,17214,17221,17224,17227,17230,17243,17246,17259,17272,17285,17291,17304,17311,17314,17327,17330,17333,17346,17353,17366,17379,17392,17399,17412,17415,17418,17431,17438,17441,17454,17467,17480,17493,17506,17519,17522,17535,17548,17561,17564,17577,17584,17587,17600,17613,17626,17639,17645,17658,17665,17672,17685,17688,17701,17704,17707,17720,17723,17726,17729,17736,17743,17750,17763,17776,17789,17802,17809,17816,17829,17842,17855,17862,17869,17882,17888,17901,17907,17920,17923,17929,17936,17939,17946,17949,17962,17965,17972,17985,17992,18005,18018,18031,18044,18047,18054,18057,18060,18075,18088,18091,18104,18107,18110,18123,18130,18143,18156,18163,18170,18183,18190,18197,18210,18223,18230,18245,18252,18265,18272,18275,18288,18295,18308,18311,18318,18321,18334,18349,18362,18375,18382,18395,18398,18401,18414,18421,18434,18447,18454,18467,18480,18483,18490,18497,18504,18517,18524,18527,18530,18543,18556,18562,18565,18578,18591,18604,18617,18630,18633,18646,18653,18656,18659,18662,18675,18678,18685,18692,18698,18711,18718,18721,18724,18737,18740,18747,18760,18763,18769,18772,18779,18792,18798,18805,18812,18819,18826,18839,18846,18859,18862,18865,18872,18875,18888,18902,18915,18918,18924,18937,18950,18957,18960,18967,18980,18986,18989,19002,19009,19022,19028,19031,19034,19041,19054,19067,19073,19076,19089,19092,19099,19102,19115,19122,19129,19142,19148,19151,19164,19177,19190,19203,19206,19220,19233,19236,19249,19256,19263,19266,19269,19272,19275,19282,19288,19291,19304,19317,19320,19323,19330,19337,19344,19357,19370,19383,19386,19399,19402,19405,19408,19415,19418,19431,19438,19444,19457,19464,19471,19478,19481,19487,19500,19507,19513,19516,19519,19532,19539,19546,19552,19565,19578,19581,19594,19600,19607,19610,19616,19629,19636,19649,19652,19658,19661,19668,19675,19682,19695,19710,19723,19726,19729,19742,19755,19758,19765,19772,19785,19791,19798,19801,19814,19817,19823,19830,19843,19856,19869,19876,19889,19902,19905,19908,19911,19914,19920,19927,19940,19943,19946,19959,19972,19975,19978,19981,19988,20001,20008,20021,20027,20040,20046,20053,20060,20067,20070,20083,20090,20093,20096,20102,20115,20128,20141,20154,20167,20173,20176,20179,20182,20185,20198,20211,20214,20228,20241,20244,20257,20260,20263,20266,20279,20282,20295,20301,20316,20329,20342,20348,20355,20368,20381,20387,20390,20393,20400,20413,20420,20433,20436,20439,20452,20458,20471,20478,20491,20498,20511,20518,20531,20544,20557,20564,20571,20578,20591,20604,20619,20626,20632,20645,20658,20664,20677,20684,20697,20710,20713,20726,20732,20738,20751,20757,20764,20777,20790,20797,20804,20817,20824,20830,20833,20846,20859,20872,20878,20881,20888,20901,20914,20927,20930,20933,20946,20959,20966,20969,20976,20989,21002,21015,21021,21028,21035,21048,21055,21061,21064,21079,21092,21105,21112,21119,21126,21132,21139,21142,21155,21158,21165,21172,21185,21198,21204,21207,21210,21223,21226,21239,21252,21265,21271,21278,21291,21304,21317,21324,21331,21334,21337,21344,21357,21370,21383,21386,21399,21405,21418,21431,21437,21443,21446,21449,21456,21469,21484,21497,21510,21523,21536,21549,21562,21575,21589,21602,21609,21622,21635,21642,21655,21662,21675,21682,21689,21702,21709,21716,21723,21726,21739,21752,21765,21771,21784,21787,21790,21803,21809,21822,21828,21841,21848,21861,21864,21877,21884,21891,21904,21910,21916,21922,21925,21928,21931,21944,21957,21964,21977,21990,21997,22010,22013,22016,22029,22032,22045,22058,22071,22078,22085,22098,22113,22126,22139,22152,22165,22178,22191,22198,22201,22204,22217,22224,22227,22240,22243,22246,22259,22262,22275,22288,22291,22294,22307,22314,22317,22330,22343,22350,22363,22376,22389,22392,22399,22406,22413,22420,22433,22446,22453,22466,22479,22492,22505,22508,22511,22518,22521,22524,22527,22540,22553,22566,22569,22582,22585,22600,22607,22614,22627,22634,22641,22654,22657,22670,22673,22686,22699,22705,22712,22719,22734,22737,22750,22763,22766,22773,22780,22786,22799,22812,22825,22828,22834,22841,22848,22851,22864,22867,22880,22894,22901,22904,22907,22920,22933,22947,22961,22974,22980,22983];
constraints2 = [0,0,0,1,0,2,0,3,1,0,1,2,1,3,2,0,2,1,2,3,3,0,3,1,3,2,0,0,0,1,0,2,0,3,1,0,1,2,1,3,2,0,2,1,2,3,3,0,3,1,3,2,0,0,0,13,1,0,2,0,2,13,3,0,0,0,0,2,1,0,1,2,2,0,3,0,3,2,0,0,0,1,0,2,0,3,13,0,13,2,0,0,0,13,13,0,0,0,0,1,0,2,0,3,2,0,2,1,2,3,0,0,0,1,0,2,0,3,1,0,1,2,1,3,2,0,2,1,2,3,3,0,3,1,3,2,0,0,0,1,0,2,0,3,13,0,13,1,13,3,0,0,0,1,0,2,0,3,2,0,2,1,2,3,0,0,0,2,2,0,0,0,0,1,0,2,0,3,1,0,1,2,1,3,2,0,2,1,2,3,3,0,3,1,3,2,0,0,0,2,2,0,0,0,0,1,0,2,0,3,1,0,1,2,1,3,2,0,2,1,2,3,3,0,3,1,3,2,0,0,0,2,2,0,0,0,0,1,0,2,0,3,13,0,13,2,0,0,0,2,1,0,2,0,2,2,3,0,3,2,0,0,0,1,0,2,0,3,1,0,1,2,1,3,2,0,2,1,2,3,3,0,3,1,3,2,0,0,0,1,0,2,0,3,1,0,1,2,1,3,2,0,2,1,2,3,3,0,3,1,3,2,0,0,0,1,0,2,0,3,2,0,2,1,2,3,0,0,0,1,0,2,0,3,13,0,13,1,13,3,0,0,0,13,13,0,0,0,0,2,2,0,0,0,0,1,0,2,0,3,1,0,1,2,1,3,2,0,2,1,2,3,3,0,3,1,3,2,0,0,0,1,0,2,0,3,1,0,1,2,1,3,2,0,2,1,2,3,3,0,3,1,3,2,0,0,0,2,2,0,0,0,0,1,0,2,0,3,1,0,1,2,1,3,2,0,2,1,2,3,3,0,3,1,3,2,0,0,0,13,13,0,0,0,0,1,0,2,0,3,1,0,1,2,1,3,2,0,2,1,2,3,3,0,3,1,3,2,0,0,0,13,13,0,0,0,0,1,0,2,0,3,13,0,13,2,13,3,0,0,0,1,0,2,0,3,1,0,1,2,1,3,2,0,2,1,2,3,3,0,3,1,3,2,0,0,0,2,2,0,0,0,0,1,0,2,0,3,1,0,1,2,1,3,2,0,2,1,2,3,3,0,3,1,3,2,0,0,0,1,0,2,0,3,13,0,13,1,13,3,0,0,0,2,1,0,1,2,2,0,3,0,3,2,0,0,0,13,13,0,0,0,0,13,13,0,0,0,0,1,0,2,0,3,1,0,1,2,1,3,2,0,2,1,2,3,3,0,3,1,3,2,0,0,0,1,0,2,0,3,13,0,13,2,0,0,0,13,13,0,0,0,0,1,0,2,0,3,1,0,1,2,1,3,2,0,2,1,2,3,3,0,3,1,3,2,0,0,0,1,0,2,0,3,1,0,1,2,1,3,2,0,2,1,2,3,3,0,3,1,3,2,0,0,0,2,2,0,0,0,0,1,0,2,0,3,1,0,1,2,1,3,2,0,2,1,2,3,3,0,3,1,3,2,0,0,0,2,2,0,0,0,0,2,1,0,1,2,2,0,3,0,3,2,0,0,0,1,0,2,0,3,13,0,13,2,0,0,0,2,1,0,1,2,2,0,3,0,3,2,0,0,0,1,0,2,0,3,13,0,13,2,0,0,0,1,0,2,0,3,1,0,1,2,1,3,2,0,2,1,2,3,3,0,3,1,3,2,0,0,0,13,13,0,0,0,0,2,1,0,2,0,2,2,3,0,3,2,0,0,0,1,0,2,0,3,1,0,1,2,1,3,2,0,2,1,2,3,3,0,3,1,3,2,0,0,0,1,0,2,0,3,1,0,1,2,1,3,2,0,2,1,2,3,3,0,3,1,3,2,0,0,0,13,13,0,0,0,0,13,13,0,0,0,0,1,0,2,0,3,1,0,1,2,1,3,2,0,2,1,2,2,2,3,3,0,3,1,3,2,3,3,0,0,0,1,0,2,0,3,1,0,1,2,1,3,2,0,2,1,2,3,3,0,3,1,3,2,0,0,0,13,13,0,0,0,0,1,0,2,0,3,13,0,13,2,0,0,0,1,0,2,0,3,1,0,1,2,1,3,2,0,2,1,2,3,3,0,3,1,3,2,0,0,0,2,2,0,0,0,0,1,0,2,0,3,1,0,1,2,1,3,2,0,2,1,2,3,3,0,3,1,3,2,0,0,0,2,2,0,0,0,0,13,13,0,0,0,0,1,0,2,0,3,2,0,2,1,2,3,0,0,0,1,0,2,0,3,1,0,1,2,1,3,2,0,2,1,2,3,3,0,3,1,3,2,0,0,0,1,0,2,0,3,1,0,1,2,1,3,2,0,2,1,2,3,3,0,3,1,3,2,0,0,0,2,2,0,0,0,0,1,0,2,0,3,13,0,13,1,13,2,0,0,0,1,0,2,0,3,1,0,1,1,1,2,1,3,2,0,2,1,2,2,2,3,3,0,3,2,3,3,0,0,0,1,0,2,0,3,1,0,1,2,1,3,2,0,2,1,2,3,3,0,3,1,3,2,0,0,0,2,1,0,1,2,2,0,2,2,3,0,0,0,0,1,0,2,0,3,1,0,1,2,1,3,2,0,2,1,2,3,3,0,3,1,3,2,0,0,0,1,0,2,0,3,13,0,13,2,0,0,0,1,0,2,0,3,1,0,1,2,1,3,2,0,2,1,2,3,3,0,3,1,3,2,0,0,0,1,0,2,0,3,1,0,1,2,1,3,2,0,2,1,2,3,3,0,3,1,3,2,0,0,0,1,0,2,0,3,1,0,1,2,1,3,2,0,2,1,2,3,3,0,3,1,3,2,0,0,0,1,0,2,0,3,1,0,1,2,1,3,2,0,2,1,2,3,3,0,3,1,3,2,0,0,0,13,13,0,0,0,0,13,13,0,0,0,0,2,2,0,0,0,0,1,0,2,0,3,1,0,1,2,1,3,2,0,2,1,2,3,3,0,3,1,3,2,0,0,0,1,0,2,0,3,1,0,1,2,1,3,2,0,2,1,2,3,3,0,3,1,3,2,0,0,0,13,13,0,0,0,0,2,2,0,0,0,0,2,1,0,1,2,2,0,3,0,3,2,0,0,0,1,0,2,0,3,1,0,1,2,1,3,2,0,2,1,2,3,3,0,3,1,3,2,0,0,0,1,0,2,0,3,13,0,13,1,13,3,0,0,0,1,0,2,0,3,1,0,1,2,1,3,2,0,2,1,2,3,3,0,3,1,3,2,0,0,0,1,0,2,0,3,1,0,1,2,1,3,2,0,2,1,2,3,3,0,3,1,3,2,0,0,0,2,1,0,2,0,2,2,3,0,3,2,0,0,0,2,2,0,0,0,0,1,0,2,0,3,1,0,1,2,1,3,2,0,2,1,2,3,3,0,3,1,3,2,0,0,0,1,0,2,0,3,13,0,13,1,13,3,0,0,0,1,0,2,0,3,2,0,2,1,2,3,0,0,0,1,0,2,0,3,13,0,13,2,0,0,0,1,0,2,0,3,1,0,1,2,1,3,2,0,2,1,2,3,3,0,3,1,3,2,0,0,0,2,2,0,0,0,0,1,0,2,0,3,1,0,1,2,1,3,2,0,2,1,2,3,3,0,3,1,3,2,0,0,0,1,0,2,0,3,1,0,1,2,1,3,2,0,2,1,2,3,3,0,3,1,3,2,0,0,0,1,0,2,0,3,1,0,1,2,1,3,2,0,2,1,2,3,3,0,3,1,3,2,0,0,0,1,0,2,0,3,1,0,1,1,1,2,1,3,2,0,2,2,2,3,3,0,3,1,3,3,0,0,0,1,0,2,0,3,2,0,2,1,2,3,0,0,0,1,0,2,0,3,13,0,13,2,0,0,0,1,0,2,0,3,13,0,13,2,0,0,0,1,0,2,0,3,1,0,1,2,1,3,2,0,2,1,2,3,3,0,3,1,3,2,0,0,0,1,0,2,0,3,13,0,13,1,13,3,0,0,0,1,0,2,0,3,1,0,1,2,1,3,2,0,2,1,2,3,3,0,3,1,3,2,0,0,0,2,2,0,0,0,0,13,13,0,0,0,0,2,1,0,1,2,2,0,3,0,3,2,0,0,0,1,0,2,0,3,1,0,1,2,1,3,2,0,2,1,2,3,3,0,3,1,3,2,0,0,0,2,2,0,0,0,0,2,2,0,0,0,0,1,0,2,0,3,1,0,1,2,1,3,2,0,2,1,2,3,3,0,3,1,3,2,0,0,0,2,2,0,0,0,0,1,0,2,0,3,1,0,1,2,1,3,2,0,2,1,2,3,3,0,3,1,3,2,0,0,0,1,0,2,0,3,1,0,1,2,1,3,2,0,2,1,2,3,3,0,3,1,3,2,0,0,0,1,0,2,0,3,1,0,1,2,1,3,2,0,2,1,2,3,3,0,3,1,3,2,0,0,0,1,0,2,0,3,13,0,13,2,0,0,0,1,0,2,0,3,1,0,1,2,1,3,2,0,2,1,2,3,3,0,3,1,3,2,0,0,0,1,0,2,0,3,1,0,1,2,1,3,2,0,2,1,2,3,3,0,3,1,3,2,0,0,0,2,1,0,1,2,2,0,3,0,3,2,0,0,0,13,13,0,0,0,0,1,0,2,0,3,1,0,1,2,1,3,2,0,2,1,2,3,3,0,3,1,3,2,0,0,0,1,0,2,0,3,1,0,1,2,1,3,2,0,2,1,2,3,3,0,3,1,3,2,0,0,0,13,13,0,0,0,0,2,2,0,0,0,0,2,1,0,1,2,2,0,3,0,3,2,0,0,0,1,0,2,0,3,1,0,1,2,1,3,2,0,2,1,2,3,3,0,3,1,3,2,0,0,0,1,0,2,0,3,1,0,1,1,1,2,1,3,2,0,2,1,2,2,2,3,3,0,3,2,3,3,0,0,0,2,2,0,0,0,0,1,0,2,0,3,1,0,1,2,1,3,2,0,2,1,2,3,3,0,3,1,3,2,0,0,0,1,0,2,0,3,13,0,13,2,0,0,0,1,0,2,0,3,1,0,1,2,1,3,2,0,2,1,2,3,3,0,3,1,3,2,0,0,0,1,0,2,0,3,1,0,1,2,1,3,2,0,2,1,2,3,3,0,3,1,3,2,0,0,0,1,0,2,0,3,1,0,1,2,1,3,2,0,2,1,2,3,3,0,3,1,3,2,0,0,0,1,0,2,0,3,13,0,13,2,13,3,0,0,0,13,1,0,2,0,2,13,3,0,0,0,0,13,13,0,0,0,0,1,0,2,0,3,1,0,1,2,1,3,2,0,2,1,2,3,3,0,3,1,3,2,0,0,0,1,0,2,0,3,1,0,1,2,1,3,2,0,2,1,2,3,3,0,3,1,3,2,0,0,0,2,1,0,1,2,2,0,3,0,3,2,0,0,0,1,0,2,0,3,1,0,1,2,1,3,2,0,2,1,2,3,3,0,3,1,3,2,0,0,0,1,0,2,0,3,1,0,1,1,1,2,1,3,2,0,2,1,2,2,2,3,3,0,3,2,3,3,0,0,0,1,0,2,0,3,1,0,1,2,1,3,2,0,2,1,2,3,3,0,3,1,3,2,0,0,0,1,0,2,0,3,13,0,13,1,13,3,0,0,0,1,0,2,0,3,1,0,1,2,1,3,2,0,2,1,2,3,3,0,3,1,3,2,0,0,0,1,0,2,0,3,13,0,13,2,0,0,0,2,2,0,0,0,0,1,0,2,0,3,1,0,1,2,1,3,2,0,2,1,2,3,3,0,3,1,3,2,0,0,0,1,0,2,0,3,1,0,1,2,1,3,2,0,2,1,2,3,3,0,3,1,3,2,0,0,0,2,2,0,0,0,0,1,0,2,0,3,1,0,1,2,1,3,2,0,2,1,2,3,3,0,3,1,3,2,0,0,0,2,1,0,1,2,2,0,3,0,3,2,0,0,0,13,13,0,0,0,0,1,0,2,0,3,13,0,13,2,0,0,0,2,1,0,1,2,2,0,3,0,3,2,0,0,0,2,1,0,1,2,2,0,2,2,3,0,0,0,0,2,2,0,0,0,0,2,1,0,1,2,2,0,3,0,3,2,0,0,0,1,0,2,0,3,13,0,13,2,0,0,0,1,0,2,0,3,1,0,1,2,1,3,2,0,2,1,2,3,3,0,3,1,3,2,0,0,0,1,0,2,0,3,13,0,13,1,13,3,0,0,0,2,2,0,0,0,0,1,0,2,0,3,1,0,1,2,1,3,2,0,2,1,2,3,3,0,3,1,3,2,0,0,0,2,1,0,1,2,2,0,3,0,3,2,0,0,0,2,2,0,0,0,0,1,0,2,0,3,2,0,2,1,2,3,0,0,0,1,0,2,0,3,1,0,1,2,1,3,2,0,2,1,2,3,3,0,3,1,3,2,0,0,0,1,0,2,0,3,1,0,1,2,1,3,2,0,2,1,2,3,3,0,3,1,3,2,0,0,0,1,0,2,0,3,1,0,1,2,1,3,2,0,2,1,2,3,3,0,3,1,3,2,0,0,0,1,0,2,0,3,1,0,1,2,1,3,2,0,2,1,2,3,3,0,3,1,3,2,0,0,0,1,0,2,0,3,1,0,1,2,1,3,2,0,2,1,2,3,3,0,3,1,3,2,0,0,0,1,0,2,0,3,2,0,2,1,2,3,0,0,0,2,1,0,1,2,2,0,3,0,3,2,0,0,0,13,13,0,0,0,0,1,0,2,0,3,1,0,1,2,1,3,2,0,2,1,2,3,3,0,3,1,3,2,0,0,0,1,0,2,0,3,13,0,13,2,0,0,0,2,2,0,0,0,0,1,0,2,0,3,1,0,1,2,1,3,2,0,2,1,2,3,3,0,3,1,3,2,0,0,0,2,1,0,1,2,2,0,2,2,3,0,0,0,0,2,2,0,0,0,0,13,13,0,0,0,0,13,13,0,0,0,0,13,13,0,0,0,0,1,0,2,0,3,1,0,1,2,1,3,2,0,2,1,2,3,3,0,3,1,3,2,0,0,0,1,0,2,0,3,1,0,1,2,1,3,2,0,2,1,2,3,3,0,3,1,3,2,0,0,0,1,0,2,0,3,13,0,13,2,0,0,0,1,0,2,0,3,13,0,13,1,13,3,0,0,0,1,0,2,0,3,1,0,1,2,1,3,2,0,2,1,2,3,3,0,3,1,3,2,0,0,0,1,0,2,0,3,13,0,13,1,13,2,0,0,0,1,0,2,0,3,13,0,13,2,13,3,0,0,0,1,0,2,0,3,1,0,1,2,1,3,2,0,2,1,2,3,3,0,3,1,3,2,0,0,0,1,0,2,0,3,1,0,1,2,1,3,2,0,2,1,2,3,3,0,3,1,3,2,0,0,0,1,0,2,0,3,1,0,1,2,1,3,2,0,2,1,2,3,3,0,3,1,3,2,0,0,0,2,2,0,0,0,0,1,0,2,0,3,1,0,1,2,1,3,2,0,2,1,2,3,3,0,3,1,3,2,0,0,0,2,1,0,1,2,2,0,3,0,3,2,0,0,0,13,13,0,0,0,0,1,0,2,0,3,1,0,1,2,1,3,2,0,2,1,2,3,3,0,3,1,3,2,0,0,0,13,13,0,0,0,0,1,0,2,0,3,1,0,1,2,1,3,2,0,2,1,2,3,3,0,3,1,3,2,0,0,0,13,13,0,0,0,0,1,0,2,0,3,1,0,1,2,1,3,2,0,2,1,2,3,3,0,3,1,3,2,0,0,0,1,0,2,0,3,1,0,1,2,1,3,2,0,2,1,2,3,3,0,3,1,3,2,0,0,0,1,0,2,0,3,13,0,13,1,13,3,0,0,0,1,0,2,0,3,1,0,1,2,1,3,2,0,2,1,2,3,3,0,3,1,3,2,0,0,0,1,0,2,0,3,1,0,1,2,1,3,2,0,2,1,2,3,3,0,3,1,3,2,0,0,0,1,0,2,0,3,13,0,13,2,0,0,0,2,1,0,2,0,2,2,3,0,3,2,0,0,0,1,0,2,0,3,1,0,1,2,1,3,2,0,2,1,2,3,3,0,3,1,3,2,0,0,0,1,0,2,0,3,2,0,2,1,2,3,0,0,0,1,0,2,0,3,1,0,1,2,1,3,2,0,2,1,2,3,3,0,3,1,3,2,0,0,0,2,2,0,0,0,0,13,13,0,0,0,0,1,0,2,0,3,1,0,1,2,1,3,2,0,2,1,2,3,3,0,3,1,3,2,0,0,0,1,0,2,0,3,1,0,1,2,1,3,2,0,2,1,2,3,3,0,3,1,3,2,0,0,0,1,0,2,0,3,13,0,13,2,0,0,0,1,0,2,0,3,1,0,1,2,1,3,2,0,2,1,2,3,3,0,3,1,3,2,0,0,0,2,2,0,0,0,0,1,0,2,0,3,1,0,1,2,1,3,2,0,2,1,2,3,3,0,3,1,3,2,0,0,0,13,1,0,2,0,2,13,3,0,0,0,0,1,0,2,0,3,1,0,1,2,1,3,2,0,2,1,2,3,3,0,3,1,3,2,0,0,0,2,2,0,0,0,0,1,0,2,0,3,13,0,13,2,0,0,0,1,0,2,0,3,1,0,1,2,1,3,2,0,2,1,2,3,3,0,3,1,3,2,0,0,0,2,2,0,0,0,0,2,1,0,1,2,2,0,3,0,3,2,0,0,0,1,0,2,0,3,1,0,1,1,1,3,2,0,2,1,2,2,3,0,3,1,3,2,3,3,0,0,0,1,0,2,0,3,1,0,1,2,1,3,2,0,2,1,2,3,3,0,3,1,3,2,0,0,0,1,0,2,0,3,13,0,13,1,13,3,0,0,0,1,0,2,0,3,1,0,1,2,1,3,2,0,2,1,2,3,3,0,3,1,3,2,0,0,0,1,0,2,0,3,1,0,1,2,1,3,2,0,2,1,2,3,3,0,3,1,3,2,0,0,0,13,13,0,0,0,0,2,1,0,1,2,2,0,3,0,3,2,0,0,0,1,0,2,0,3,1,0,1,2,1,3,2,0,2,1,2,3,3,0,3,1,3,2,0,0,0,1,0,2,0,3,1,0,1,1,1,3,2,0,2,1,2,2,3,0,3,1,3,2,3,3,0,0,0,1,0,2,0,3,13,0,13,1,13,3,0,0,0,13,13,0,0,0,0,13,13,0,0,0,0,1,0,2,0,3,1,0,1,2,1,3,2,0,2,1,2,3,3,0,3,1,3,2,0,0,0,13,13,0,0,0,0,13,13,0,0,0,0,2,1,0,2,0,2,2,3,0,3,2,0,0,0,1,0,2,0,3,1,0,1,2,1,3,2,0,2,1,2,3,3,0,3,1,3,2,0,0,0,1,0,2,0,3,1,0,1,2,1,3,2,0,2,1,2,3,3,0,3,1,3,2,0,0,0,1,0,2,0,3,13,0,13,1,13,3,0,0,0,1,0,2,0,3,1,0,1,2,1,3,2,0,2,1,2,3,3,0,3,1,3,2,0,0,0,1,0,2,0,3,1,0,1,2,1,3,2,0,2,1,2,3,3,0,3,1,3,2,0,0,0,1,0,2,0,3,1,0,1,2,1,3,2,0,2,1,2,3,3,0,3,1,3,2,0,0,0,1,0,2,0,3,13,0,13,1,13,3,0,0,0,1,0,2,0,3,1,0,1,2,1,3,2,0,2,1,2,3,3,0,3,1,3,2,0,0,0,13,13,0,0,0,0,2,1,0,1,2,2,0,2,2,3,0,0,0,0,1,0,2,0,3,1,0,1,2,1,3,2,0,2,1,2,3,3,0,3,1,3,2,0,0,0,2,1,0,1,2,2,0,3,0,3,2,0,0,0,1,0,2,0,3,1,0,1,2,1,3,2,0,2,1,2,3,3,0,3,1,3,2,0,0,0,1,0,2,0,3,1,0,1,2,1,3,2,0,2,1,2,3,3,0,3,1,3,2,0,0,0,1,0,2,0,3,2,0,2,1,2,3,0,0,0,1,0,2,0,3,1,0,1,2,1,3,2,0,2,1,2,3,3,0,3,1,3,2,0,0,0,1,0,2,0,3,1,0,1,2,1,3,2,0,2,1,2,2,2,3,3,0,3,1,3,2,3,3,0,0,0,2,13,0,0,0,0,2,1,0,1,2,2,0,3,0,3,2,0,0,0,1,0,2,0,3,1,0,1,2,1,3,2,0,2,1,2,3,3,0,3,1,3,2,0,0,0,1,0,2,0,3,1,0,1,2,1,3,2,0,2,1,2,3,3,0,3,1,3,2,0,0,0,2,2,0,0,0,0,1,0,2,0,3,1,0,1,2,1,3,2,0,2,1,2,3,3,0,3,1,3,2,0,0,0,1,0,2,0,3,13,0,13,2,0,0,0,2,2,0,0,0,0,13,13,0,0,0,0,1,0,2,0,3,1,0,1,2,1,3,2,0,2,1,2,3,3,0,3,1,3,2,0,0,0,1,0,2,0,3,1,0,1,2,1,3,2,0,2,1,2,3,3,0,3,1,3,2,0,0,0,1,0,2,0,3,1,0,1,2,1,3,2,0,2,1,2,3,3,0,3,1,3,2,0,0,0,2,1,0,1,2,2,0,3,0,3,2,0,0,0,1,0,2,0,3,13,0,13,1,13,3,0,0,0,1,0,2,0,3,1,0,1,2,1,3,2,0,2,1,2,3,3,0,3,1,3,2,0,0,0,1,0,2,0,3,1,0,1,1,1,2,2,0,2,1,2,2,2,3,3,0,3,1,3,2,3,3,0,0,0,2,2,0,0,0,0,1,0,2,0,3,1,0,1,2,1,3,2,0,2,1,2,3,3,0,3,1,3,2,0,0,0,1,0,2,0,3,1,0,1,2,1,3,2,0,2,1,2,3,3,0,3,1,3,2,0,0,0,1,0,2,0,3,13,0,13,2,0,0,0,1,0,2,0,3,1,0,1,2,1,3,2,0,2,1,2,3,3,0,3,1,3,2,0,0,0,1,0,2,0,3,1,0,1,2,1,3,2,0,2,1,2,3,3,0,3,1,3,2,0,0,0,13,13,0,0,0,0,2,1,0,1,2,2,0,3,0,3,2,0,0,0,1,0,2,0,3,1,0,1,2,1,3,2,0,2,1,2,3,3,0,3,1,3,2,0,0,0,2,2,0,0,0,0,2,13,0,0,0,0,1,0,2,0,3,1,0,1,2,1,3,2,0,2,1,2,3,3,0,3,1,3,2,0,0,0,1,0,2,0,3,1,0,1,2,1,3,2,0,2,1,2,3,3,0,3,1,3,2,0,0,0,1,0,2,0,3,2,0,2,1,2,3,0,0,0,1,0,2,0,3,13,0,13,1,13,3,0,0,0,1,0,2,0,3,1,0,1,2,1,3,2,0,2,1,2,3,3,0,3,1,3,2,0,0,0,1,0,2,0,3,1,0,1,2,1,3,2,0,2,1,2,3,3,0,3,1,3,2,0,0,0,1,0,2,0,3,1,0,1,2,1,3,2,0,2,1,2,3,3,0,3,1,3,2,0,0,0,1,0,2,0,3,1,0,1,2,1,3,2,0,2,1,2,3,3,0,3,1,3,2,0,0,0,1,0,2,0,3,13,0,13,2,0,0,0,1,0,2,0,3,1,0,1,2,1,3,2,0,2,1,2,3,3,0,3,1,3,2,0,0,0,2,2,0,0,0,0,1,0,2,0,3,1,0,1,2,1,3,2,0,2,1,2,3,3,0,3,1,3,2,0,0,0,1,0,2,0,3,1,0,1,2,1,3,2,0,2,1,2,3,3,0,3,1,3,2,0,0,0,1,0,2,0,3,1,0,1,2,1,3,2,0,2,1,2,3,3,0,3,1,3,2,0,0,0,1,0,2,0,3,1,0,1,2,1,3,2,0,2,1,2,3,3,0,3,1,3,2,0,0,0,1,0,2,0,3,1,0,1,2,1,3,2,0,2,1,2,3,3,0,3,1,3,2,0,0,0,1,0,2,0,3,13,0,13,2,0,0,0,2,2,0,0,0,0,13,13,0,0,0,0,13,13,0,0,0,0,1,0,2,0,3,1,0,1,2,1,3,2,0,2,1,2,3,3,0,3,1,3,2,0,0,0,13,13,0,0,0,0,13,13,0,0,0,0,1,0,2,0,3,1,0,1,2,1,3,2,0,2,1,2,3,3,0,3,1,3,2,0,0,0,1,0,2,0,3,1,0,1,2,1,3,2,0,2,1,2,3,3,0,3,1,3,2,0,0,0,2,2,0,0,0,0,1,0,2,0,3,1,0,1,2,1,3,2,0,2,1,2,3,3,0,3,1,3,2,0,0,0,1,0,2,0,3,1,0,1,2,1,3,2,0,2,1,2,3,3,0,3,1,3,2,0,0,0,1,0,2,0,3,1,0,1,2,1,3,2,0,2,1,2,3,3,0,3,1,3,2,0,0,0,1,0,2,0,3,1,0,1,2,1,3,2,0,2,1,2,3,3,0,3,1,3,2,0,0,0,2,1,0,1,2,2,0,3,0,3,2,0,0,0,1,0,2,0,3,13,0,13,2,0,0,0,13,13,0,0,0,0,1,0,2,0,3,1,0,1,2,1,3,2,0,2,1,2,3,3,0,3,1,3,2,0,0,0,1,0,2,0,3,1,0,1,2,1,3,2,0,2,1,2,3,3,0,3,1,3,2,0,0,0,1,0,2,0,3,1,0,1,2,1,3,2,0,2,1,2,3,3,0,3,1,3,2,0,0,0,1,0,2,0,3,1,0,1,2,1,3,2,0,2,1,2,3,3,0,3,1,3,2,0,0,0,2,2,0,0,0,0,13,13,0,0,0,0,1,0,2,0,3,1,0,1,2,1,3,2,0,2,1,2,3,3,0,3,1,3,2,0,0,0,2,1,0,1,2,2,0,3,0,3,2,0,0,0,13,13,0,0,0,0,1,0,2,0,3,1,0,1,2,1,3,2,0,2,1,2,3,3,0,3,1,3,2,0,0,0,2,1,0,1,2,2,0,3,0,3,2,0,0,0,1,0,2,0,3,1,0,1,2,1,3,2,0,2,1,2,3,3,0,3,1,3,2,0,0,0,1,0,2,0,3,1,0,1,2,1,3,2,0,2,1,2,2,2,3,3,0,3,1,3,2,3,3,0,0,0,2,1,0,1,2,2,0,3,0,3,2,0,0,0,1,0,2,0,3,1,0,1,2,1,3,2,0,2,1,2,3,3,0,3,1,3,2,0,0,0,1,0,2,0,3,1,0,1,2,1,3,2,0,2,1,2,3,3,0,3,1,3,2,0,0,0,2,1,0,1,2,2,0,3,0,3,2,0,0,0,1,0,2,0,3,1,0,1,2,1,3,2,0,2,1,2,3,3,0,3,1,3,2,0,0,0,1,0,2,0,3,1,0,1,2,1,3,2,0,2,1,2,3,3,0,3,1,3,2,0,0,0,2,2,0,0,0,0,1,0,2,0,3,1,0,1,2,1,3,2,0,2,1,2,3,3,0,3,1,3,2,0,0,0,1,0,2,0,3,13,0,13,1,13,3,0,0,0,13,13,0,0,0,0,1,0,2,0,3,1,0,1,2,1,3,2,0,2,1,2,3,3,0,3,1,3,2,0,0,0,1,0,2,0,3,1,0,1,2,1,3,2,0,2,1,2,3,3,0,3,1,3,2,0,0,0,1,0,2,0,3,1,0,1,2,1,3,2,0,2,1,2,3,3,0,3,1,3,2,0,0,0,2,2,0,0,0,0,1,0,2,0,3,13,0,13,2,0,0,0,1,0,2,0,3,1,0,1,2,1,3,2,0,2,1,2,3,3,0,3,1,3,2,0,0,0,1,0,2,0,3,1,0,1,2,1,3,2,0,2,1,2,3,3,0,3,1,3,2,0,0,0,2,1,0,1,2,2,0,3,0,3,2,0,0,0,1,0,2,0,3,13,0,13,1,13,2,0,0,0,2,1,0,1,2,2,0,3,0,3,2,0,0,0,2,2,0,0,0,0,2,13,0,0,0,0,1,0,2,0,3,1,0,1,2,1,3,2,0,2,1,2,3,3,0,3,1,3,2,0,0,0,13,13,0,0,0,0,1,0,2,0,3,13,0,13,2,13,3,0,0,0,1,0,2,0,3,13,0,13,2,0,0,0,13,13,0,0,0,0,2,2,0,0,0,0,1,0,2,0,3,1,0,1,2,1,3,2,0,2,1,2,3,3,0,3,1,3,2,0,0,0,1,0,2,0,3,1,0,1,2,1,3,2,0,2,1,2,3,3,0,3,1,3,2,0,0,0,2,2,0,0,0,0,1,0,2,0,3,1,0,1,2,1,3,2,0,2,1,2,3,3,0,3,1,3,2,0,0,0,1,0,2,0,3,1,0,1,2,1,3,2,0,2,1,2,3,3,0,3,1,3,2,0,0,0,1,0,2,0,3,1,0,1,2,1,3,2,0,2,1,2,3,3,0,3,1,3,2,0,0,0,1,0,2,0,3,1,0,1,2,1,3,2,0,2,1,2,3,3,0,3,1,3,2,0,0,0,1,0,2,0,3,1,0,1,2,1,3,2,0,2,1,2,3,3,0,3,1,3,2,0,0,0,1,0,2,0,3,1,0,1,2,1,3,2,0,2,1,2,3,3,0,3,1,3,2,0,0,0,1,0,2,0,3,1,0,1,2,1,3,2,0,2,1,2,3,3,0,3,1,3,2,0,0,0,1,0,2,0,3,13,0,13,2,0,0,0,1,0,2,0,3,2,0,2,1,2,3,0,0,0,1,0,2,0,3,1,0,1,2,1,3,2,0,2,1,2,3,3,0,3,1,3,2,0,0,0,1,0,2,0,3,1,0,1,2,1,3,2,0,2,1,2,3,3,0,3,1,3,2,0,0,0,1,0,2,0,3,1,0,1,2,1,3,2,0,2,1,2,3,3,0,3,1,3,2,0,0,0,13,13,0,0,0,0,1,0,2,0,3,1,0,1,2,1,3,2,0,2,1,2,3,3,0,3,1,3,2,0,0,0,1,0,2,0,3,1,0,1,1,1,2,1,3,2,0,2,2,2,3,3,0,3,1,3,2,3,3,0,0,0,13,13,0,0,0,0,13,13,0,0,0,0,2,2,0,0,0,0,1,0,2,0,3,1,0,1,2,1,3,2,0,2,1,2,3,3,0,3,1,3,2,0,0,0,1,0,2,0,3,1,0,1,2,1,3,2,0,2,1,2,3,3,0,3,1,3,2,0,0,0,1,0,2,0,3,1,0,1,2,1,3,2,0,2,1,2,3,3,0,3,1,3,2,0,0,0,1,0,2,0,3,1,0,1,2,1,3,2,0,2,1,2,3,3,0,3,1,3,2,0,0,0,2,2,0,0,0,0,1,0,2,0,3,13,0,13,1,13,3,0,0,0,1,0,2,0,3,1,0,1,2,1,3,2,0,2,1,2,3,3,0,3,1,3,2,0,0,0,13,13,0,0,0,0,2,1,0,1,2,2,0,3,0,3,2,0,0,0,1,0,2,0,3,1,0,1,2,1,3,2,0,2,1,2,3,3,0,3,1,3,2,0,0,0,1,0,2,0,3,1,0,1,2,1,3,2,0,2,1,2,3,3,0,3,1,3,2,0,0,0,1,0,2,0,3,1,0,1,2,1,3,2,0,2,1,2,3,3,0,3,1,3,2,0,0,0,1,0,2,0,3,2,0,2,1,2,3,0,0,0,1,0,2,0,3,1,0,1,2,1,3,2,0,2,1,2,3,3,0,3,1,3,2,0,0,0,2,2,0,0,0,0,1,0,2,0,3,1,0,1,1,1,2,1,3,2,0,2,1,2,2,2,3,3,0,3,2,3,3,0,0,0,2,2,0,0,0,0,13,13,0,0,0,0,1,0,2,0,3,1,0,1,2,1,3,2,0,2,1,2,3,3,0,3,1,3,2,0,0,0,1,0,2,0,3,13,0,13,2,13,3,0,0,0,1,0,2,0,3,1,0,1,2,1,3,2,0,2,1,2,3,3,0,3,1,3,2,0,0,0,2,2,0,0,0,0,1,0,2,0,3,1,0,1,2,1,3,2,0,2,1,2,3,3,0,3,1,3,2,0,0,0,1,0,2,0,3,13,0,13,2,0,0,0,1,0,2,0,3,13,0,13,2,0,0,0,1,0,2,0,3,13,0,13,1,13,3,0,0,0,13,13,0,0,0,0,2,1,0,1,2,2,0,3,0,3,2,0,0,0,1,0,2,0,3,1,0,1,2,1,3,2,0,2,1,2,3,3,0,3,1,3,2,0,0,0,1,0,2,0,3,1,0,1,2,1,3,2,0,2,1,2,3,3,0,3,1,3,2,0,0,0,1,0,2,0,3,2,0,2,1,2,3,0,0,0,1,0,2,0,3,1,0,1,2,1,3,2,0,2,1,2,3,3,0,3,1,3,2,0,0,0,1,0,2,0,3,1,0,1,2,1,3,2,0,2,1,2,3,3,0,3,1,3,2,0,0,0,1,0,2,0,3,13,0,13,2,0,0,0,1,0,2,0,3,1,0,1,2,1,3,2,0,2,1,2,3,3,0,3,1,3,2,0,0,0,2,1,0,1,2,2,0,3,0,3,2,0,0,0,1,0,2,0,3,13,0,13,1,13,3,0,0,0,1,0,2,0,3,13,0,13,2,13,3,0,0,0,1,0,2,0,3,13,0,13,1,13,3,0,0,0,13,13,0,0,0,0,2,1,0,1,2,2,0,3,0,3,2,0,0,0,1,0,2,0,3,1,0,1,2,1,3,2,0,2,1,2,3,3,0,3,1,3,2,0,0,0,1,0,2,0,3,1,0,1,2,1,3,2,0,2,1,2,3,3,0,3,1,3,2,0,0,0,1,0,2,0,3,1,0,1,2,1,3,2,0,2,1,2,3,3,0,3,1,3,2,0,0,0,1,0,2,0,3,13,0,13,2,13,3,0,0,0,1,0,2,0,3,13,0,13,1,13,3,0,0,0,1,0,2,0,3,1,0,1,2,1,3,2,0,2,1,2,3,3,0,3,1,3,2,0,0,0,2,1,0,1,2,2,0,3,0,3,2,0,0,0,1,0,2,0,3,1,0,1,2,1,3,2,0,2,1,2,3,3,0,3,1,3,2,0,0,0,1,0,2,0,3,1,0,1,1,1,2,1,3,2,0,2,1,2,2,2,3,3,0,3,2,3,3,0,0,0,1,0,2,0,3,1,0,1,2,1,3,2,0,2,1,2,3,3,0,3,1,3,2,0,0,0,1,0,2,0,3,13,0,13,2,0,0,0,2,1,0,1,2,2,0,3,0,3,2,0,0,0,2,1,0,1,2,2,0,3,0,3,2,0,0,0,1,0,2,0,3,1,0,1,2,1,3,2,0,2,1,2,3,3,0,3,1,3,2,0,0,0,1,0,2,0,3,1,0,1,2,1,3,2,0,2,1,2,3,3,0,3,1,3,2,0,0,0,1,0,2,0,3,1,0,1,2,1,3,2,0,2,1,2,3,3,0,3,1,3,2,0,0,0,13,13,0,0,0,0,1,0,2,0,3,1,0,1,2,1,3,2,0,2,1,2,3,3,0,3,1,3,2,0,0,0,1,0,2,0,3,1,0,1,2,1,3,2,0,2,1,2,3,3,0,3,1,3,2,0,0,0,2,2,0,0,0,0,13,13,0,0,0,0,1,0,2,0,3,1,0,1,2,1,3,2,0,2,1,2,3,3,0,3,1,3,2,0,0,0,1,0,2,0,3,1,0,1,2,1,3,2,0,2,1,2,3,3,0,3,1,3,2,0,0,0,2,2,0,0,0,0,1,0,2,0,3,1,0,1,2,1,3,2,0,2,1,2,3,3,0,3,1,3,2,0,0,0,1,0,2,0,3,1,0,1,2,1,3,2,0,2,1,2,3,3,0,3,1,3,2,0,0,0,2,2,0,0,0,0,2,2,0,0,0,0,1,0,2,0,3,1,0,1,2,1,3,2,0,2,1,2,3,3,0,3,1,3,2,0,0,0,1,0,2,0,3,1,0,1,2,1,3,2,0,2,1,2,3,3,0,3,1,3,2,0,0,0,1,0,2,0,3,13,0,13,1,13,2,0,0,0,13,13,0,0,0,0,2,1,0,1,2,2,0,3,0,3,2,0,0,0,1,0,2,0,3,1,0,1,2,1,3,2,0,2,1,2,3,3,0,3,1,3,2,0,0,0,2,1,0,1,2,2,0,3,0,3,2,0,0,0,1,0,2,0,3,13,0,13,2,0,0,0,1,0,2,0,3,1,0,1,2,1,3,2,0,2,1,2,3,3,0,3,1,3,2,0,0,0,1,0,2,0,3,1,0,1,1,1,2,1,3,2,0,2,2,2,3,3,0,3,1,3,3,0,0,0,1,0,2,0,3,1,0,1,2,1,3,2,0,2,1,2,3,3,0,3,1,3,2,0,0,0,1,0,2,0,3,13,0,13,1,13,3,0,0,0,1,0,2,0,3,13,0,13,2,13,3,0,0,0,1,0,2,0,3,1,0,1,2,1,3,2,0,2,1,2,3,3,0,3,1,3,2,0,0,0,13,13,0,0,0,0,1,0,2,0,3,1,0,1,2,1,3,2,0,2,1,2,3,3,0,3,1,3,2,0,0,0,1,0,2,0,3,13,0,13,2,0,0,0,1,0,2,0,3,13,0,13,2,13,3,0,0,0,2,1,0,1,2,2,0,3,0,3,2,0,0,0,1,0,2,0,3,1,0,1,1,1,2,1,3,2,0,2,2,2,3,3,0,3,1,3,3,0,0,0,2,1,0,1,2,2,0,3,0,3,2,0,0,0,2,2,0,0,0,0,1,0,2,0,3,1,0,1,2,1,3,2,0,2,1,2,3,3,0,3,1,3,2,0,0,0,1,0,2,0,3,13,0,13,1,13,3,0,0,0,1,0,2,0,3,1,0,1,2,1,3,2,0,2,1,2,3,3,0,3,1,3,2,0,0,0,1,0,2,0,3,1,0,1,2,1,3,2,0,2,1,2,3,3,0,3,1,3,2,0,0,0,13,13,0,0,0,0,1,0,2,0,3,1,0,1,2,1,3,2,0,2,1,2,3,3,0,3,1,3,2,0,0,0,1,0,2,0,3,13,0,13,2,13,3,0,0,0,1,0,2,0,3,1,0,1,1,1,2,1,3,2,0,2,2,2,3,3,0,3,1,3,2,3,3,0,0,0,1,0,2,0,3,1,0,1,2,1,3,2,0,2,1,2,3,3,0,3,1,3,2,0,0,0,1,0,2,0,3,1,0,1,2,1,3,2,0,2,1,2,3,3,0,3,1,3,2,0,0,0,1,0,2,0,3,13,0,13,1,13,3,0,0,0,13,13,0,0,0,0,1,0,2,0,3,13,0,13,2,0,0,0,2,1,0,1,2,2,0,2,2,3,0,0,0,0,1,0,2,0,3,1,0,1,2,1,3,2,0,2,1,2,3,3,0,3,1,3,2,0,0,0,2,2,0,0,0,0,1,0,2,0,3,1,0,1,2,1,3,2,0,2,1,2,3,3,0,3,1,3,2,0,0,0,1,0,2,0,3,1,0,1,2,1,3,2,0,2,1,2,3,3,0,3,1,3,2,0,0,0,1,0,2,0,3,2,0,2,1,2,3,0,0,0,1,0,2,0,3,1,0,1,2,1,3,2,0,2,1,2,3,3,0,3,1,3,2,0,0,0,1,0,2,0,3,1,0,1,2,1,3,2,0,2,1,2,3,3,0,3,1,3,2,0,0,0,13,13,0,0,0,0,2,1,0,1,2,2,0,3,0,3,2,0,0,0,1,0,2,0,3,1,0,1,2,1,3,2,0,2,1,2,3,3,0,3,1,3,2,0,0,0,1,0,2,0,3,13,0,13,1,13,3,0,0,0,1,0,2,0,3,1,0,1,2,1,3,2,0,2,1,2,2,2,3,3,0,3,1,3,2,3,3,0,0,0,1,0,2,0,3,13,0,13,1,13,3,0,0,0,1,0,2,0,3,1,0,1,2,1,3,2,0,2,1,2,3,3,0,3,1,3,2,0,0,0,2,1,0,2,0,2,2,3,0,3,2,0,0,0,2,2,0,0,0,0,1,0,2,0,3,1,0,1,2,1,3,2,0,2,1,2,3,3,0,3,1,3,2,0,0,0,1,0,2,0,3,1,0,1,2,1,3,2,0,2,1,2,3,3,0,3,1,3,2,0,0,0,13,13,0,0,0,0,1,0,2,0,3,1,0,1,2,1,3,2,0,2,1,2,3,3,0,3,1,3,2,0,0,0,1,0,2,0,3,13,0,13,2,0,0,0,1,0,2,0,3,1,0,1,2,1,3,2,0,2,1,2,3,3,0,3,1,3,2,0,0,0,2,2,0,0,0,0,1,0,2,0,3,1,0,1,2,1,3,2,0,2,1,2,3,3,0,3,1,3,2,0,0,0,2,2,0,0,0,0,13,13,0,0,0,0,13,13,0,0,0,0,2,2,0,0,0,0,13,13,0,0,0,0,1,0,2,0,3,13,0,13,1,13,3,0,0,0,2,2,0,0,0,0,1,0,2,0,3,13,0,13,2,0,0,0,1,0,2,0,3,1,0,1,1,1,2,1,3,2,0,2,1,2,3,3,0,3,1,3,2,3,3,0,0,0,2,2,0,0,0,0,2,2,0,0,0,0,13,13,0,0,0,0,2,1,0,1,2,2,0,3,0,3,2,0,0,0,2,2,0,0,0,0,1,0,2,0,3,13,0,13,2,0,0,0,1,0,2,0,3,1,0,1,2,1,3,2,0,2,1,2,3,3,0,3,1,3,2,0,0,0,13,13,0,0,0,0,1,0,2,0,3,1,0,1,2,1,3,2,0,2,1,2,3,3,0,3,1,3,2,0,0,0,2,1,0,1,2,2,0,3,0,3,2,0,0,0,1,0,2,0,3,1,0,1,2,1,3,2,0,2,1,2,3,3,0,3,1,3,2,0,0,0,1,0,2,0,3,2,0,2,1,2,3,0,0,0,1,0,2,0,3,1,0,1,2,1,3,2,0,2,1,2,3,3,0,3,1,3,2,0,0,0,1,0,2,0,3,1,0,1,2,1,3,2,0,2,1,2,3,3,0,3,1,3,2,0,0,0,1,0,2,0,3,13,0,13,2,0,0,0,1,0,2,0,3,1,0,1,2,1,3,2,0,2,1,2,3,3,0,3,1,3,2,0,0,0,1,0,2,0,3,1,0,1,2,1,3,2,0,2,1,2,3,3,0,3,1,3,2,0,0,0,1,0,2,0,3,13,0,13,2,0,0,0,13,13,0,0,0,0,2,1,0,1,2,2,0,3,0,3,2,0,0,0,1,0,2,0,3,1,0,1,2,1,3,2,0,2,1,2,3,3,0,3,1,3,2,0,0,0,1,0,2,0,3,1,0,1,2,1,3,2,0,2,1,2,3,3,0,3,1,3,2,0,0,0,13,13,0,0,0,0,2,2,0,0,0,0,1,0,2,0,3,1,0,1,2,1,3,2,0,2,1,2,3,3,0,3,1,3,2,0,0,0,2,2,0,0,0,0,1,0,2,0,3,1,0,1,2,1,3,2,0,2,1,2,3,3,0,3,1,3,2,0,0,0,2,2,0,0,0,0,1,0,2,0,3,13,0,13,2,13,3,0,0,0,13,13,0,0,0,0,13,13,0,0,0,0,2,1,0,1,2,2,0,3,0,3,2,0,0,0,1,0,2,0,3,1,0,1,2,1,3,2,0,2,1,2,3,3,0,3,1,3,2,0,0,0,1,0,2,0,3,1,0,1,2,1,3,2,0,2,1,2,3,3,0,3,1,3,2,0,0,0,13,13,0,0,0,0,1,0,2,0,3,1,0,1,2,1,3,2,0,2,1,2,3,3,0,3,1,3,2,0,0,0,1,0,2,0,3,1,0,1,2,1,3,2,0,2,1,2,3,3,0,3,1,3,2,0,0,0,1,0,2,0,3,1,0,1,2,1,3,2,0,2,1,2,3,3,0,3,1,3,2,0,0,0,2,1,0,1,2,2,0,3,0,3,2,0,0,0,2,2,0,0,0,0,13,13,0,0,0,0,1,0,2,0,3,13,0,13,2,0,0,0,13,13,0,0,0,0,2,2,0,0,0,0,13,13,0,0,0,0,2,1,0,1,2,2,0,3,0,3,2,0,0,0,1,0,2,0,3,1,0,1,2,1,3,2,0,2,1,2,3,3,0,3,1,3,2,0,0,0,1,0,2,0,3,2,0,2,1,2,3,0,0,0,2,2,0,0,0,0,1,0,2,0,3,1,0,1,2,1,3,2,0,2,1,2,3,3,0,3,1,3,2,0,0,0,1,0,2,0,3,1,0,1,1,1,2,1,3,2,0,2,1,2,2,2,3,3,0,3,2,3,3,0,0,0,2,2,0,0,0,0,1,0,2,0,3,13,0,13,1,13,3,0,0,0,2,2,0,0,0,0,1,0,2,0,3,1,0,1,2,1,3,2,0,2,1,2,3,3,0,3,1,3,2,0,0,0,1,0,2,0,3,1,0,1,2,1,3,2,0,2,1,2,3,3,0,3,1,3,2,0,0,0,1,0,2,0,3,1,0,1,2,1,3,2,0,2,1,2,3,3,0,3,1,3,2,0,0,0,1,0,2,0,3,13,0,13,2,13,3,0,0,0,1,0,2,0,3,1,0,1,2,1,3,2,0,2,1,2,3,3,0,3,1,3,2,0,0,0,2,1,0,1,2,2,0,3,0,3,2,0,0,0,1,0,2,0,3,1,0,1,2,1,3,2,0,2,1,2,3,3,0,3,1,3,2,0,0,0,1,0,2,0,3,13,0,13,1,13,3,0,0,0,1,0,2,0,3,1,0,1,2,1,3,2,0,2,1,2,3,3,0,3,1,3,2,0,0,0,2,1,0,1,2,2,0,3,0,3,2,0,0,0,2,1,0,1,2,2,0,3,0,3,2,0,0,0,1,0,2,0,3,13,0,13,1,13,3,0,0,0,1,0,2,0,3,1,0,1,2,1,3,2,0,2,1,2,3,3,0,3,1,3,2,0,0,0,2,1,0,1,2,2,0,3,0,3,2,0,0,0,1,0,2,0,3,13,0,13,1,13,3,0,0,0,1,0,2,0,3,13,0,13,2,0,0,0,2,1,0,1,2,2,0,3,0,3,2,0,0,0,1,0,2,0,3,1,0,1,2,1,3,2,0,2,1,2,3,3,0,3,1,3,2,0,0,0,1,0,2,0,3,1,0,1,2,1,3,2,0,2,1,2,3,3,0,3,1,3,2,0,0,0,1,0,2,0,3,1,0,1,2,1,3,2,0,2,1,2,3,3,0,3,1,3,2,0,0,0,2,1,0,1,2,2,0,3,0,3,2,0,0,0,1,0,2,0,3,1,0,1,2,1,3,2,0,2,1,2,3,3,0,3,1,3,2,0,0,0,1,0,2,0,3,1,0,1,2,1,3,2,0,2,1,2,3,3,0,3,1,3,2,0,0,0,2,1,0,1,2,2,0,3,0,3,2,0,0,0,2,1,0,1,2,2,0,3,0,3,2,0,0,0,1,0,2,0,3,13,0,13,2,13,3,0,0,0,2,2,0,0,0,0,1,0,2,0,3,1,0,1,2,1,3,2,0,2,1,2,3,3,0,3,1,3,2,0,0,0,1,0,2,0,3,1,0,1,2,1,3,2,0,2,1,2,3,3,0,3,1,3,2,0,0,0,1,0,2,0,3,1,0,1,2,1,3,2,0,2,1,2,3,3,0,3,1,3,2,0,0,0,2,2,0,0,0,0,13,13,0,0,0,0,2,2,0,0,0,0,13,13,0,0,0,0,2,2,0,0,0,0,1,0,2,0,3,13,0,13,1,13,3,0,0,0,1,0,2,0,3,13,0,13,2,0,0,0,1,0,2,0,3,1,0,1,2,1,3,2,0,2,1,2,3,3,0,3,1,3,2,0,0,0,1,0,2,0,3,1,0,1,2,1,3,2,0,2,1,2,3,3,0,3,1,3,2,0,0,0,13,13,0,0,0,0,1,0,2,0,3,13,0,13,1,13,3,0,0,0,2,2,0,0,0,0,13,13,0,0,0,0,1,0,2,0,3,13,0,13,1,13,3,0,0,0,1,0,2,0,3,1,0,1,2,1,3,2,0,2,1,2,3,3,0,3,1,3,2,0,0,0,1,0,2,0,3,2,0,2,1,2,2,0,0,0,1,0,2,0,3,1,0,1,2,1,3,2,0,2,1,2,3,3,0,3,1,3,2,0,0,0,1,0,2,0,3,1,0,1,2,1,3,2,0,2,1,2,3,3,0,3,1,3,2,0,0,0,1,0,2,0,3,1,0,1,2,1,3,2,0,2,1,2,3,3,0,3,1,3,2,0,0,0,2,2,0,0,0,0,1,0,2,0,3,1,0,1,2,1,3,2,0,2,1,2,3,3,0,3,1,3,2,0,0,0,1,0,2,0,3,1,0,1,2,1,3,2,0,2,1,2,3,3,0,3,1,3,2,0,0,0,1,0,2,0,3,1,0,1,2,1,3,2,0,2,1,2,3,3,0,3,1,3,2,0,0,0,1,0,2,0,3,1,0,1,2,1,3,2,0,2,1,2,3,3,0,3,1,3,2,0,0,0,1,0,2,0,3,1,0,1,2,1,3,2,0,2,1,2,3,3,0,3,1,3,2,0,0,0,2,2,0,0,0,0,2,2,0,0,0,0,2,2,0,0,0,0,1,0,2,0,3,13,0,13,2,0,0,0,2,2,0,0,0,0,1,0,2,0,3,1,0,1,2,1,3,2,0,2,1,2,3,3,0,3,1,3,2,0,0,0,1,0,2,0,3,1,0,1,2,1,3,2,0,2,1,2,3,3,0,3,1,3,2,0,0,0,2,1,0,1,2,2,0,3,0,3,2,0,0,0,13,13,0,0,0,0,1,0,2,0,3,2,0,2,1,2,2,0,0,0,1,0,2,0,3,1,0,1,2,1,3,2,0,2,1,2,3,3,0,3,1,3,2,0,0,0,1,0,2,0,3,1,0,1,2,1,3,2,0,2,1,2,3,3,0,3,1,3,2,0,0,0,2,2,0,0,0,0,1,0,2,0,3,13,0,13,2,13,3,0,0,0,1,0,2,0,3,1,0,1,1,1,2,2,0,2,1,2,2,2,3,3,0,3,1,3,2,3,3,0,0,0,2,2,0,0,0,0,1,0,2,0,3,1,0,1,2,1,3,2,0,2,1,2,3,3,0,3,1,3,2,0,0,0,2,2,0,0,0,0,1,0,2,0,3,1,0,1,2,1,3,2,0,2,1,2,3,3,0,3,1,3,2,0,0,0,1,0,2,0,3,13,0,13,1,13,3,0,0,0,1,0,2,0,3,13,0,13,2,0,0,0,13,13,0,0,0,0,1,0,2,0,3,1,0,1,2,1,3,2,0,2,1,2,3,3,0,3,1,3,2,0,0,0,1,0,2,0,3,1,0,1,2,1,3,2,0,2,1,2,3,3,0,3,1,3,2,0,0,0,2,2,0,0,0,0,2,1,0,1,2,2,0,3,0,3,2,0,0,0,13,13,0,0,0,0,1,0,2,0,3,1,0,1,2,1,3,2,0,2,1,2,3,3,0,3,1,3,2,0,0,0,1,0,2,0,3,1,0,1,1,1,2,1,3,2,0,2,2,2,3,3,0,3,1,3,3,0,0,0,2,1,0,1,2,2,0,3,0,3,2,0,0,0,1,0,2,0,3,13,0,13,2,13,3,0,0,0,2,1,0,1,2,2,0,3,0,3,2,0,0,0,1,0,2,0,3,13,0,13,2,0,0,0,13,13,0,0,0,0,1,0,2,0,3,1,0,1,2,1,3,2,0,2,1,2,3,3,0,3,1,3,2,0,0,0,2,1,0,1,2,2,0,3,0,3,2,0,0,0,2,2,0,0,0,0,1,0,2,0,3,1,0,1,2,1,3,2,0,2,1,2,3,3,0,3,1,3,2,0,0,0,13,1,0,2,0,2,13,3,0,0,0,0,13,13,0,0,0,0,2,1,0,1,2,2,0,3,0,3,2,0,0,0,13,1,0,2,0,2,13,3,0,0,0,0,1,0,2,0,3,1,0,1,2,1,3,2,0,2,1,2,3,3,0,3,1,3,2,0,0,0,1,0,2,0,3,1,0,1,2,1,3,2,0,2,1,2,3,3,0,3,1,3,2,0,0,0,1,0,2,0,3,1,0,1,2,1,3,2,0,2,1,2,3,3,0,3,1,3,2,0,0,0,1,0,2,0,3,1,0,1,2,1,3,2,0,2,1,2,3,3,0,3,1,3,2,0,0,0,2,2,0,0,0,0,1,0,2,0,3,1,0,1,2,1,3,2,0,2,1,2,3,3,0,3,1,3,2,0,0,0,1,0,2,0,3,1,0,1,2,1,3,2,0,2,1,2,3,3,0,3,1,3,2,0,0,0,2,1,0,2,0,2,2,3,0,3,2,0,0,0,1,0,2,0,3,1,0,1,2,1,3,2,0,2,1,2,3,3,0,3,1,3,2,0,0,0,13,13,0,0,0,0,1,0,2,0,3,13,0,13,1,13,3,0,0,0,1,0,2,0,3,1,0,1,2,1,3,2,0,2,1,2,3,3,0,3,1,3,2,0,0,0,2,2,0,0,0,0,1,0,2,0,3,1,0,1,2,1,3,2,0,2,1,2,3,3,0,3,1,3,2,0,0,0,1,0,2,0,3,13,0,13,2,0,0,0,2,1,0,1,2,2,0,3,0,3,2,0,0,0,1,0,2,0,3,13,0,13,2,0,0,0,1,0,2,0,3,1,0,1,2,1,3,2,0,2,1,2,3,3,0,3,1,3,2,0,0,0,13,13,0,0,0,0,2,1,0,1,2,2,0,3,0,3,2,0,0,0,1,0,2,0,3,2,0,2,1,2,3,0,0,0,1,0,2,0,3,1,0,1,2,1,3,2,0,2,1,2,3,3,0,3,1,3,2,0,0,0,1,0,2,0,3,1,0,1,2,1,3,2,0,2,1,2,3,3,0,3,1,3,2,0,0,0,1,0,2,0,3,1,0,1,2,1,3,2,0,2,1,2,3,3,0,3,1,3,2,0,0,0,2,2,0,0,0,0,13,1,0,2,0,2,13,3,0,0,0,0,2,1,0,1,2,2,0,3,0,3,2,0,0,0,1,0,2,0,3,1,0,1,2,1,3,2,0,2,1,2,3,3,0,3,1,3,2,0,0,0,1,0,2,0,3,13,0,13,2,0,0,0,2,2,0,0,0,0,1,0,2,0,3,13,0,13,2,0,0,0,1,0,2,0,3,1,0,1,2,1,3,2,0,2,1,2,3,3,0,3,1,3,2,0,0,0,1,0,2,0,3,1,0,1,2,1,3,2,0,2,1,2,3,3,0,3,1,3,2,0,0,0,2,2,0,0,0,0,1,0,2,0,3,13,0,13,2,0,0,0,2,2,0,0,0,0,13,13,0,0,0,0,1,0,2,0,3,1,0,1,2,1,3,2,0,2,1,2,3,3,0,3,1,3,2,0,0,0,2,2,0,0,0,0,13,13,0,0,0,0,1,0,2,0,3,1,0,1,2,1,3,2,0,2,1,2,3,3,0,3,1,3,2,0,0,0,13,13,0,0,0,0,2,2,0,0,0,0,2,2,0,0,0,0,1,0,2,0,3,13,0,13,2,0,0,0,1,0,2,0,3,1,0,1,2,1,3,2,0,2,1,2,3,3,0,3,1,3,2,0,0,0,1,0,2,0,3,13,0,13,2,13,3,0,0,0,1,0,2,0,3,13,0,13,1,13,3,0,0,0,1,0,2,0,3,1,0,1,2,1,3,2,0,2,1,2,3,3,0,3,1,3,2,0,0,0,2,2,0,0,0,0,2,2,0,0,0,0,2,1,0,1,2,2,0,3,0,3,2,0,0,0,2,1,0,2,0,2,2,3,0,3,2,0,0,0,1,0,2,0,3,1,0,1,2,1,3,2,0,2,1,2,3,3,0,3,1,3,2,0,0,0,1,0,2,0,3,1,0,1,2,1,3,2,0,2,1,2,3,3,0,3,1,3,2,0,0,0,2,1,0,1,2,2,0,3,0,3,2,0,0,0,1,0,2,0,3,1,0,1,2,1,3,2,0,2,1,2,3,3,0,3,1,3,2,0,0,0,1,0,2,0,3,1,0,1,2,1,3,2,0,2,1,2,3,3,0,3,1,3,2,0,0,0,1,0,2,0,3,13,0,13,2,13,3,0,0,0,2,2,0,0,0,0,2,2,0,0,0,0,1,0,2,0,3,1,0,1,2,1,3,2,0,2,1,2,3,3,0,3,1,3,2,0,0,0,1,0,2,0,3,13,0,13,1,13,3,0,0,0,1,0,2,0,3,1,0,1,1,1,2,1,3,2,0,2,2,2,3,3,0,3,1,3,3,0,0,0,1,0,2,0,3,1,0,1,2,1,3,2,0,2,1,2,3,3,0,3,1,3,2,0,0,0,1,0,2,0,3,2,0,2,1,2,3,0,0,0,1,0,2,0,3,13,0,13,1,13,3,0,0,0,1,0,2,0,3,1,0,1,2,1,3,2,0,2,1,2,3,3,0,3,1,3,2,0,0,0,2,1,0,2,0,2,2,3,0,3,2,0,0,0,1,0,2,0,3,1,0,1,2,1,3,2,0,2,1,2,3,3,0,3,1,3,2,0,0,0,13,13,0,0,0,0,1,0,2,0,3,13,0,13,2,0,0,0,1,0,2,0,3,1,0,1,2,1,3,2,0,2,1,2,3,3,0,3,1,3,2,0,0,0,13,13,0,0,0,0,1,0,2,0,3,2,0,2,1,2,3,0,0,0,1,0,2,0,3,13,0,13,2,0,0,0,13,13,0,0,0,0,1,0,2,0,3,1,0,1,2,1,3,2,0,2,1,2,3,3,0,3,1,3,2,0,0,0,1,0,2,0,3,13,0,13,1,13,3,0,0,0,1,0,2,0,3,13,0,13,2,0,0,0,2,1,0,1,2,2,0,3,0,3,2,0,0,0,1,0,2,0,3,13,0,13,1,13,3,0,0,0,1,0,2,0,3,1,0,1,2,1,3,2,0,2,1,2,3,3,0,3,1,3,2,0,0,0,1,0,2,0,3,1,0,1,2,1,3,2,0,2,1,2,3,3,0,3,1,3,2,0,0,0,1,0,2,0,3,1,0,1,2,1,3,2,0,2,1,2,3,3,0,3,1,3,2,0,0,0,1,0,2,0,3,1,0,1,2,1,3,2,0,2,1,2,3,3,0,3,1,3,2,0,0,0,1,0,2,0,3,1,0,1,2,1,3,2,0,2,1,2,3,3,0,3,1,3,2,0,0,0,2,2,0,0,0,0,1,0,2,0,3,13,0,13,2,0,0,0,1,0,2,0,3,1,0,1,2,1,3,2,0,2,1,2,3,3,0,3,1,3,2,0,0,0,1,0,2,0,3,1,0,1,2,1,3,2,0,2,1,2,3,3,0,3,1,3,2,0,0,0,1,0,2,0,3,1,0,1,2,1,3,2,0,2,1,2,3,3,0,3,1,3,2,0,0,0,2,1,0,1,2,2,0,3,0,3,2,0,0,0,2,2,0,0,0,0,2,1,0,2,0,2,2,3,0,3,2,0,0,0,1,0,2,0,3,13,0,13,2,0,0,0,2,1,0,1,2,2,0,3,0,3,2,0,0,0,1,0,2,0,3,1,0,1,2,1,3,2,0,2,1,2,3,3,0,3,1,3,2,0,0,0,1,0,2,0,3,13,0,13,2,0,0,0,1,0,2,0,3,1,0,1,2,1,3,2,0,2,1,2,3,3,0,3,1,3,2,0,0,0,2,1,0,1,2,2,0,3,0,3,2,0,0,0,2,1,0,1,2,2,0,3,0,3,2,0,0,0,13,13,0,0,0,0,1,0,2,0,3,1,0,1,2,1,3,2,0,2,1,2,3,3,0,3,1,3,2,0,0,0,2,1,0,1,2,2,0,3,0,3,2,0,0,0,2,1,0,1,2,2,0,3,0,3,2,0,0,0,2,2,0,0,0,0,2,2,0,0,0,0,1,0,2,0,3,1,0,1,2,1,3,2,0,2,1,2,3,3,0,3,1,3,2,0,0,0,2,1,0,1,2,2,0,3,0,3,2,0,0,0,2,2,0,0,0,0,1,0,2,0,3,1,0,1,2,1,3,2,0,2,1,2,3,3,0,3,1,3,2,0,0,0,13,13,0,0,0,0,1,0,2,0,3,1,0,1,2,1,3,2,0,2,1,2,3,3,0,3,1,3,2,0,0,0,1,0,2,0,3,1,0,1,2,1,3,2,0,2,1,2,3,3,0,3,1,3,2,0,0,0,1,0,2,0,3,13,0,13,2,0,0,0,2,1,0,1,2,2,0,3,0,3,2,0,0,0,1,0,2,0,3,1,0,1,2,1,3,2,0,2,1,2,3,3,0,3,1,3,2,0,0,0,1,0,2,0,3,13,0,13,2,0,0,0,1,0,2,0,3,1,0,1,2,1,3,2,0,2,1,2,3,3,0,3,1,3,2,0,0,0,1,0,2,0,3,1,0,1,2,1,3,2,0,2,1,2,3,3,0,3,1,3,2,0,0,0,1,0,2,0,3,1,0,1,2,1,3,2,0,2,1,2,3,3,0,3,1,3,2,0,0,0,1,0,2,0,3,1,0,1,2,1,3,2,0,2,1,2,3,3,0,3,1,3,2,0,0,0,1,0,2,0,3,1,0,1,2,1,3,2,0,2,1,2,3,3,0,3,1,3,2,0,0,0,1,0,2,0,3,1,0,1,2,1,3,2,0,2,1,2,3,3,0,3,1,3,2,0,0,0,1,0,2,0,3,13,0,13,1,13,3,0,0,0,13,13,0,0,0,0,13,13,0,0,0,0,13,13,0,0,0,0,2,2,0,0,0,0,1,0,2,0,3,13,0,13,2,13,3,0,0,0,1,0,2,0,3,1,0,1,2,1,3,2,0,2,1,2,3,3,0,3,1,3,2,0,0,0,1,0,2,0,3,1,0,1,2,1,3,2,0,2,1,2,3,3,0,3,1,3,2,0,0,0,1,0,2,0,3,1,0,1,2,1,3,2,0,2,1,2,3,3,0,3,1,3,2,0,0,0,1,0,2,0,3,1,0,1,2,1,3,2,0,2,1,2,3,3,0,3,1,3,2,0,0,0,1,0,2,0,3,1,0,1,2,1,3,2,0,2,1,2,3,3,0,3,1,3,2,0,0,0,1,0,2,0,3,13,0,13,2,0,0,0,2,2,0,0,0,0,1,0,2,0,3,1,0,1,2,1,3,2,0,2,1,2,3,3,0,3,1,3,2,0,0,0,1,0,2,0,3,1,0,1,2,1,3,2,0,2,1,2,3,3,0,3,1,3,2,0,0,0,1,0,2,0,3,13,0,13,2,0,0,0,1,0,2,0,3,1,0,1,2,1,3,2,0,2,1,2,3,3,0,3,1,3,2,0,0,0,13,13,0,0,0,0,1,0,2,0,3,1,0,1,2,1,3,2,0,2,1,2,3,3,0,3,1,3,2,0,0,0,1,0,2,0,3,13,0,13,1,13,3,0,0,0,13,13,0,0,0,0,13,13,0,0,0,0,2,1,0,1,2,2,0,3,0,3,2,0,0,0,1,0,2,0,3,13,0,13,1,13,3,0,0,0,1,0,2,0,3,1,0,1,1,1,2,1,3,2,0,2,1,2,2,2,3,3,0,3,2,3,3,0,0,0,1,0,2,0,3,13,0,13,2,0,0,0,1,0,2,0,3,1,0,1,2,1,3,2,0,2,1,2,3,3,0,3,1,3,2,0,0,0,1,0,2,0,3,1,0,1,2,1,3,2,0,2,1,2,3,3,0,3,1,3,2,0,0,0,1,0,2,0,3,1,0,1,2,1,3,2,0,2,1,2,3,3,0,3,1,3,2,0,0,0,13,13,0,0,0,0,1,0,2,0,3,2,0,2,1,2,3,0,0,0,2,1,0,1,2,2,0,3,0,3,2,0,0,0,13,13,0,0,0,0,2,2,0,0,0,0,1,0,2,0,3,2,0,2,1,2,3,0,0,0,1,0,2,0,3,13,0,13,2,0,0,0,13,13,0,0,0,0,1,0,2,0,3,1,0,1,2,1,3,2,0,2,1,2,3,3,0,3,1,3,2,0,0,0,1,0,2,0,3,1,0,1,2,1,3,2,0,2,1,2,3,3,0,3,1,3,2,0,0,0,1,0,2,0,3,13,0,13,2,0,0,0,1,0,2,0,3,1,0,1,1,1,3,2,0,2,1,2,2,3,0,3,1,3,2,3,3,0,0,0,1,0,2,0,3,1,0,1,2,1,3,2,0,2,1,2,3,3,0,3,1,3,2,0,0,0,1,0,2,0,3,1,0,1,2,1,3,2,0,2,1,2,3,3,0,3,1,3,2,0,0,0,2,1,0,1,2,2,0,3,0,3,2,0,0,0,1,0,2,0,3,1,0,1,2,1,3,2,0,2,1,2,3,3,0,3,1,3,2,0,0,0,13,13,0,0,0,0,1,0,2,0,3,2,0,2,1,2,2,0,0,0,1,0,2,0,3,13,0,13,2,13,3,0,0,0,1,0,2,0,3,1,0,1,2,1,3,2,0,2,1,2,3,3,0,3,1,3,2,0,0,0,1,0,2,0,3,1,0,1,2,1,3,2,0,2,1,2,3,3,0,3,1,3,2,0,0,0,2,2,0,0,0,0,1,0,2,0,3,1,0,1,2,1,3,2,0,2,1,2,3,3,0,3,1,3,2,0,0,0,2,2,0,0,0,0,1,0,2,0,3,13,0,13,2,13,3,0,0,0,1,0,2,0,3,1,0,1,2,1,3,2,0,2,1,2,3,3,0,3,1,3,2,0,0,0,2,1,0,1,2,2,0,3,0,3,2,0,0,0,2,1,0,2,0,2,2,3,0,3,2,0,0,0,1,0,2,0,3,1,0,1,1,1,2,1,3,2,0,2,1,2,2,2,3,3,0,3,2,3,3,0,0,0,2,1,0,1,2,2,0,3,0,3,2,0,0,0,1,0,2,0,3,13,0,13,2,0,0,0,1,0,2,0,3,1,0,1,2,1,3,2,0,2,1,2,3,3,0,3,1,3,2,0,0,0,1,0,2,0,3,1,0,1,2,1,3,2,0,2,1,2,3,3,0,3,1,3,2,0,0,0,13,13,0,0,0,0,1,0,2,0,3,1,0,1,2,1,3,2,0,2,1,2,3,3,0,3,1,3,2,0,0,0,1,0,2,0,3,1,0,1,2,1,3,2,0,2,1,2,3,3,0,3,1,3,2,0,0,0,1,0,2,0,3,13,0,13,2,0,0,0,1,0,2,0,3,13,0,13,2,0,0,0,1,0,2,0,3,13,0,13,2,0,0,0,1,0,2,0,3,13,0,13,2,0,0,0,1,0,2,0,3,2,0,2,1,2,2,0,0,0,1,0,2,0,3,1,0,1,2,1,3,2,0,2,1,2,3,3,0,3,1,3,2,0,0,0,2,1,0,1,2,2,0,3,0,3,2,0,0,0,1,0,2,0,3,1,0,1,2,1,3,2,0,2,1,2,3,3,0,3,1,3,2,0,0,0,1,0,2,0,3,1,0,1,2,1,3,2,0,2,1,2,3,3,0,3,1,3,2,0,0,0,2,2,0,0,0,0,2,2,0,0,0,0,1,0,2,0,3,1,0,1,2,1,3,2,0,2,1,2,3,3,0,3,1,3,2,0,0,0,2,1,0,1,2,2,0,3,0,3,2,0,0,0,13,13,0,0,0,0,2,2,0,0,0,0,1,0,2,0,3,2,0,2,1,2,2,0,0,0,2,1,0,1,2,2,0,3,0,3,2,0,0,0,1,0,2,0,3,1,0,1,2,1,3,2,0,2,1,2,3,3,0,3,1,3,2,0,0,0,13,13,0,0,0,0,1,0,2,0,3,13,0,13,2,0,0,0,1,0,2,0,3,1,0,1,2,1,3,2,0,2,1,2,3,3,0,3,1,3,2,0,0,0,2,1,0,1,2,2,0,3,0,3,2,0,0,0,2,2,0,0,0,0,2,1,0,1,2,2,0,2,2,3,0,0,0,0,2,1,0,1,2,2,0,3,0,3,2,0,0,0,1,0,2,0,3,2,0,2,1,2,3,0,0,0,1,0,2,0,3,13,0,13,2,0,0,0,13,13,0,0,0,0,2,1,0,1,2,2,0,3,0,3,2,0,0,0,2,1,0,1,2,2,0,3,0,3,2,0,0,0,2,2,0,0,0,0,1,0,2,0,3,1,0,1,2,1,3,2,0,2,1,2,3,3,0,3,1,3,2,0,0,0,1,0,2,0,3,1,0,1,2,1,3,2,0,2,1,2,3,3,0,3,1,3,2,0,0,0,1,0,2,0,3,1,0,1,2,1,3,2,0,2,1,2,3,3,0,3,1,3,2,0,0,0,2,2,0,0,0,0,1,0,2,0,3,13,0,13,2,0,0,0,13,13,0,0,0,0,1,0,2,0,3,1,0,1,2,1,3,2,0,2,1,2,3,3,0,3,1,3,2,0,0,0,1,0,2,0,3,13,0,13,1,13,3,0,0,0,1,0,2,0,3,13,0,13,1,13,3,0,0,0,1,0,2,0,3,13,0,13,2,13,3,0,0,0,1,0,2,0,3,1,0,1,2,1,3,2,0,2,1,2,3,3,0,3,1,3,2,0,0,0,1,0,2,0,3,13,0,13,2,0,0,0,1,0,2,0,3,1,0,1,2,1,3,2,0,2,1,2,3,3,0,3,1,3,2,0,0,0,1,0,2,0,3,13,0,13,2,0,0,0,2,1,0,1,2,2,0,3,0,3,2,0,0,0,1,0,2,0,3,1,0,1,2,1,3,2,0,2,1,2,3,3,0,3,1,3,2,0,0,0,1,0,2,0,3,1,0,1,2,1,3,2,0,2,1,2,3,3,0,3,1,3,2,0,0,0,1,0,2,0,3,13,0,13,1,13,3,0,0,0,1,0,2,0,3,1,0,1,2,1,3,2,0,2,1,2,3,3,0,3,1,3,2,0,0,0,1,0,2,0,3,13,0,13,1,13,2,0,0,0,2,1,0,1,2,2,0,3,0,3,2,0,0,0,2,2,0,0,0,0,1,0,2,0,3,1,0,1,2,1,3,2,0,2,1,2,3,3,0,3,1,3,2,0,0,0,1,0,2,0,3,1,0,1,2,1,3,2,0,2,1,2,3,3,0,3,1,3,2,0,0,0,13,13,0,0,0,0,1,0,2,0,3,1,0,1,2,1,3,2,0,2,1,2,3,3,0,3,1,3,2,0,0,0,1,0,2,0,3,13,0,13,1,13,3,0,0,0,1,0,2,0,3,1,0,1,2,1,3,2,0,2,1,2,3,3,0,3,1,3,2,0,0,0,1,0,2,0,3,13,0,13,2,0,0,0,2,2,0,0,0,0,1,0,2,0,3,1,0,1,2,1,3,2,0,2,1,2,3,3,0,3,1,3,2,0,0,0,2,2,0,0,0,0,2,1,0,1,2,2,0,3,0,3,2,0,0,0,13,13,0,0,0,0,2,2,0,0,0,0,1,0,2,0,3,1,0,1,2,1,3,2,0,2,1,2,3,3,0,3,1,3,2,0,0,0,2,1,0,1,2,2,0,3,0,3,2,0,0,0,1,0,2,0,3,1,0,1,2,1,3,2,0,2,1,2,3,3,0,3,1,3,2,0,0,0,1,0,2,0,3,1,0,1,2,1,3,2,0,2,1,2,3,3,0,3,1,3,2,0,0,0,1,0,2,0,3,13,0,13,2,13,3,0,0,0,1,0,2,0,3,1,0,1,2,1,3,2,0,2,1,2,3,3,0,3,1,3,2,0,0,0,1,0,2,0,3,1,0,1,2,1,3,2,0,2,1,2,3,3,0,3,1,3,2,0,0,0,1,0,2,0,3,13,0,13,2,0,0,0,13,13,0,0,0,0,2,1,0,1,2,2,0,3,0,3,2,0,0,0,13,13,0,0,0,0,13,13,0,0,0,0,1,0,2,0,3,1,0,1,2,1,3,2,0,2,1,2,3,3,0,3,1,3,2,0,0,0,1,0,2,0,3,1,0,1,2,1,3,2,0,2,1,2,3,3,0,3,1,3,2,0,0,0,1,0,2,0,3,13,0,13,2,13,3,0,0,0,13,13,0,0,0,0,2,1,0,2,0,2,2,3,0,3,2,0,0,0,1,0,2,0,3,1,0,1,2,1,3,2,0,2,1,2,3,3,0,3,1,3,2,0,0,0,1,0,2,0,3,13,0,13,1,13,3,0,0,0,1,0,2,0,3,2,0,2,1,2,3,0,0,0,2,1,0,1,2,2,0,3,0,3,2,0,0,0,1,0,2,0,3,13,0,13,2,13,3,0,0,0,1,0,2,0,3,1,0,1,2,1,3,2,0,2,1,2,3,3,0,3,1,3,2,0,0,0,1,0,2,0,3,1,0,1,2,1,3,2,0,2,1,2,3,3,0,3,1,3,2,0,0,0,2,1,0,1,2,2,0,3,0,3,2,0,0,0,1,0,2,0,3,1,0,1,2,1,3,2,0,2,1,2,3,3,0,3,1,3,2,0,0,0,1,0,2,0,3,1,0,1,2,1,3,2,0,2,1,2,3,3,0,3,1,3,2,0,0,0,1,0,2,0,3,13,0,13,2,0,0,0,2,2,0,0,0,0,1,0,2,0,3,1,0,1,2,1,3,2,0,2,1,2,3,3,0,3,1,3,2,0,0,0,2,1,0,1,2,2,0,3,0,3,2,0,0,0,1,0,2,0,3,1,0,1,2,1,3,2,0,2,1,2,3,3,0,3,1,3,2,0,0,0,2,2,0,0,0,0,1,0,2,0,3,1,0,1,2,1,3,2,0,2,1,2,3,3,0,3,1,3,2,0,0,0,1,0,2,0,3,1,0,1,2,1,3,2,0,2,1,2,3,3,0,3,1,3,2,0,0,0,1,0,2,0,3,1,0,1,2,1,3,2,0,2,1,2,3,3,0,3,1,3,2,0,0,0,2,1,0,2,0,2,2,3,0,3,2,0,0,0,1,0,2,0,3,1,0,1,2,1,3,2,0,2,1,2,3,3,0,3,1,3,2,0,0,0,1,0,2,0,3,13,0,13,1,13,2,0,0,0,2,1,0,1,2,2,0,3,0,3,2,0,0,0,1,0,2,0,3,13,0,13,2,0,0,0,1,0,2,0,3,1,0,1,2,1,3,2,0,2,1,2,3,3,0,3,1,3,2,0,0,0,1,0,2,0,3,13,0,13,2,0,0,0,1,0,2,0,3,1,0,1,2,1,3,2,0,2,1,2,3,3,0,3,1,3,2,0,0,0,2,2,0,0,0,0,1,0,2,0,3,13,0,13,1,13,3,0,0,0,1,0,2,0,3,1,0,1,1,1,2,1,3,2,0,2,2,2,3,3,0,3,1,3,2,3,3,0,0,0,2,1,0,1,2,2,0,3,0,3,2,0,0,0,2,1,0,1,2,2,0,3,0,3,2,0,0,0,1,0,2,0,3,1,0,1,2,1,3,2,0,2,1,2,2,2,3,3,0,3,1,3,2,3,3,0,0,0,13,1,0,2,0,2,13,3,0,0,0,0,2,2,0,0,0,0,1,0,2,0,3,1,0,1,2,1,3,2,0,2,1,2,3,3,0,3,1,3,2,0,0,0,13,13,0,0,0,0,1,0,2,0,3,1,0,1,2,1,3,2,0,2,1,2,3,3,0,3,1,3,2,0,0,0,2,2,0,0,0,0,1,0,2,0,3,2,0,2,1,2,3,0,0,0,2,13,0,0,0,0,1,0,2,0,3,1,0,1,2,1,3,2,0,2,1,2,3,3,0,3,1,3,2,0,0,0,1,0,2,0,3,1,0,1,2,1,3,2,0,2,1,2,3,3,0,3,1,3,2,0,0,0,2,2,0,0,0,0,1,0,2,0,3,1,0,1,2,1,3,2,0,2,1,2,3,3,0,3,1,3,2,0,0,0,1,0,2,0,3,13,0,13,2,0,0,0,13,13,0,0,0,0,1,0,2,0,3,1,0,1,2,1,3,2,0,2,1,2,3,3,0,3,1,3,2,0,0,0,1,0,2,0,3,1,0,1,2,1,3,2,0,2,1,2,3,3,0,3,1,3,2,0,0,0,1,0,2,0,3,1,0,1,2,1,3,2,0,2,1,2,3,3,0,3,1,3,2,0,0,0,1,0,2,0,3,13,0,13,1,13,3,0,0,0,1,0,2,0,3,13,0,13,2,13,3,0,0,0,2,2,0,0,0,0,1,0,2,0,3,13,0,13,1,13,3,0,0,0,1,0,2,0,3,13,0,13,1,13,3,0,0,0,1,0,2,0,3,1,0,1,2,1,3,2,0,2,1,2,3,3,0,3,1,3,2,0,0,0,1,0,2,0,3,1,0,1,2,1,3,2,0,2,1,2,3,3,0,3,1,3,2,0,0,0,1,0,2,0,3,1,0,1,2,1,3,2,0,2,1,2,3,3,0,3,1,3,2,0,0,0,13,13,0,0,0,0,2,2,0,0,0,0,1,0,2,0,3,1,0,1,2,1,3,2,0,2,1,2,3,3,0,3,1,3,2,0,0,0,13,13,0,0,0,0,13,1,0,2,0,2,13,3,0,0,0,0,13,13,0,0,0,0,13,13,0,0,0,0,2,2,0,0,0,0,13,13,0,0,0,0,1,0,2,0,3,1,0,1,2,1,3,2,0,2,1,2,3,3,0,3,1,3,2,0,0,0,13,13,0,0,0,0,13,13,0,0,0,0,1,0,2,0,3,13,0,13,2,0,0,0,1,0,2,0,3,13,0,13,1,13,3,0,0,0,13,13,0,0,0,0,1,0,2,0,3,13,0,13,2,0,0,0,13,1,0,2,0,2,13,3,0,0,0,0,1,0,2,0,3,1,0,1,2,1,3,2,0,2,1,2,3,3,0,3,1,3,2,0,0,0,1,0,2,0,3,13,0,13,1,13,3,0,0,0,2,1,0,1,2,2,0,3,0,3,2,0,0,0,2,1,0,1,2,2,0,3,0,3,2,0,0,0,2,2,0,0,0,0,1,0,2,0,3,1,0,1,2,1,3,2,0,2,1,2,3,3,0,3,1,3,2,0,0,0,2,1,0,2,0,2,2,3,0,3,2,0,0,0,1,0,2,0,3,1,0,1,2,1,3,2,0,2,1,2,3,3,0,3,1,3,2,0,0,0,2,1,0,1,2,2,0,3,0,3,2,0,0,0,1,0,2,0,3,1,0,1,2,1,3,2,0,2,1,2,3,3,0,3,1,3,2,0,0,0,1,0,2,0,3,13,0,13,1,13,3,0,0,0,1,0,2,0,3,1,0,1,2,1,3,2,0,2,1,2,3,3,0,3,1,3,2,0,0,0,13,13,0,0,0,0,2,1,0,2,0,2,2,3,0,3,2,0,0,0,2,1,0,1,2,2,0,2,2,3,0,0,0,0,2,1,0,1,2,2,0,3,0,3,2,0,0,0,2,1,0,1,2,2,0,3,0,3,2,0,0,0,1,0,2,0,3,13,0,13,2,0,0,0,2,1,0,1,2,2,0,3,0,3,2,0,0,0,1,0,2,0,3,13,0,13,2,0,0,0,1,0,2,0,3,13,0,13,1,13,3,0,0,0,2,2,0,0,0,0,2,1,0,1,2,2,0,3,0,3,2,0,0,0,1,0,2,0,3,1,0,1,2,1,3,2,0,2,1,2,3,3,0,3,1,3,2,0,0,0,1,0,2,0,3,1,0,1,2,1,3,2,0,2,1,2,3,3,0,3,1,3,2,0,0,0,2,1,0,1,2,2,0,2,2,3,0,0,0,0,1,0,2,0,3,1,0,1,2,1,3,2,0,2,1,2,3,3,0,3,1,3,2,0,0,0,1,0,2,0,3,1,0,1,2,1,3,2,0,2,1,2,3,3,0,3,1,3,2,0,0,0,1,0,2,0,3,1,0,1,2,1,3,2,0,2,1,2,3,3,0,3,1,3,2,0,0,0,13,13,0,0,0,0,13,13,0,0,0,0,1,0,2,0,3,2,0,2,1,2,3,0,0,0,1,0,2,0,3,1,0,1,2,1,3,2,0,2,1,2,3,3,0,3,1,3,2,0,0,0,2,2,0,0,0,0,1,0,2,0,3,13,0,13,2,0,0,0,1,0,2,0,3,1,0,1,2,1,3,2,0,2,1,2,3,3,0,3,1,3,2,0,0,0,2,1,0,1,2,2,0,3,0,3,2,0,0,0,1,0,2,0,3,1,0,1,2,1,3,2,0,2,1,2,3,3,0,3,1,3,2,0,0,0,1,0,2,0,3,1,0,1,1,1,2,1,3,2,0,2,1,2,2,2,3,3,0,3,1,3,3,0,0,0,2,1,0,1,2,2,0,3,0,3,2,0,0,0,13,1,0,2,0,2,13,3,0,0,0,0,1,0,2,0,3,2,0,2,1,2,2,0,0,0,1,0,2,0,3,1,0,1,2,1,3,2,0,2,1,2,3,3,0,3,1,3,2,0,0,0,1,0,2,0,3,1,0,1,2,1,3,2,0,2,1,2,3,3,0,3,1,3,2,0,0,0,1,0,2,0,3,1,0,1,2,1,3,2,0,2,1,2,3,3,0,3,1,3,2,0,0,0,1,0,2,0,3,1,0,1,2,1,3,2,0,2,1,2,3,3,0,3,1,3,2,0,0,0,1,0,2,0,3,1,0,1,2,1,3,2,0,2,1,2,3,3,0,3,1,3,2,0,0,0,1,0,2,0,3,1,0,1,2,1,3,2,0,2,1,2,3,3,0,3,1,3,2,0,0,0,2,1,0,1,2,2,0,3,0,3,2,0,0,0,1,0,2,0,3,1,0,1,1,1,2,1,3,2,0,2,2,2,3,3,0,3,1,3,2,3,3,0,0,0,1,0,2,0,3,13,0,13,2,13,3,0,0,0,1,0,2,0,3,1,0,1,2,1,3,2,0,2,1,2,3,3,0,3,1,3,2,0,0,0,1,0,2,0,3,13,0,13,2,0,0,0,1,0,2,0,3,1,0,1,2,1,3,2,0,2,1,2,3,3,0,3,1,3,2,0,0,0,2,2,0,0,0,0,1,0,2,0,3,1,0,1,2,1,3,2,0,2,1,2,3,3,0,3,1,3,2,0,0,0,1,0,2,0,3,1,0,1,2,1,3,2,0,2,1,2,3,3,0,3,1,3,2,0,0,0,1,0,2,0,3,1,0,1,1,1,3,2,0,2,1,2,2,3,0,3,1,3,2,3,3,0,0,0,2,1,0,1,2,2,0,3,0,3,2,0,0,0,1,0,2,0,3,1,0,1,2,1,3,2,0,2,1,2,3,3,0,3,1,3,2,0,0,0,1,0,2,0,3,13,0,13,1,13,3,0,0,0,1,0,2,0,3,1,0,1,2,1,3,2,0,2,1,2,3,3,0,3,1,3,2,0,0,0,1,0,2,0,3,13,0,13,2,0,0,0,13,13,0,0,0,0,1,0,2,0,3,1,0,1,2,1,3,2,0,2,1,2,3,3,0,3,1,3,2,0,0,0,2,1,0,1,2,2,0,3,0,3,2,0,0,0,1,0,2,0,3,1,0,1,2,1,3,2,0,2,1,2,3,3,0,3,1,3,2,0,0,0,1,0,2,0,3,13,0,13,2,0,0,0,13,13,0,0,0,0,13,13,0,0,0,0,1,0,2,0,3,13,0,13,2,0,0,0,1,0,2,0,3,1,0,1,2,1,3,2,0,2,1,2,3,3,0,3,1,3,2,0,0,0,1,0,2,0,3,1,0,1,2,1,3,2,0,2,1,2,3,3,0,3,1,3,2,0,0,0,1,0,2,0,3,13,0,13,2,13,3,0,0,0,2,2,0,0,0,0,1,0,2,0,3,2,0,2,1,2,3,0,0,0,13,13,0,0,0,0,1,0,2,0,3,1,0,1,2,1,3,2,0,2,1,2,3,3,0,3,1,3,2,0,0,0,1,0,2,0,3,1,0,1,2,1,3,2,0,2,1,2,3,3,0,3,1,3,2,0,0,0,1,0,2,0,3,1,0,1,2,1,3,2,0,2,1,2,3,3,0,3,1,3,2,0,0,0,1,0,2,0,3,13,0,13,2,0,0,0,1,0,2,0,3,1,0,1,2,1,3,2,0,2,1,2,3,3,0,3,1,3,2,0,0,0,13,13,0,0,0,0,2,1,0,2,0,2,2,3,0,3,2,0,0,0,1,0,2,0,3,1,0,1,2,1,3,2,0,2,1,2,3,3,0,3,1,3,2,0,0,0,1,0,2,0,3,1,0,1,2,1,3,2,0,2,1,2,3,3,0,3,1,3,2,0,0,0,2,2,0,0,0,0,2,2,0,0,0,0,1,0,2,0,3,13,0,13,2,0,0,0,1,0,2,0,3,1,0,1,2,1,3,2,0,2,1,2,3,3,0,3,1,3,2,0,0,0,2,1,0,1,2,2,0,3,0,3,2,0,0,0,1,0,2,0,3,1,0,1,2,1,3,2,0,2,1,2,3,3,0,3,1,3,2,0,0,0,1,0,2,0,3,1,0,1,2,1,3,2,0,2,1,2,3,3,0,3,1,3,2,0,0,0,1,0,2,0,3,13,0,13,1,13,3,0,0,0,13,13,0,0,0,0,2,2,0,0,0,0,1,0,2,0,3,1,0,1,2,1,3,2,0,2,1,2,3,3,0,3,1,3,2,0,0,0,1,0,2,0,3,13,0,13,1,13,3,0,0,0,1,0,2,0,3,1,0,1,1,1,2,1,3,2,0,2,2,2,3,3,0,3,1,3,3,0,0,0,1,0,2,0,3,1,0,1,2,1,3,2,0,2,1,2,3,3,0,3,1,3,2,0,0,0,2,1,0,1,2,2,0,3,0,3,2,0,0,0,1,0,2,0,3,1,0,1,2,1,3,2,0,2,1,2,3,3,0,3,1,3,2,0,0,0,1,0,2,0,3,1,0,1,2,1,3,2,0,2,1,2,3,3,0,3,1,3,2,0,0,0,1,0,2,0,3,1,0,1,2,1,3,2,0,2,1,2,3,3,0,3,1,3,2,0,0,0,1,0,2,0,3,1,0,1,2,1,3,2,0,2,1,2,3,3,0,3,1,3,2,0,0,0,1,0,2,0,3,1,0,1,2,1,3,2,0,2,1,2,3,3,0,3,1,3,2,0,0,0,13,13,0,0,0,0,1,0,2,0,3,1,0,1,2,1,3,2,0,2,1,2,3,3,0,3,1,3,2,0,0,0,13,13,0,0,0,0,1,0,2,0,3,2,0,2,1,2,3,0,0,0,1,0,2,0,3,1,0,1,2,1,3,2,0,2,1,2,3,3,0,3,1,3,2,0,0,0,1,0,2,0,3,1,0,1,2,1,3,2,0,2,1,2,3,3,0,3,1,3,2,0,0,0,13,13,0,0,0,0,2,1,0,1,2,2,0,3,0,3,2,0,0,0,1,0,2,0,3,1,0,1,2,1,3,2,0,2,1,2,3,3,0,3,1,3,2,0,0,0,1,0,2,0,3,1,0,1,2,1,3,2,0,2,1,2,3,3,0,3,1,3,2,0,0,0,2,1,0,1,2,2,0,3,0,3,2,0,0,0,13,13,0,0,0,0,13,13,0,0,0,0,1,0,2,0,3,13,0,13,1,13,3,0,0,0,1,0,2,0,3,1,0,1,2,1,3,2,0,2,1,2,3,3,0,3,1,3,2,0,0,0,1,0,2,0,3,1,0,1,2,1,3,2,0,2,1,2,3,3,0,3,1,3,2,0,0,0,13,13,0,0,0,0,1,0,2,0,3,13,0,13,1,13,3,0,0,0,1,0,2,0,3,1,0,1,2,1,3,2,0,2,1,2,3,3,0,3,1,3,2,0,0,0,1,0,2,0,3,1,0,1,2,1,3,2,0,2,1,2,3,3,0,3,1,3,2,0,0,0,1,0,2,0,3,1,0,1,2,1,3,2,0,2,1,2,3,3,0,3,1,3,2,0,0,0,1,0,2,0,3,13,0,13,2,0,0,0,1,0,2,0,3,1,0,1,2,1,3,2,0,2,1,2,3,3,0,3,1,3,2,0,0,0,1,0,2,0,3,1,0,1,2,1,3,2,0,2,1,2,3,3,0,3,1,3,2,0,0,0,2,2,0,0,0,0,2,2,0,0,0,0,2,1,0,1,2,2,0,3,0,3,2,0,0,0,1,0,2,0,3,1,0,1,2,1,3,2,0,2,1,2,3,3,0,3,1,3,2,0,0,0,2,2,0,0,0,0,1,0,2,0,3,1,0,1,2,1,3,2,0,2,1,2,3,3,0,3,1,3,2,0,0,0,1,0,2,0,3,1,0,1,2,1,3,2,0,2,1,2,3,3,0,3,1,3,2,0,0,0,1,0,2,0,3,1,0,1,2,1,3,2,0,2,1,2,3,3,0,3,1,3,2,0,0,0,13,13,0,0,0,0,2,1,0,1,2,2,0,3,0,3,2,0,0,0,1,0,2,0,3,13,0,13,1,13,3,0,0,0,1,0,2,0,3,1,0,1,2,1,3,2,0,2,1,2,3,3,0,3,1,3,2,0,0,0,1,0,2,0,3,13,0,13,2,0,0,0,2,1,0,1,2,2,0,3,0,3,2,0,0,0,2,1,0,1,2,2,0,3,0,3,2,0,0,0,1,0,2,0,3,13,0,13,1,13,3,0,0,0,2,1,0,1,2,2,0,3,0,3,2,0,0,0,2,1,0,2,0,2,2,3,0,3,2,0,0,0,1,0,2,0,3,1,0,1,2,1,3,2,0,2,1,2,3,3,0,3,1,3,2,0,0,0,2,2,0,0,0,0,2,2,0,0,0,0,1,0,2,0,3,1,0,1,2,1,3,2,0,2,1,2,3,3,0,3,1,3,2,0,0,0,2,2,0,0,0,0,1,0,2,0,3,13,0,13,1,13,2,0,0,0,13,1,0,2,0,2,13,3,0,0,0,0,1,0,2,0,3,1,0,1,2,1,3,2,0,2,1,2,3,3,0,3,1,3,2,0,0,0,2,1,0,1,2,2,0,3,0,3,2,0,0,0,1,0,2,0,3,1,0,1,2,1,3,2,0,2,1,2,3,3,0,3,1,3,2,0,0,0,1,0,2,0,3,1,0,1,2,1,3,2,0,2,1,2,3,3,0,3,1,3,2,0,0,0,13,13,0,0,0,0,2,2,0,0,0,0,1,0,2,0,3,1,0,1,2,1,3,2,0,2,1,2,3,3,0,3,1,3,2,0,0,0,13,13,0,0,0,0,2,2,0,0,0,0,1,0,2,0,3,13,0,13,1,13,3,0,0,0,1,0,2,0,3,1,0,1,2,1,3,2,0,2,1,2,3,3,0,3,1,3,2,0,0,0,1,0,2,0,3,1,0,1,2,1,3,2,0,2,1,2,3,3,0,3,1,3,2,0,0,0,2,1,0,1,2,2,0,3,0,3,2,0,0,0,1,0,2,0,3,2,0,2,1,2,3,0,0,0,13,13,0,0,0,0,1,0,2,0,3,13,0,13,1,13,3,0,0,0,1,0,2,0,3,13,0,13,2,0,0,0,2,2,0,0,0,0,2,2,0,0,0,0,1,0,2,0,3,13,0,13,1,13,3,0,0,0,1,0,2,0,3,13,0,13,1,13,3,0,0,0,1,0,2,0,3,1,0,1,2,1,3,2,0,2,1,2,3,3,0,3,1,3,2,0,0,0,2,1,0,1,2,2,0,3,0,3,2,0,0,0,2,2,0,0,0,0,1,0,2,0,3,1,0,1,2,1,3,2,0,2,1,2,3,3,0,3,1,3,2,0,0,0,1,0,2,0,3,1,0,1,2,1,3,2,0,2,1,2,3,3,0,3,1,3,2,0,0,0,1,0,2,0,3,13,0,13,1,13,3,0,0,0,2,1,0,1,2,2,0,3,0,3,2,0,0,0,13,13,0,0,0,0,1,0,2,0,3,13,0,13,2,0,0,0,2,2,0,0,0,0,1,0,2,0,3,1,0,1,2,1,3,2,0,2,1,2,3,3,0,3,1,3,2,0,0,0,13,13,0,0,0,0,2,1,0,2,0,2,2,3,0,3,2,0,0,0,2,2,0,0,0,0,1,0,2,0,3,1,0,1,2,1,3,2,0,2,1,2,3,3,0,3,1,3,2,0,0,0,1,0,2,0,3,1,0,1,2,1,3,2,0,2,1,2,3,3,0,3,1,3,2,0,0,0,1,0,2,0,3,1,0,1,2,1,3,2,0,2,1,2,3,3,0,3,1,3,2,0,0,0,2,2,0,0,0,0,2,1,0,1,2,2,0,2,2,3,0,0,0,0,2,2,0,0,0,0,1,0,2,0,3,1,0,1,2,1,3,2,0,2,1,2,3,3,0,3,1,3,2,0,0,0,13,13,0,0,0,0,1,0,2,0,3,13,0,13,2,0,0,0,2,1,0,1,2,2,0,3,0,3,2,0,0,0,1,0,2,0,3,13,0,13,2,13,3,0,0,0,1,0,2,0,3,1,0,1,2,1,3,2,0,2,1,2,3,3,0,3,1,3,2,0,0,0,1,0,2,0,3,1,0,1,2,1,3,2,0,2,1,2,3,3,0,3,1,3,2,0,0,0,1,0,2,0,3,13,0,13,2,13,3,0,0,0,1,0,2,0,3,13,0,13,1,13,3,0,0,0,1,0,2,0,3,13,0,13,1,13,3,0,0,0,13,13,0,0,0,0,2,2,0,0,0,0,1,0,2,0,3,1,0,1,2,1,3,2,0,2,1,2,3,3,0,3,1,3,2,0,0,0,2,1,0,1,2,2,0,3,0,3,2,0,0,0,1,0,2,0,3,13,0,13,2,0,0,0,1,0,2,0,3,1,0,1,2,1,3,2,0,2,1,2,3,3,0,3,1,3,2,0,0,0,13,13,0,0,0,0,1,0,2,0,3,13,0,13,1,13,3,0,0,0,13,1,0,2,0,2,13,3,0,0,0,0,1,0,2,0,3,2,0,2,1,2,3,0,0,0,1,0,2,0,3,1,0,1,2,1,3,2,0,2,1,2,3,3,0,3,1,3,2,0,0,0,1,0,2,0,3,1,0,1,2,1,3,2,0,2,1,2,3,3,0,3,1,3,2,0,0,0,1,0,2,0,3,1,0,1,2,1,3,2,0,2,1,2,3,3,0,3,1,3,2,0,0,0,13,13,0,0,0,0,1,0,2,0,3,1,0,1,2,1,3,2,0,2,1,2,3,3,0,3,1,3,2,0,0,0,1,0,2,0,3,2,0,2,1,2,3,0,0,0,2,13,0,0,0,0,2,2,0,0,0,0,1,0,2,0,3,1,0,1,2,1,3,2,0,2,1,2,3,3,0,3,1,3,2,0,0,0,1,0,2,0,3,1,0,1,2,1,3,2,0,2,1,2,3,3,0,3,1,3,2,0,0,0,13,13,0,0,0,0,2,2,0,0,0,0,1,0,2,0,3,1,0,1,2,1,3,2,0,2,1,2,3,3,0,3,1,3,2,0,0,0,13,13,0,0,0,0,1,0,2,0,3,13,0,13,2,0,0,0,2,2,0,0,0,0,1,0,2,0,3,13,0,13,2,0,0,0,13,13,0,0,0,0,1,0,2,0,3,1,0,1,2,1,3,2,0,2,1,2,3,3,0,3,1,3,2,0,0,0,2,1,0,1,2,2,0,3,0,3,2,0,0,0,1,0,2,0,3,1,0,1,2,1,3,2,0,2,1,2,3,3,0,3,1,3,2,0,0,0,1,0,2,0,3,1,0,1,2,1,3,2,0,2,1,2,3,3,0,3,1,3,2,0,0,0,2,2,0,0,0,0,13,13,0,0,0,0,1,0,2,0,3,1,0,1,2,1,3,2,0,2,1,2,3,3,0,3,1,3,2,0,0,0,13,13,0,0,0,0,2,2,0,0,0,0,2,1,0,1,2,2,0,3,0,3,2,0,0,0,2,1,0,2,0,2,2,3,0,3,2,0,0,0,1,0,2,0,3,1,0,1,2,1,3,2,0,2,1,2,3,3,0,3,1,3,2,0,0,0,2,2,0,0,0,0,2,2,0,0,0,0,1,0,2,0,3,1,0,1,2,1,3,2,0,2,1,2,3,3,0,3,1,3,2,0,0,0,1,0,2,0,3,1,0,1,2,1,3,2,0,2,1,2,3,3,0,3,1,3,2,0,0,0,2,2,0,0,0,0,1,0,2,0,3,1,0,1,2,1,3,2,0,2,1,2,3,3,0,3,1,3,2,0,0,0,2,1,0,1,2,2,0,3,0,3,2,0,0,0,2,1,0,1,2,2,0,2,2,3,0,0,0,0,1,0,2,0,3,2,0,2,1,2,3,0,0,0,1,0,2,0,3,1,0,1,2,1,3,2,0,2,1,2,3,3,0,3,1,3,2,0,0,0,1,0,2,0,3,13,0,13,2,0,0,0,1,0,2,0,3,1,0,1,2,1,3,2,0,2,1,2,3,3,0,3,1,3,2,0,0,0,1,0,2,0,3,13,0,13,2,0,0,0,1,0,2,0,3,13,0,13,2,0,0,0,2,2,0,0,0,0,1,0,2,0,3,1,0,1,2,1,3,2,0,2,1,2,3,3,0,3,1,3,2,0,0,0,1,0,2,0,3,13,0,13,2,0,0,0,2,2,0,0,0,0,2,1,0,1,2,2,0,2,2,3,0,0,0,0,13,1,0,2,0,2,13,3,0,0,0,0,1,0,2,0,3,13,0,13,1,13,2,0,0,0,2,1,0,1,2,2,0,3,0,3,2,0,0,0,13,13,0,0,0,0,1,0,2,0,3,1,0,1,2,1,3,2,0,2,1,2,3,3,0,3,1,3,2,0,0,0,2,1,0,1,2,2,0,3,0,3,2,0,0,0,1,0,2,0,3,1,0,1,2,1,3,2,0,2,1,2,3,3,0,3,1,3,2,0,0,0,1,0,2,0,3,1,0,1,2,1,3,2,0,2,1,2,3,3,0,3,1,3,2,0,0,0,1,0,2,0,3,1,0,1,2,1,3,2,0,2,1,2,3,3,0,3,1,3,2,0,0,0,1,0,2,0,3,1,0,1,2,1,3,2,0,2,1,2,3,3,0,3,1,3,2,0,0,0,2,2,0,0,0,0,1,0,2,0,3,13,0,13,1,13,3,0,0,0,2,2,0,0,0,0,1,0,2,0,3,1,0,1,2,1,3,2,0,2,1,2,3,3,0,3,1,3,2,0,0,0,2,1,0,1,2,2,0,3,0,3,2,0,0,0,1,0,2,0,3,13,0,13,2,0,0,0,1,0,2,0,3,1,0,1,2,1,3,2,0,2,1,2,3,3,0,3,1,3,2,0,0,0,1,0,2,0,3,1,0,1,2,1,3,2,0,2,1,2,3,3,0,3,1,3,2,0,0,0,13,13,0,0,0,0,2,2,0,0,0,0,13,13,0,0,0,0,13,13,0,0,0,0,2,1,0,1,2,2,0,3,0,3,2,0,0,0,1,0,2,0,3,1,0,1,2,1,3,2,0,2,1,2,3,3,0,3,1,3,2,0,0,0,1,0,2,0,3,13,0,13,1,13,3,0,0,0,1,0,2,0,3,1,0,1,2,1,3,2,0,2,1,2,3,3,0,3,1,3,2,0,0,0,1,0,2,0,3,13,0,13,1,13,3,0,0,0,1,0,2,0,3,1,0,1,2,1,3,2,0,2,1,2,3,3,0,3,1,3,2,0,0,0,1,0,2,0,3,13,0,13,2,0,0,0,1,0,2,0,3,1,0,1,2,1,3,2,0,2,1,2,3,3,0,3,1,3,2,0,0,0,1,0,2,0,3,13,0,13,1,13,3,0,0,0,2,1,0,1,2,2,0,3,0,3,2,0,0,0,2,2,0,0,0,0,1,0,2,0,3,13,0,13,1,13,3,0,0,0,2,1,0,1,2,2,0,3,0,3,2,0,0,0,2,2,0,0,0,0,2,2,0,0,0,0,1,0,2,0,3,1,0,1,2,1,3,2,0,2,1,2,3,3,0,3,1,3,2,0,0,0,2,2,0,0,0,0,1,0,2,0,3,1,0,1,2,1,3,2,0,2,1,2,3,3,0,3,1,3,2,0,0,0,2,1,0,1,2,2,0,3,0,3,2,0,0,0,13,13,0,0,0,0,2,2,0,0,0,0,1,0,2,0,3,1,0,1,2,1,3,2,0,2,1,2,3,3,0,3,1,3,2,0,0,0,2,1,0,1,2,2,0,3,0,3,2,0,0,0,1,0,2,0,3,13,0,13,1,13,3,0,0,0,1,0,2,0,3,13,0,13,1,13,3,0,0,0,2,1,0,1,2,2,0,3,0,3,2,0,0,0,1,0,2,0,3,1,0,1,2,1,3,2,0,2,1,2,3,3,0,3,1,3,2,0,0,0,2,2,0,0,0,0,1,0,2,0,3,1,0,1,2,1,3,2,0,2,1,2,3,3,0,3,1,3,2,0,0,0,13,13,0,0,0,0,2,1,0,1,2,2,0,3,0,3,2,0,0,0,1,0,2,0,3,13,0,13,2,0,0,0,1,0,2,0,3,1,0,1,2,1,3,2,0,2,1,2,3,3,0,3,1,3,2,0,0,0,13,13,0,0,0,0,2,1,0,1,2,2,0,3,0,3,2,0,0,0,1,0,2,0,3,13,0,13,2,0,0,0,1,0,2,0,3,1,0,1,2,1,3,2,0,2,1,2,3,3,0,3,1,3,2,0,0,0,1,0,2,0,3,1,0,1,2,1,3,2,0,2,1,2,3,3,0,3,1,3,2,0,0,0,2,2,0,0,0,0,13,13,0,0,0,0,1,0,2,0,3,1,0,1,2,1,3,2,0,2,1,2,3,3,0,3,1,3,2,0,0,0,1,0,2,0,3,13,0,13,1,13,3,0,0,0,1,0,2,0,3,1,0,1,2,1,3,2,0,2,1,2,3,3,0,3,1,3,2,0,0,0,2,2,0,0,0,0,1,0,2,0,3,1,0,1,2,1,3,2,0,2,1,2,3,3,0,3,1,3,2,0,0,0,13,13,0,0,0,0,1,0,2,0,3,13,0,13,1,13,3,0,0,0,2,1,0,1,2,2,0,3,0,3,2,0,0,0,2,1,0,1,2,2,0,3,0,3,2,0,0,0,1,0,2,0,3,1,0,1,2,1,3,2,0,2,1,2,3,3,0,3,1,3,2,0,0,0,1,0,2,0,3,1,0,1,2,1,3,2,0,2,1,2,3,3,0,3,1,3,2,0,0,0,1,0,2,0,3,1,0,1,2,1,3,2,0,2,1,2,3,3,0,3,1,3,2,0,0,0,1,0,2,0,3,2,0,2,1,2,3,0,0,0,1,0,2,0,3,1,0,1,2,1,3,2,0,2,1,2,3,3,0,3,1,3,2,0,0,0,1,0,2,0,3,1,0,1,2,1,3,2,0,2,1,2,3,3,0,3,1,3,2,0,0,0,1,0,2,0,3,1,0,1,2,1,3,2,0,2,1,2,3,3,0,3,1,3,2,0,0,0,1,0,2,0,3,1,0,1,2,1,3,2,0,2,1,2,3,3,0,3,1,3,2,0,0,0,2,2,0,0,0,0,1,0,2,0,3,13,0,13,1,13,2,0,0,0,13,13,0,0,0,0,2,1,0,1,2,2,0,3,0,3,2,0,0,0,13,13,0,0,0,0,2,2,0,0,0,0,1,0,2,0,3,13,0,13,1,13,3,0,0,0,1,0,2,0,3,1,0,1,1,1,2,1,3,2,0,2,1,2,2,2,3,3,0,3,2,3,3,0,0,0,1,0,2,0,3,1,0,1,2,1,3,2,0,2,1,2,3,3,0,3,1,3,2,0,0,0,2,2,0,0,0,0,1,0,2,0,3,1,0,1,2,1,3,2,0,2,1,2,3,3,0,3,1,3,2,0,0,0,2,2,0,0,0,0,1,0,2,0,3,1,0,1,2,1,3,2,0,2,1,2,3,3,0,3,1,3,2,0,0,0,1,0,2,0,3,1,0,1,2,1,3,2,0,2,1,2,3,3,0,3,1,3,2,0,0,0,1,0,2,0,3,1,0,1,2,1,3,2,0,2,1,2,3,3,0,3,1,3,2,0,0,0,1,0,2,0,3,1,0,1,2,1,3,2,0,2,1,2,3,3,0,3,1,3,2,0,0,0,1,0,2,0,3,1,0,1,2,1,3,2,0,2,1,2,3,3,0,3,1,3,2,0,0,0,1,0,2,0,3,1,0,1,2,1,3,2,0,2,1,2,3,3,0,3,1,3,2,0,0,0,2,1,0,1,2,2,0,3,0,3,2,0,0,0,1,0,2,0,3,1,0,1,2,1,3,2,0,2,1,2,3,3,0,3,1,3,2,0,0,0,2,1,0,1,2,2,0,3,0,3,2,0,0,0,2,2,0,0,0,0,1,0,2,0,3,1,0,1,2,1,3,2,0,2,1,2,3,3,0,3,1,3,2,0,0,0,2,1,0,2,0,2,2,3,0,3,2,0,0,0,1,0,2,0,3,1,0,1,2,1,3,2,0,2,1,2,3,3,0,3,1,3,2,0,0,0,2,2,0,0,0,0,1,0,2,0,3,1,0,1,2,1,3,2,0,2,1,2,3,3,0,3,1,3,2,0,0,0,1,0,2,0,3,1,0,1,2,1,3,2,0,2,1,2,3,3,0,3,1,3,2,0,0,0,13,13,0,0,0,0,1,0,2,0,3,1,0,1,2,1,3,2,0,2,1,2,3,3,0,3,1,3,2,0,0,0,1,0,2,0,3,1,0,1,2,1,3,2,0,2,1,2,3,3,0,3,1,3,2,0,0,0,1,0,2,0,3,1,0,1,2,1,3,2,0,2,1,2,3,3,0,3,1,3,2,0,0,0,2,2,0,0,0,0,13,13,0,0,0,0,2,2,0,0,0,0,2,1,0,1,2,2,0,3,0,3,2,0,0,0,2,1,0,1,2,2,0,3,0,3,2,0,0,0,1,0,2,0,3,13,0,13,2,0,0,0,1,0,2,0,3,1,0,1,2,1,3,2,0,2,1,2,3,3,0,3,1,3,2,0,0,0,1,0,2,0,3,1,0,1,2,1,3,2,0,2,1,2,3,3,0,3,1,3,2,0,0,0,1,0,2,0,3,13,0,13,1,13,2,0,0,0,2,1,0,1,2,2,0,3,0,3,2,0,0,0,2,1,0,1,2,2,0,3,0,3,2,0,0,0,2,2,0,0,0,0,1,0,2,0,3,1,0,1,2,1,3,2,0,2,1,2,3,3,0,3,1,3,2,0,0,0,1,0,2,0,3,1,0,1,2,1,3,2,0,2,1,2,3,3,0,3,1,3,2,0,0,0,2,2,0,0,0,0,1,0,2,0,3,13,0,13,2,13,3,0,0,0,2,2,0,0,0,0,1,0,2,0,3,2,0,2,1,2,3,0,0,0,1,0,2,0,3,1,0,1,2,1,3,2,0,2,1,2,3,3,0,3,1,3,2,0,0,0,13,13,0,0,0,0,13,13,0,0,0,0,2,2,0,0,0,0,13,13,0,0,0,0,1,0,2,0,3,13,0,13,2,0,0,0,13,13,0,0,0,0,1,0,2,0,3,1,0,1,2,1,3,2,0,2,1,2,3,3,0,3,1,3,2,0,0,0,1,0,2,0,3,1,0,1,2,1,3,2,0,2,1,2,3,3,0,3,1,3,2,0,0,0,2,1,0,1,2,2,0,2,2,3,0,0,0,0,1,0,2,0,3,1,0,1,2,1,3,2,0,2,1,2,3,3,0,3,1,3,2,0,0,0,2,1,0,2,0,2,2,3,0,3,2,0,0,0,1,0,2,0,3,1,0,1,2,1,3,2,0,2,1,2,3,3,0,3,1,3,2,0,0,0,1,0,2,0,3,1,0,1,2,1,3,2,0,2,1,2,3,3,0,3,1,3,2,0,0,0,1,0,2,0,3,1,0,1,2,1,3,2,0,2,1,2,3,3,0,3,1,3,2,0,0,0,1,0,2,0,3,1,0,1,2,1,3,2,0,2,1,2,3,3,0,3,1,3,2,0,0,0,2,1,0,1,2,2,0,3,0,3,2,0,0,0,1,0,2,0,3,2,0,2,1,2,3,0,0,0,2,1,0,1,2,2,0,2,2,3,0,0,0,0,2,13,0,0,0,0,1,0,2,0,3,1,0,1,2,1,3,2,0,2,1,2,3,3,0,3,1,3,2,0,0,0,1,0,2,0,3,1,0,1,2,1,3,2,0,2,1,2,3,3,0,3,1,3,2,0,0,0,13,13,0,0,0,0,2,2,0,0,0,0,1,0,2,0,3,1,0,1,2,1,3,2,0,2,1,2,3,3,0,3,1,3,2,0,0,0,2,1,0,2,0,2,2,3,0,3,2,0,0,0,13,13,0,0,0,0,1,0,2,0,3,13,0,13,2,0,0,0,1,0,2,0,3,1,0,1,2,1,3,2,0,2,1,2,3,3,0,3,1,3,2,0,0,0,2,1,0,1,2,2,0,3,0,3,2,0,0,0,2,2,0,0,0,0,2,2,0,0,0,0,2,1,0,1,2,2,0,3,0,3,2,0,0,0,1,0,2,0,3,1,0,1,2,1,3,2,0,2,1,2,3,3,0,3,1,3,2,0,0,0,2,1,0,1,2,2,0,2,2,3,0,0,0,0,2,1,0,1,2,2,0,2,2,3,0,0,0,0,1,0,2,0,3,1,0,1,2,1,3,2,0,2,1,2,3,3,0,3,1,3,2,0,0,0,1,0,2,0,3,2,0,2,1,2,3,0,0,0,1,0,2,0,3,1,0,1,2,1,3,2,0,2,1,2,3,3,0,3,1,3,2,0,0,0,1,0,2,0,3,13,0,13,1,13,3,0,0,0,2,1,0,1,2,2,0,3,0,3,2,0,0,0,2,1,0,1,2,2,0,2,2,3,0,0,0,0,1,0,2,0,3,1,0,1,2,1,3,2,0,2,1,2,3,3,0,3,1,3,2,0,0,0,1,0,2,0,3,13,0,13,2,0,0,0,1,0,2,0,3,13,0,13,2,0,0,0,1,0,2,0,3,1,0,1,2,1,3,2,0,2,1,2,3,3,0,3,1,3,2,0,0,0,1,0,2,0,3,13,0,13,1,13,3,0,0,0,1,0,2,0,3,1,0,1,2,1,3,2,0,2,1,2,3,3,0,3,1,3,2,0,0,0,1,0,2,0,3,13,0,13,2,0,0,0,1,0,2,0,3,13,0,13,2,0,0,0,1,0,2,0,3,1,0,1,2,1,3,2,0,2,1,2,3,3,0,3,1,3,2,0,0,0,1,0,2,0,3,1,0,1,2,1,3,2,0,2,1,2,3,3,0,3,1,3,2,0,0,0,1,0,2,0,3,1,0,1,2,1,3,2,0,2,1,2,3,3,0,3,1,3,2,0,0,0,1,0,2,0,3,1,0,1,2,1,3,2,0,2,1,2,3,3,0,3,1,3,2,0,0,0,13,13,0,0,0,0,2,1,0,2,0,2,2,3,0,3,2,0,0,0,1,0,2,0,3,1,0,1,2,1,3,2,0,2,1,2,3,3,0,3,1,3,2,0,0,0,1,0,2,0,3,13,0,13,2,0,0,0,1,0,2,0,3,1,0,1,2,1,3,2,0,2,1,2,3,3,0,3,1,3,2,0,0,0,13,13,0,0,0,0,1,0,2,0,3,1,0,1,2,1,3,2,0,2,1,2,3,3,0,3,1,3,2,0,0,0,2,1,0,1,2,2,0,3,0,3,2,0,0,0,1,0,2,0,3,2,0,2,1,2,3,0,0,0,1,0,2,0,3,1,0,1,2,1,3,2,0,2,1,2,3,3,0,3,1,3,2,0,0,0,2,1,0,2,0,2,2,3,0,3,2,0,0,0,1,0,2,0,3,1,0,1,2,1,3,2,0,2,1,2,3,3,0,3,1,3,2,0,0,0,1,0,2,0,3,1,0,1,2,1,3,2,0,2,1,2,3,3,0,3,1,3,2,0,0,0,1,0,2,0,3,1,0,1,1,1,2,1,3,2,0,2,1,2,2,2,3,3,0,3,2,3,3,0,0,0,13,13,0,0,0,0,1,0,2,0,3,1,0,1,2,1,3,2,0,2,1,2,3,3,0,3,1,3,2,0,0,0,1,0,2,0,3,1,0,1,2,1,3,2,0,2,1,2,3,3,0,3,1,3,2,0,0,0,1,0,2,0,3,13,0,13,1,13,3,0,0,0,1,0,2,0,3,2,0,2,1,2,3,0,0,0,2,1,0,1,2,2,0,3,0,3,2,0,0,0,13,1,0,2,0,2,13,3,0,0,0,0,13,13,0,0,0,0,2,1,0,1,2,2,0,3,0,3,2,0,0,0,2,2,0,0,0,0,2,1,0,1,2,2,0,3,0,3,2,0,0,0,1,0,2,0,3,1,0,1,2,1,3,2,0,2,1,2,3,3,0,3,1,3,2,0,0,0,1,0,2,0,3,1,0,1,2,1,3,2,0,2,1,2,3,3,0,3,1,3,2,0,0,0,2,2,0,0,0,0,2,2,0,0,0,0,2,1,0,1,2,2,0,3,0,3,2,0,0,0,2,1,0,1,2,2,0,3,0,3,2,0,0,0,2,1,0,2,0,2,2,3,0,3,2,0,0,0,1,0,2,0,3,1,0,1,2,1,3,2,0,2,1,2,3,3,0,3,1,3,2,0,0,0,13,1,0,2,0,2,13,3,0,0,0,0,1,0,2,0,3,2,0,2,1,2,3,0,0,0,13,13,0,0,0,0,1,0,2,0,3,1,0,1,2,1,3,2,0,2,1,2,3,3,0,3,1,3,2,0,0,0,2,1,0,1,2,2,0,3,0,3,2,0,0,0,2,1,0,1,2,2,0,3,0,3,2,0,0,0,2,1,0,1,2,2,0,3,0,3,2,0,0,0,13,13,0,0,0,0,1,0,2,0,3,1,0,1,2,1,3,2,0,2,1,2,3,3,0,3,1,3,2,0,0,0,1,0,2,0,3,13,0,13,1,13,2,0,0,0,1,0,2,0,3,1,0,1,2,1,3,2,0,2,1,2,3,3,0,3,1,3,2,0,0,0,1,0,2,0,3,1,0,1,2,1,3,2,0,2,1,2,3,3,0,3,1,3,2,0,0,0,1,0,2,0,3,1,0,1,2,1,3,2,0,2,1,2,3,3,0,3,1,3,2,0,0,0,1,0,2,0,3,1,0,1,2,1,3,2,0,2,1,2,3,3,0,3,1,3,2,0,0,0,1,0,2,0,3,1,0,1,2,1,3,2,0,2,1,2,3,3,0,3,1,3,2,0,0,0,1,0,2,0,3,1,0,1,2,1,3,2,0,2,1,2,3,3,0,3,1,3,2,0,0,0,2,2,0,0,0,0,1,0,2,0,3,1,0,1,2,1,3,2,0,2,1,2,3,3,0,3,1,3,2,0,0,0,2,2,0,0,0,0,1,0,2,0,3,1,0,1,1,1,2,1,3,2,0,2,1,2,2,2,3,3,0,3,2,3,3,0,0,0,1,0,2,0,3,2,0,2,1,2,3,0,0,0,1,0,2,0,3,1,0,1,2,1,3,2,0,2,1,2,3,3,0,3,1,3,2,0,0,0,2,1,0,1,2,2,0,3,0,3,2,0,0,0,1,0,2,0,3,1,0,1,2,1,3,2,0,2,1,2,3,3,0,3,1,3,2,0,0,0,1,0,2,0,3,1,0,1,1,1,2,1,3,2,0,2,2,2,3,3,0,3,1,3,2,3,3,0,0,0,1,0,2,0,3,1,0,1,2,1,3,2,0,2,1,2,3,3,0,3,1,3,2,0,0,0,1,0,2,0,3,1,0,1,2,1,3,2,0,2,1,2,3,3,0,3,1,3,2,0,0,0,1,0,2,0,3,1,0,1,2,1,3,2,0,2,1,2,3,3,0,3,1,3,2,0,0,0,2,1,0,1,2,2,0,3,0,3,2,0,0,0,13,13,0,0,0,0,2,1,0,1,2,2,0,3,0,3,2,0,0,0,1,0,2,0,3,1,0,1,2,1,3,2,0,2,1,2,3,3,0,3,1,3,2,0,0,0,1,0,2,0,3,13,0,13,1,13,3,0,0,0,13,13,0,0,0,0,1,0,2,0,3,1,0,1,2,1,3,2,0,2,1,2,3,3,0,3,1,3,2,0,0,0,1,0,2,0,3,2,0,2,1,2,3,0,0,0,1,0,2,0,3,13,0,13,1,13,3,0,0,0,1,0,2,0,3,13,0,13,2,0,0,0,1,0,2,0,3,1,0,1,2,1,3,2,0,2,1,2,3,3,0,3,1,3,2,0,0,0,2,1,0,1,2,2,0,3,0,3,2,0,0,0,1,0,2,0,3,13,0,13,1,13,3,0,0,0,2,2,0,0,0,0,1,0,2,0,3,1,0,1,2,1,3,2,0,2,1,2,3,3,0,3,1,3,2,0,0,0,13,13,0,0,0,0,1,0,2,0,3,13,0,13,2,0,0,0,1,0,2,0,3,1,0,1,2,1,3,2,0,2,1,2,3,3,0,3,1,3,2,0,0,0,2,2,0,0,0,0,1,0,2,0,3,13,0,13,2,0,0,0,1,0,2,0,3,1,0,1,2,1,3,2,0,2,1,2,3,3,0,3,1,3,2,0,0,0,1,0,2,0,3,13,0,13,2,13,3,0,0,0,1,0,2,0,3,1,0,1,2,1,3,2,0,2,1,2,3,3,0,3,1,3,2,0,0,0,13,13,0,0,0,0,1,0,2,0,3,1,0,1,2,1,3,2,0,2,1,2,3,3,0,3,1,3,2,0,0,0,1,0,2,0,3,1,0,1,2,1,3,2,0,2,1,2,3,3,0,3,1,3,2,0,0,0,1,0,2,0,3,2,0,2,1,2,3,0,0,0,1,0,2,0,3,1,0,1,2,1,3,2,0,2,1,2,3,3,0,3,1,3,2,0,0,0,2,2,0,0,0,0,13,13,0,0,0,0,13,13,0,0,0,0,1,0,2,0,3,13,0,13,1,13,2,0,0,0,2,1,0,1,2,2,0,3,0,3,2,0,0,0,13,13,0,0,0,0,2,1,0,1,2,2,0,3,0,3,2,0,0,0,1,0,2,0,3,1,0,1,1,1,2,1,3,2,0,2,2,2,3,3,0,3,1,3,2,3,3,0,0,0,2,2,0,0,0,0,1,0,2,0,3,1,0,1,2,1,3,2,0,2,1,2,3,3,0,3,1,3,2,0,0,0,1,0,2,0,3,1,0,1,2,1,3,2,0,2,1,2,3,3,0,3,1,3,2,0,0,0,2,1,0,1,2,2,0,3,0,3,2,0,0,0,2,1,0,1,2,2,0,3,0,3,2,0,0,0,2,1,0,1,2,2,0,3,0,3,2,0,0,0,13,13,0,0,0,0,2,2,0,0,0,0,1,0,2,0,3,1,0,1,2,1,3,2,0,2,1,2,3,3,0,3,1,3,2,0,0,0,1,0,2,0,3,2,0,2,1,2,3,0,0,0,1,0,2,0,3,1,0,1,2,1,3,2,0,2,1,2,3,3,0,3,1,3,2,0,0,0,1,0,2,0,3,1,0,1,2,1,3,2,0,2,1,2,3,3,0,3,1,3,2,0,0,0,1,0,2,0,3,13,0,13,2,0,0,0,1,0,2,0,3,13,0,13,2,13,3,0,0,0,1,0,2,0,3,1,0,1,2,1,3,2,0,2,1,2,3,3,0,3,1,3,2,0,0,0,2,1,0,1,2,2,0,3,0,3,2,0,0,0,1,0,2,0,3,1,0,1,2,1,3,2,0,2,1,2,3,3,0,3,1,3,2,0,0,0,2,1,0,1,2,2,0,3,0,3,2,0,0,0,1,0,2,0,3,2,0,2,1,2,3,0,0,0,1,0,2,0,3,13,0,13,1,13,3,0,0,0,1,0,2,0,3,1,0,1,2,1,3,2,0,2,1,2,3,3,0,3,1,3,2,0,0,0,2,1,0,1,2,2,0,3,0,3,2,0,0,0,1,0,2,0,3,1,0,1,2,1,3,2,0,2,1,2,3,3,0,3,1,3,2,0,0,0,1,0,2,0,3,1,0,1,2,1,3,2,0,2,1,2,3,3,0,3,1,3,2,0,0,0,2,1,0,1,2,2,0,3,0,3,2,0,0,0,1,0,2,0,3,1,0,1,2,1,3,2,0,2,1,2,3,3,0,3,1,3,2,0,0,0,13,13,0,0,0,0,1,0,2,0,3,2,0,2,1,2,3,0,0,0,1,0,2,0,3,13,0,13,1,13,3,0,0,0,1,0,2,0,3,13,0,13,2,0,0,0,1,0,2,0,3,1,0,1,2,1,3,2,0,2,1,2,3,3,0,3,1,3,2,0,0,0,1,0,2,0,3,1,0,1,2,1,3,2,0,2,1,2,3,3,0,3,1,3,2,0,0,0,13,1,0,2,0,2,13,3,0,0,0,0,1,0,2,0,3,1,0,1,2,1,3,2,0,2,1,2,3,3,0,3,1,3,2,0,0,0,2,2,0,0,0,0,13,13,0,0,0,0,1,0,2,0,3,1,0,1,2,1,3,2,0,2,1,2,3,3,0,3,1,3,2,0,0,0,1,0,2,0,3,13,0,13,1,13,3,0,0,0,1,0,2,0,3,13,0,13,2,0,0,0,1,0,2,0,3,1,0,1,2,1,3,2,0,2,1,2,3,3,0,3,1,3,2,0,0,0,1,0,2,0,3,13,0,13,2,13,3,0,0,0,13,13,0,0,0,0,1,0,2,0,3,13,0,13,2,13,3,0,0,0,13,13,0,0,0,0,13,13,0,0,0,0,1,0,2,0,3,1,0,1,2,1,3,2,0,2,1,2,3,3,0,3,1,3,2,0,0,0,1,0,2,0,3,1,0,1,2,1,3,2,0,2,1,2,3,3,0,3,1,3,2,0,0,0,13,13,0,0,0,0,1,0,2,0,3,1,0,1,2,1,3,2,0,2,1,2,3,3,0,3,1,3,2,0,0,0,1,0,2,0,3,13,0,13,2,0,0,0,13,13,0,0,0,0,1,0,2,0,3,1,0,1,2,1,3,2,0,2,1,2,3,3,0,3,1,3,2,0,0,0,2,2,0,0,0,0,1,0,2,0,3,1,0,1,2,1,3,2,0,2,1,2,3,3,0,3,1,3,2,0,0,0,1,0,2,0,3,1,0,1,2,1,3,2,0,2,1,2,3,3,0,3,1,3,2,0,0,0,2,1,0,1,2,2,0,3,0,3,2,0,0,0,1,0,2,0,3,1,0,1,1,1,2,1,3,2,0,2,1,2,2,2,3,3,0,3,2,3,3,0,0,0,13,13,0,0,0,0,1,0,2,0,3,1,0,1,2,1,3,2,0,2,1,2,3,3,0,3,1,3,2,0,0,0,1,0,2,0,3,1,0,1,2,1,3,2,0,2,1,2,3,3,0,3,1,3,2,0,0,0,1,0,2,0,3,1,0,1,2,1,3,2,0,2,1,2,3,3,0,3,1,3,2,0,0,0,1,0,2,0,3,1,0,1,2,1,3,2,0,2,1,2,3,3,0,3,1,3,2,0,0,0,2,1,0,1,2,2,0,3,0,3,2,0,0,0,2,2,0,0,0,0,1,0,2,0,3,13,0,13,2,0,0,0,1,0,2,0,3,1,0,1,2,1,3,2,0,2,1,2,3,3,0,3,1,3,2,0,0,0,13,13,0,0,0,0,2,2,0,0,0,0,1,0,2,0,3,1,0,1,2,1,3,2,0,2,1,2,3,3,0,3,1,3,2,0,0,0,1,0,2,0,3,1,0,1,2,1,3,2,0,2,1,2,3,3,0,3,1,3,2,0,0,0,1,0,2,0,3,1,0,1,2,1,3,2,0,2,1,2,3,3,0,3,1,3,2,0,0,0,1,0,2,0,3,13,0,13,2,0,0,0,1,0,2,0,3,1,0,1,2,1,3,2,0,2,1,2,3,3,0,3,1,3,2,0,0,0,1,0,2,0,3,1,0,1,2,1,3,2,0,2,1,2,3,3,0,3,1,3,2,0,0,0,2,2,0,0,0,0,2,2,0,0,0,0,13,13,0,0,0,0,1,0,2,0,3,1,0,1,2,1,3,2,0,2,1,2,3,3,0,3,1,3,2,0,0,0,1,0,2,0,3,1,0,1,2,1,3,2,0,2,1,2,3,3,0,3,1,3,2,0,0,0,2,2,0,0,0,0,1,0,2,0,3,13,0,13,2,0,0,0,1,0,2,0,3,13,0,13,1,13,3,0,0,0,1,0,2,0,3,13,0,13,2,13,3,0,0,0,2,2,0,0,0,0,1,0,2,0,3,1,0,1,2,1,3,2,0,2,1,2,3,3,0,3,1,3,2,0,0,0,13,13,0,0,0,0,1,0,2,0,3,1,0,1,2,1,3,2,0,2,1,2,3,3,0,3,1,3,2,0,0,0,1,0,2,0,3,1,0,1,2,1,3,2,0,2,1,2,3,3,0,3,1,3,2,0,0,0,1,0,2,0,3,1,0,1,2,1,3,2,0,2,1,2,3,3,0,3,1,3,2,0,0,0,2,2,0,0,0,0,1,0,2,0,3,1,0,1,2,1,3,2,0,2,1,2,3,3,0,3,1,3,2,0,0,0,2,1,0,1,2,2,0,3,0,3,2,0,0,0,2,1,0,1,2,2,0,3,0,3,2,0,0,0,1,0,2,0,3,1,0,1,2,1,3,2,0,2,1,2,3,3,0,3,1,3,2,0,0,0,1,0,2,0,3,1,0,1,2,1,3,2,0,2,1,2,3,3,0,3,1,3,2,0,0,0,1,0,2,0,3,1,0,1,2,1,3,2,0,2,1,2,3,3,0,3,1,3,2,0,0,0,1,0,2,0,3,1,0,1,2,1,3,2,0,2,1,2,3,3,0,3,1,3,2,0,0,0,13,13,0,0,0,0,1,0,2,0,3,1,0,1,2,1,3,2,0,2,1,2,3,3,0,3,1,3,2,0,0,0,2,1,0,1,2,2,0,3,0,3,2,0,0,0,1,0,2,0,3,13,0,13,2,0,0,0,2,2,0,0,0,0,1,0,2,0,3,13,0,13,2,0,0,0,2,1,0,1,2,2,0,3,0,3,2,0,0,0,2,2,0,0,0,0,1,0,2,0,3,1,0,1,2,1,3,2,0,2,1,2,3,3,0,3,1,3,2,0,0,0,2,1,0,1,2,2,0,2,2,3,0,0,0,0,1,0,2,0,3,1,0,1,2,1,3,2,0,2,1,2,3,3,0,3,1,3,2,0,0,0,1,0,2,0,3,1,0,1,2,1,3,2,0,2,1,2,3,3,0,3,1,3,2,0,0,0,1,0,2,0,3,1,0,1,2,1,3,2,0,2,1,2,3,3,0,3,1,3,2,0,0,0,2,2,0,0,0,0,1,0,2,0,3,1,0,1,2,1,3,2,0,2,1,2,3,3,0,3,1,3,2,0,0,0,2,2,0,0,0,0,13,13,0,0,0,0,1,0,2,0,3,13,0,13,2,0,0,0,1,0,2,0,3,1,0,1,2,1,3,2,0,2,1,2,3,3,0,3,1,3,2,0,0,0,1,0,2,0,3,1,0,1,2,1,3,2,0,2,1,2,3,3,0,3,1,3,2,0,0,0,1,0,2,0,3,1,0,1,2,1,3,2,0,2,1,2,3,3,0,3,1,3,2,0,0,0,2,1,0,1,2,2,0,3,0,3,2,0,0,0,1,0,2,0,3,1,0,1,2,1,3,2,0,2,1,2,3,3,0,3,1,3,2,0,0,0,1,0,2,0,3,1,0,1,2,1,3,2,0,2,1,2,3,3,0,3,1,3,2,0,0,0,2,1,0,2,0,2,2,3,0,3,2,0,0,0,1,0,2,0,3,1,0,1,2,1,3,2,0,2,1,2,3,3,0,3,1,3,2,0,0,0,1,0,2,0,3,1,0,1,2,1,3,2,0,2,1,2,3,3,0,3,1,3,2,0,0,0,1,0,2,0,3,1,0,1,2,1,3,2,0,2,1,2,3,3,0,3,1,3,2,0,0,0,1,0,2,0,3,1,0,1,2,1,3,2,0,2,1,2,3,3,0,3,1,3,2,0,0,0,2,2,0,0,0,0,1,0,2,0,3,13,0,13,1,13,3,0,0,0,2,1,0,1,2,2,0,3,0,3,2,0,0,0,1,0,2,0,3,1,0,1,2,1,3,2,0,2,1,2,3,3,0,3,1,3,2,0,0,0,2,2,0,0,0,0,1,0,2,0,3,2,0,2,1,2,3,0,0,0,13,13,0,0,0,0,2,2,0,0,0,0,1,0,2,0,3,1,0,1,2,1,3,2,0,2,1,2,3,3,0,3,1,3,2,0,0,0,1,0,2,0,3,1,0,1,2,1,3,2,0,2,1,2,2,2,3,3,0,3,1,3,2,3,3,0,0,0,1,0,2,0,3,2,0,2,1,2,3,0,0,0,13,13,0,0,0,0,13,13,0,0,0,0,1,0,2,0,3,1,0,1,1,1,2,1,3,2,0,2,2,2,3,3,0,3,1,3,2,3,3,0,0,0,1,0,2,0,3,1,0,1,2,1,3,2,0,2,1,2,3,3,0,3,1,3,2,0,0,0,13,13,0,0,0,0,1,0,2,0,3,1,0,1,2,1,3,2,0,2,1,2,3,3,0,3,1,3,2,0,0,0,1,0,2,0,3,1,0,1,2,1,3,2,0,2,1,2,3,3,0,3,1,3,2,0,0,0,2,1,0,2,0,2,2,3,0,3,2,0,0,0,1,0,2,0,3,1,0,1,2,1,3,2,0,2,1,2,3,3,0,3,1,3,2,0,0,0,13,13,0,0,0,0,1,0,2,0,3,1,0,1,2,1,3,2,0,2,1,2,3,3,0,3,1,3,2,0,0,0,1,0,2,0,3,13,0,13,1,13,3,0,0,0,1,0,2,0,3,1,0,1,2,1,3,2,0,2,1,2,3,3,0,3,1,3,2,0,0,0,1,0,2,0,3,13,0,13,2,0,0,0,1,0,2,0,3,1,0,1,2,1,3,2,0,2,1,2,3,3,0,3,1,3,2,0,0,0,1,0,2,0,3,1,0,1,2,1,3,2,0,2,1,2,3,3,0,3,1,3,2,0,0,0,1,0,2,0,3,1,0,1,2,1,3,2,0,2,1,2,3,3,0,3,1,3,2,0,0,0,1,0,2,0,3,1,0,1,2,1,3,2,0,2,1,2,3,3,0,3,1,3,2,0,0,0,1,0,2,0,3,1,0,1,2,1,3,2,0,2,1,2,3,3,0,3,1,3,2,0,0,0,2,2,0,0,0,0,1,0,2,0,3,1,0,1,2,1,3,2,0,2,1,2,3,3,0,3,1,3,2,0,0,0,1,0,2,0,3,1,0,1,2,1,3,2,0,2,1,2,2,2,3,3,0,3,1,3,2,3,3,0,0,0,1,0,2,0,3,1,0,1,2,1,3,2,0,2,1,2,3,3,0,3,1,3,2,0,0,0,1,0,2,0,3,1,0,1,2,1,3,2,0,2,1,2,3,3,0,3,1,3,2,0,0,0,1,0,2,0,3,13,0,13,2,0,0,0,1,0,2,0,3,1,0,1,2,1,3,2,0,2,1,2,3,3,0,3,1,3,2,0,0,0,2,1,0,1,2,2,0,3,0,3,2,0,0,0,13,13,0,0,0,0,2,2,0,0,0,0,1,0,2,0,3,13,0,13,2,0,0,0,2,2,0,0,0,0,13,13,0,0,0,0,2,2,0,0,0,0,1,0,2,0,3,13,0,13,2,0,0,0,1,0,2,0,3,1,0,1,2,1,3,2,0,2,1,2,2,2,3,3,0,3,1,3,2,3,3,0,0,0,13,13,0,0,0,0,13,13,0,0,0,0,1,0,2,0,3,2,0,2,1,2,3,0,0,0,1,0,2,0,3,1,0,1,2,1,3,2,0,2,1,2,3,3,0,3,1,3,2,0,0,0,1,0,2,0,3,1,0,1,2,1,3,2,0,2,1,2,3,3,0,3,1,3,2,0,0,0,1,0,2,0,3,1,0,1,2,1,3,2,0,2,1,2,3,3,0,3,1,3,2,0,0,0,2,2,0,0,0,0,13,13,0,0,0,0,1,0,2,0,3,13,0,13,2,0,0,0,2,2,0,0,0,0,1,0,2,0,3,1,0,1,2,1,3,2,0,2,1,2,3,3,0,3,1,3,2,0,0,0,1,0,2,0,3,1,0,1,2,1,3,2,0,2,1,2,3,3,0,3,1,3,2,0,0,0,13,13,0,0,0,0,1,0,2,0,3,13,0,13,1,13,3,0,0,0,1,0,2,0,3,1,0,1,2,1,3,2,0,2,1,2,3,3,0,3,1,3,2,0,0,0,2,1,0,1,2,2,0,2,2,3,0,0,0,0,1,0,2,0,3,13,0,13,1,13,3,0,0,0,2,2,0,0,0,0,13,13,0,0,0,0,2,2,0,0,0,0,1,0,2,0,3,1,0,1,2,1,3,2,0,2,1,2,3,3,0,3,1,3,2,0,0,0,1,0,2,0,3,1,0,1,2,1,3,2,0,2,1,2,3,3,0,3,1,3,2,0,0,0,1,0,2,0,3,13,0,13,1,13,3,0,0,0,1,0,2,0,3,1,0,1,2,1,3,2,0,2,1,2,3,3,0,3,1,3,2,0,0,0,2,2,0,0,0,0,2,1,0,1,2,2,0,3,0,3,2,0,0,0,1,0,2,0,3,1,0,1,2,1,3,2,0,2,1,2,3,3,0,3,1,3,2,0,0,0,1,0,2,0,3,1,0,1,2,1,3,2,0,2,1,2,3,3,0,3,1,3,2,0,0,0,13,13,0,0,0,0,2,1,0,2,0,2,2,3,0,3,2,0,0,0,1,0,2,0,3,1,0,1,2,1,3,2,0,2,1,2,3,3,0,3,1,3,2,0,0,0,1,0,2,0,3,1,0,1,2,1,3,2,0,2,1,2,3,3,0,3,1,3,2,0,0,0,1,0,2,0,3,1,0,1,2,1,3,2,0,2,1,2,3,3,0,3,1,3,2,0,0,0,2,1,0,1,2,2,0,3,0,3,2,0,0,0,2,2,0,0,0,0,1,0,2,0,3,1,0,1,2,1,3,2,0,2,1,2,3,3,0,3,1,3,2,0,0,0,13,13,0,0,0,0,2,2,0,0,0,0,1,0,2,0,3,1,0,1,2,1,3,2,0,2,1,2,3,3,0,3,1,3,2,0,0,0,13,13,0,0,0,0,2,1,0,1,2,2,0,3,0,3,2,0,0,0,1,0,2,0,3,1,0,1,2,1,3,2,0,2,1,2,3,3,0,3,1,3,2,0,0,0,1,0,2,0,3,1,0,1,2,1,3,2,0,2,1,2,3,3,0,3,1,3,2,0,0,0,2,2,0,0,0,0,2,1,0,1,2,2,0,3,0,3,2,0,0,0,1,0,2,0,3,13,0,13,2,0,0,0,13,1,0,2,0,2,13,3,0,0,0,0,13,13,0,0,0,0,2,2,0,0,0,0,1,0,2,0,3,1,0,1,2,1,3,2,0,2,1,2,3,3,0,3,1,3,2,0,0,0,1,0,2,0,3,13,0,13,2,13,3,0,0,0,1,0,2,0,3,1,0,1,2,1,3,2,0,2,1,2,3,3,0,3,1,3,2,0,0,0,1,0,2,0,3,1,0,1,2,1,3,2,0,2,1,2,3,3,0,3,1,3,2,0,0,0,1,0,2,0,3,13,0,13,1,13,3,0,0,0,1,0,2,0,3,1,0,1,2,1,3,2,0,2,1,2,3,3,0,3,1,3,2,0,0,0,1,0,2,0,3,1,0,1,2,1,3,2,0,2,1,2,3,3,0,3,1,3,2,0,0,0,1,0,2,0,3,13,0,13,1,13,3,0,0,0,1,0,2,0,3,1,0,1,2,1,3,2,0,2,1,2,3,3,0,3,1,3,2,0,0,0,1,0,2,0,3,1,0,1,2,1,3,2,0,2,1,2,3,3,0,3,1,3,2,0,0,0,2,1,0,1,2,2,0,3,0,3,2,0,0,0,1,0,2,0,3,1,0,1,2,1,3,2,0,2,1,2,3,3,0,3,1,3,2,0,0,0,1,0,2,0,3,1,0,1,2,1,3,2,0,2,1,2,3,3,0,3,1,3,2,0,0,0,1,0,2,0,3,1,0,1,1,1,2,1,3,2,0,2,1,2,2,3,0,3,1,3,2,3,3,0,0,0,2,1,0,1,2,2,0,3,0,3,2,0,0,0,1,0,2,0,3,1,0,1,2,1,3,2,0,2,1,2,3,3,0,3,1,3,2,0,0,0,2,2,0,0,0,0,1,0,2,0,3,1,0,1,2,1,3,2,0,2,1,2,3,3,0,3,1,3,2,0,0,0,1,0,2,0,3,2,0,2,1,2,3,0,0,0,1,0,2,0,3,13,0,13,2,13,3,0,0,0,2,1,0,1,2,2,0,3,0,3,2,0,0,0,2,1,0,1,2,2,0,3,0,3,2,0,0,0,2,2,0,0,0,0,2,2,0,0,0,0,2,1,0,1,2,2,0,3,0,3,2,0,0,0,1,0,2,0,3,1,0,1,2,1,3,2,0,2,1,2,3,3,0,3,1,3,2,0,0,0,2,2,0,0,0,0,1,0,2,0,3,1,0,1,2,1,3,2,0,2,1,2,3,3,0,3,1,3,2,0,0,0,1,0,2,0,3,2,0,2,1,2,3,0,0,0,1,0,2,0,3,1,0,1,2,1,3,2,0,2,1,2,3,3,0,3,1,3,2,0,0,0,1,0,2,0,3,1,0,1,2,1,3,2,0,2,1,2,3,3,0,3,1,3,2,0,0,0,1,0,2,0,3,13,0,13,1,13,3,0,0,0,1,0,2,0,3,1,0,1,2,1,3,2,0,2,1,2,3,3,0,3,1,3,2,0,0,0,13,13,0,0,0,0,2,2,0,0,0,0,13,13,0,0,0,0,2,2,0,0,0,0,2,2,0,0,0,0,1,0,2,0,3,1,0,1,2,1,3,2,0,2,1,2,3,3,0,3,1,3,2,0,0,0,2,2,0,0,0,0,1,0,2,0,3,1,0,1,1,1,2,1,3,2,0,2,2,2,3,3,0,3,1,3,2,3,3,0,0,0,1,0,2,0,3,1,0,1,2,1,3,2,0,2,1,2,3,3,0,3,1,3,2,0,0,0,13,13,0,0,0,0,1,0,2,0,3,13,0,13,2,13,3,0,0,0,13,13,0,0,0,0,1,0,2,0,3,1,0,1,2,1,3,2,0,2,1,2,3,3,0,3,1,3,2,0,0,0,2,2,0,0,0,0,2,2,0,0,0,0,13,13,0,0,0,0,1,0,2,0,3,13,0,13,1,13,3,0,0,0,1,0,2,0,3,1,0,1,2,1,3,2,0,2,1,2,3,3,0,3,1,3,2,0,0,0,13,13,0,0,0,0,2,2,0,0,0,0,1,0,2,0,3,1,0,1,2,1,3,2,0,2,1,2,3,3,0,3,1,3,2,0,0,0,1,0,2,0,3,1,0,1,2,1,3,2,0,2,1,2,3,3,0,3,1,3,2,0,0,0,1,0,2,0,3,1,0,1,2,1,3,2,0,2,1,2,3,3,0,3,1,3,2,0,0,0,2,1,0,1,2,2,0,3,0,3,2,0,0,0,1,0,2,0,3,1,0,1,2,1,3,2,0,2,1,2,3,3,0,3,1,3,2,0,0,0,1,0,2,0,3,1,0,1,2,1,3,2,0,2,1,2,3,3,0,3,1,3,2,0,0,0,1,0,2,0,3,13,0,13,2,13,3,0,0,0,1,0,2,0,3,1,0,1,1,1,3,2,0,2,1,2,2,3,0,3,1,3,2,3,3,0,0,0,1,0,2,0,3,13,0,13,1,13,3,0,0,0,2,2,0,0,0,0,1,0,2,0,3,13,0,13,1,13,3,0,0,0,1,0,2,0,3,13,0,13,1,13,3,0,0,0,13,13,0,0,0,0,1,0,2,0,3,1,0,1,2,1,3,2,0,2,1,2,3,3,0,3,1,3,2,0,0,0,1,0,2,0,3,1,0,1,2,1,3,2,0,2,1,2,3,3,0,3,1,3,2,0,0,0,13,13,0,0,0,0,2,1,0,1,2,2,0,2,2,3,0,0,0,0,1,0,2,0,3,1,0,1,2,1,3,2,0,2,1,2,3,3,0,3,1,3,2,0,0,0,1,0,2,0,3,2,0,2,1,2,2,0,0,0,1,0,2,0,3,1,0,1,2,1,3,2,0,2,1,2,3,3,0,3,1,3,2,0,0,0,1,0,2,0,3,1,0,1,2,1,3,2,0,2,1,2,3,3,0,3,1,3,2,0,0,0,2,1,0,1,2,2,0,3,0,3,2,0,0,0,2,2,0,0,0,0,2,1,0,1,2,2,0,3,0,3,2,0,0,0,2,2,0,0,0,0,1,0,2,0,3,1,0,1,2,1,3,2,0,2,1,2,3,3,0,3,1,3,2,0,0,0,2,2,0,0,0,0,1,0,2,0,3,1,0,1,2,1,3,2,0,2,1,2,3,3,0,3,1,3,2,0,0,0,1,0,2,0,3,1,0,1,2,1,3,2,0,2,1,2,3,3,0,3,1,3,2,0,0,0,1,0,2,0,3,1,0,1,2,1,3,2,0,2,1,2,3,3,0,3,1,3,2,0,0,0,1,0,2,0,3,1,0,1,2,1,3,2,0,2,1,2,3,3,0,3,1,3,2,0,0,0,1,0,2,0,3,13,0,13,1,13,3,0,0,0,1,0,2,0,3,1,0,1,2,1,3,2,0,2,1,2,3,3,0,3,1,3,2,0,0,0,13,13,0,0,0,0,2,1,0,1,2,2,0,3,0,3,2,0,0,0,2,2,0,0,0,0,1,0,2,0,3,1,0,1,2,1,3,2,0,2,1,2,3,3,0,3,1,3,2,0,0,0,1,0,2,0,3,2,0,2,1,2,3,0,0,0,2,2,0,0,0,0,1,0,2,0,3,1,0,1,2,1,3,2,0,2,1,2,3,3,0,3,1,3,2,0,0,0,13,13,0,0,0,0,1,0,2,0,3,1,0,1,2,1,3,2,0,2,1,2,3,3,0,3,1,3,2,0,0,0,2,2,0,0,0,0,1,0,2,0,3,1,0,1,2,1,3,2,0,2,1,2,3,3,0,3,1,3,2,0,0,0,1,0,2,0,3,1,0,1,2,1,3,2,0,2,1,2,3,3,0,3,1,3,2,0,0,0,1,0,2,0,3,1,0,1,2,1,3,2,0,2,1,2,3,3,0,3,1,3,2,0,0,0,1,0,2,0,3,13,0,13,1,13,3,0,0,0,1,0,2,0,3,1,0,1,2,1,3,2,0,2,1,2,3,3,0,3,1,3,2,0,0,0,1,0,2,0,3,1,0,1,2,1,3,2,0,2,1,2,3,3,0,3,1,3,2,0,0,0,1,0,2,0,3,1,0,1,2,1,3,2,0,2,1,2,3,3,0,3,1,3,2,0,0,0,1,0,2,0,3,1,0,1,2,1,3,2,0,2,1,2,3,3,0,3,1,3,2,0,0,0,2,2,0,0,0,0,13,13,0,0,0,0,1,0,2,0,3,1,0,1,2,1,3,2,0,2,1,2,3,3,0,3,1,3,2,0,0,0,2,1,0,1,2,2,0,3,0,3,2,0,0,0,1,0,2,0,3,1,0,1,2,1,3,2,0,2,1,2,3,3,0,3,1,3,2,0,0,0,2,2,0,0,0,0,1,0,2,0,3,1,0,1,2,1,3,2,0,2,1,2,3,3,0,3,1,3,2,0,0,0,2,2,0,0,0,0,2,1,0,2,0,2,2,3,0,3,2,0,0,0,2,2,0,0,0,0,1,0,2,0,3,1,0,1,2,1,3,2,0,2,1,2,3,3,0,3,1,3,2,0,0,0,1,0,2,0,3,1,0,1,2,1,3,2,0,2,1,2,3,3,0,3,1,3,2,0,0,0,13,1,0,2,0,2,13,3,0,0,0,0,1,0,2,0,3,1,0,1,2,1,3,2,0,2,1,2,3,3,0,3,1,3,2,0,0,0,2,2,0,0,0,0,2,2,0,0,0,0,1,0,2,0,3,1,0,1,2,1,3,2,0,2,1,2,3,3,0,3,1,3,2,0,0,0,1,0,2,0,3,1,0,1,2,1,3,2,0,2,1,2,3,3,0,3,1,3,2,0,0,0,2,1,0,1,2,2,0,3,0,3,2,0,0,0,2,2,0,0,0,0,1,0,2,0,3,1,0,1,2,1,3,2,0,2,1,2,3,3,0,3,1,3,2,0,0,0,2,1,0,1,2,2,0,2,2,3,0,0,0,0,1,0,2,0,3,13,0,13,2,13,3,0,0,0,1,0,2,0,3,13,0,13,2,13,3,0,0,0,1,0,2,0,3,13,0,13,2,13,3,0,0,0,1,0,2,0,3,1,0,1,2,1,3,2,0,2,1,2,3,3,0,3,1,3,2,0,0,0,1,0,2,0,3,13,0,13,1,13,3,0,0,0,1,0,2,0,3,13,0,13,1,13,3,0,0,0,2,2,0,0,0,0,1,0,2,0,3,1,0,1,2,1,3,2,0,2,1,2,3,3,0,3,1,3,2,0,0,0,1,0,2,0,3,13,0,13,2,0,0,0,1,0,2,0,3,1,0,1,2,1,3,2,0,2,1,2,3,3,0,3,1,3,2,0,0,0,13,13,0,0,0,0,1,0,2,0,3,1,0,1,2,1,3,2,0,2,1,2,3,3,0,3,1,3,2,0,0,0,1,0,2,0,3,1,0,1,2,1,3,2,0,2,1,2,3,3,0,3,1,3,2,0,0,0,2,2,0,0,0,0,2,1,0,1,2,2,0,3,0,3,2,0,0,0,13,13,0,0,0,0,1,0,2,0,3,1,0,1,2,1,3,2,0,2,1,2,3,3,0,3,1,3,2,0,0,0,1,0,2,0,3,1,0,1,2,1,3,2,0,2,1,2,3,3,0,3,1,3,2,0,0,0,1,0,2,0,3,1,0,1,2,1,3,2,0,2,1,2,3,3,0,3,1,3,2,0,0,0,2,2,0,0,0,0,1,0,2,0,3,1,0,1,2,1,3,2,0,2,1,2,3,3,0,3,1,3,2,0,0,0,2,2,0,0,0,0,1,0,2,0,3,1,0,1,2,1,3,2,0,2,1,2,3,3,0,3,1,3,2,0,0,0,2,2,0,0,0,0,1,0,2,0,3,1,0,1,2,1,3,2,0,2,1,2,3,3,0,3,1,3,2,0,0,0,1,0,2,0,3,1,0,1,2,1,3,2,0,2,1,2,3,3,0,3,1,3,2,0,0,0,1,0,2,0,3,1,0,1,2,1,3,2,0,2,1,2,3,3,0,3,1,3,2,0,0,0,1,0,2,0,3,1,0,1,2,1,3,2,0,2,1,2,3,3,0,3,1,3,2,0,0,0,1,0,2,0,3,2,0,2,1,2,2,0,0,0,1,0,2,0,3,13,0,13,1,13,3,0,0,0,1,0,2,0,3,13,0,13,1,13,3,0,0,0,13,13,0,0,0,0,1,0,2,0,3,13,0,13,2,0,0,0,2,2,0,0,0,0,1,0,2,0,3,1,0,1,2,1,3,2,0,2,1,2,3,3,0,3,1,3,2,0,0,0,13,13,0,0,0,0,1,0,2,0,3,13,0,13,1,13,2,0,0,0,1,0,2,0,3,1,0,1,2,1,3,2,0,2,1,2,3,3,0,3,1,3,2,0,0,0,1,0,2,0,3,1,0,1,2,1,3,2,0,2,1,2,3,3,0,3,1,3,2,0,0,0,1,0,2,0,3,13,0,13,1,13,3,0,0,0,13,13,0,0,0,0,1,0,2,0,3,1,0,1,2,1,3,2,0,2,1,2,3,3,0,3,1,3,2,0,0,0,1,0,2,0,3,13,0,13,1,13,3,0,0,0,1,0,2,0,3,2,0,2,1,2,3,0,0,0,1,0,2,0,3,13,0,13,2,13,3,0,0,0,2,2,0,0,0,0,1,0,2,0,3,1,0,1,2,1,3,2,0,2,1,2,3,3,0,3,1,3,2,0,0,0,1,0,2,0,3,1,0,1,2,1,3,2,0,2,1,2,3,3,0,3,1,3,2,0,0,0,1,0,2,0,3,1,0,1,2,1,3,2,0,2,1,2,3,3,0,3,1,3,2,0,0,0,1,0,2,0,3,13,0,13,1,13,3,0,0,0,2,2,0,0,0,0,1,0,2,0,3,13,0,13,1,13,2,0,0,0,2,2,0,0,0,0,1,0,2,0,3,1,0,1,2,1,3,2,0,2,1,2,3,3,0,3,1,3,2,0,0,0,1,0,2,0,3,13,0,13,2,13,3,0,0,0,1,0,2,0,3,1,0,1,2,1,3,2,0,2,1,2,3,3,0,3,1,3,2,0,0,0,1,0,2,0,3,1,0,1,2,1,3,2,0,2,1,2,3,3,0,3,1,3,2,0,0,0,2,1,0,1,2,2,0,2,2,3,0,0,0,0,2,1,0,1,2,2,0,3,0,3,2,0,0,0,1,0,2,0,3,1,0,1,2,1,3,2,0,2,1,2,3,3,0,3,1,3,2,0,0,0,2,1,0,2,0,2,2,3,0,3,2,0,0,0,1,0,2,0,3,1,0,1,2,1,3,2,0,2,1,2,3,3,0,3,1,3,2,0,0,0,1,0,2,0,3,13,0,13,2,0,0,0,1,0,2,0,3,13,0,13,2,0,0,0,2,1,0,1,2,2,0,3,0,3,2,0,0,0,13,13,0,0,0,0,1,0,2,0,3,1,0,1,2,1,3,2,0,2,1,2,3,3,0,3,1,3,2,0,0,0,2,2,0,0,0,0,1,0,2,0,3,1,0,1,2,1,3,2,0,2,1,2,3,3,0,3,1,3,2,0,0,0,1,0,2,0,3,1,0,1,2,1,3,2,0,2,1,2,3,3,0,3,1,3,2,0,0,0,1,0,2,0,3,1,0,1,2,1,3,2,0,2,1,2,3,3,0,3,1,3,2,0,0,0,1,0,2,0,3,1,0,1,2,1,3,2,0,2,1,2,3,3,0,3,1,3,2,0,0,0,2,1,0,1,2,2,0,3,0,3,2,0,0,0,1,0,2,0,3,1,0,1,2,1,3,2,0,2,1,2,3,3,0,3,1,3,2,0,0,0,2,1,0,1,2,2,0,3,0,3,2,0,0,0,1,0,2,0,3,13,0,13,1,13,3,0,0,0,1,0,2,0,3,1,0,1,2,1,3,2,0,2,1,2,3,3,0,3,1,3,2,0,0,0,2,2,0,0,0,0,1,0,2,0,3,13,0,13,2,13,3,0,0,0,1,0,2,0,3,1,0,1,2,1,3,2,0,2,1,2,3,3,0,3,1,3,2,0,0,0,1,0,2,0,3,2,0,2,1,2,3,0,0,0,1,0,2,0,3,1,0,1,1,1,2,1,3,2,0,2,2,2,3,3,0,3,1,3,2,3,3,0,0,0,1,0,2,0,3,13,0,13,1,13,3,0,0,0,1,0,2,0,3,1,0,1,2,1,3,2,0,2,1,2,3,3,0,3,1,3,2,0,0,0,1,0,2,0,3,13,0,13,1,13,3,0,0,0,1,0,2,0,3,1,0,1,2,1,3,2,0,2,1,2,3,3,0,3,1,3,2,0,0,0,1,0,2,0,3,13,0,13,1,13,3,0,0,0,2,1,0,1,2,2,0,3,0,3,2,0,0,0,1,0,2,0,3,13,0,13,1,13,3,0,0,0,1,0,2,0,3,2,0,2,1,2,3,0,0,0,1,0,2,0,3,1,0,1,2,1,3,2,0,2,1,2,3,3,0,3,1,3,2,0,0,0,1,0,2,0,3,1,0,1,2,1,3,2,0,2,1,2,3,3,0,3,1,3,2,0,0,0,2,2,0,0,0,0,1,0,2,0,3,1,0,1,2,1,3,2,0,2,1,2,3,3,0,3,1,3,2,0,0,0,1,0,2,0,3,13,0,13,1,13,3,0,0,0,2,1,0,1,2,2,0,3,0,3,2,0,0,0,1,0,2,0,3,1,0,1,2,1,3,2,0,2,1,2,3,3,0,3,1,3,2,0,0,0,1,0,2,0,3,1,0,1,2,1,3,2,0,2,1,2,3,3,0,3,1,3,2,0,0,0,1,0,2,0,3,1,0,1,1,1,2,1,3,2,0,2,1,2,2,2,3,3,0,3,2,3,3,0,0,0,13,13,0,0,0,0,1,0,2,0,3,13,0,13,1,13,3,0,0,0,2,2,0,0,0,0,2,2,0,0,0,0,2,2,0,0,0,0,1,0,2,0,3,2,0,2,1,2,2,0,0,0,1,0,2,0,3,13,0,13,2,0,0,0,2,2,0,0,0,0,13,13,0,0,0,0,1,0,2,0,3,13,0,13,1,13,3,0,0,0,13,13,0,0,0,0,1,0,2,0,3,1,0,1,1,1,2,2,0,2,1,2,2,2,3,3,0,3,1,3,2,3,3,0,0,0,1,0,2,0,3,1,0,1,2,1,3,2,0,2,1,2,3,3,0,3,1,3,2,0,0,0,1,0,2,0,3,13,0,13,1,13,3,0,0,0,13,13,0,0,0,0,13,13,0,0,0,0,13,13,0,0,0,0,1,0,2,0,3,1,0,1,2,1,3,2,0,2,1,2,3,3,0,3,1,3,2,0,0,0,2,2,0,0,0,0,1,0,2,0,3,1,0,1,2,1,3,2,0,2,1,2,3,3,0,3,1,3,2,0,0,0,1,0,2,0,3,1,0,1,2,1,3,2,0,2,1,2,3,3,0,3,1,3,2,0,0,0,1,0,2,0,3,1,0,1,2,1,3,2,0,2,1,2,3,3,0,3,1,3,2,0,0,0,1,0,2,0,3,13,0,13,2,0,0,0,1,0,2,0,3,1,0,1,2,1,3,2,0,2,1,2,3,3,0,3,1,3,2,0,0,0,1,0,2,0,3,2,0,2,1,2,3,0,0,0,2,2,0,0,0,0,1,0,2,0,3,1,0,1,2,1,3,2,0,2,1,2,3,3,0,3,1,3,2,0,0,0,13,13,0,0,0,0,2,2,0,0,0,0,1,0,2,0,3,1,0,1,2,1,3,2,0,2,1,2,3,3,0,3,1,3,2,0,0,0,2,1,0,1,2,2,0,3,0,3,2,0,0,0,1,0,2,0,3,1,0,1,2,1,3,2,0,2,1,2,3,3,0,3,1,3,2,0,0,0,1,0,2,0,3,1,0,1,2,1,3,2,0,2,1,2,3,3,0,3,1,3,2,0,0,0,1,0,2,0,3,1,0,1,2,1,3,2,0,2,1,2,3,3,0,3,1,3,2,0,0,0,2,1,0,1,2,2,0,3,0,3,2,0,0,0,1,0,2,0,3,1,0,1,2,1,3,2,0,2,1,2,3,3,0,3,1,3,2,0,0,0,13,13,0,0,0,0,2,2,0,0,0,0,1,0,2,0,3,1,0,1,2,1,3,2,0,2,1,2,3,3,0,3,1,3,2,0,0,0,1,0,2,0,3,13,0,13,1,13,3,0,0,0,13,13,0,0,0,0,1,0,2,0,3,1,0,1,2,1,3,2,0,2,1,2,3,3,0,3,1,3,2,0,0,0,1,0,2,0,3,1,0,1,2,1,3,2,0,2,1,2,3,3,0,3,1,3,2,0,0,0,1,0,2,0,3,1,0,1,2,1,3,2,0,2,1,2,3,3,0,3,1,3,2,0,0,0,1,0,2,0,3,1,0,1,2,1,3,2,0,2,1,2,3,3,0,3,1,3,2,0,0,0,1,0,2,0,3,1,0,1,2,1,3,2,0,2,1,2,3,3,0,3,1,3,2,0,0,0,1,0,2,0,3,1,0,1,2,1,3,2,0,2,1,2,3,3,0,3,1,3,2,0,0,0,2,2,0,0,0,0,1,0,2,0,3,1,0,1,2,1,3,2,0,2,1,2,3,3,0,3,1,3,2,0,0,0,1,0,2,0,3,1,0,1,2,1,3,2,0,2,1,2,3,3,0,3,1,3,2,0,0,0,1,0,2,0,3,1,0,1,2,1,3,2,0,2,1,2,3,3,0,3,1,3,2,0,0,0,2,2,0,0,0,0,1,0,2,0,3,1,0,1,2,1,3,2,0,2,1,2,3,3,0,3,1,3,2,0,0,0,2,1,0,2,0,2,2,3,0,3,2,0,0,0,13,13,0,0,0,0,1,0,2,0,3,1,0,1,2,1,3,2,0,2,1,2,3,3,0,3,1,3,2,0,0,0,1,0,2,0,3,1,0,1,2,1,3,2,0,2,1,2,3,3,0,3,1,3,2,0,0,0,1,0,2,0,3,1,0,1,2,1,3,2,0,2,1,2,3,3,0,3,1,3,2,0,0,0,1,0,2,0,3,1,0,1,2,1,3,2,0,2,1,2,3,3,0,3,1,3,2,0,0,0,1,0,2,0,3,13,0,13,2,0,0,0,1,0,2,0,3,1,0,1,2,1,3,2,0,2,1,2,3,3,0,3,1,3,2,0,0,0,2,1,0,1,2,2,0,3,0,3,2,0,0,0,1,0,2,0,3,13,0,13,1,13,3,0,0,0,1,0,2,0,3,1,0,1,2,1,3,2,0,2,1,2,3,3,0,3,1,3,2,0,0,0,2,2,0,0,0,0,1,0,2,0,3,1,0,1,2,1,3,2,0,2,1,2,3,3,0,3,1,3,2,0,0,0,2,2,0,0,0,0,2,2,0,0,0,0,1,0,2,0,3,1,0,1,2,1,3,2,0,2,1,2,3,3,0,3,1,3,2,0,0,0,13,13,0,0,0,0,13,13,0,0,0,0,2,2,0,0,0,0,2,1,0,1,2,2,0,3,0,3,2,0,0,0,2,1,0,1,2,2,0,3,0,3,2,0,0,0,1,0,2,0,3,13,0,13,2,13,3,0,0,0,1,0,2,0,3,1,0,1,2,1,3,2,0,2,1,2,3,3,0,3,1,3,2,0,0,0,1,0,2,0,3,1,0,1,2,1,3,2,0,2,1,2,3,3,0,3,1,3,2,0,0,0,1,0,2,0,3,1,0,1,2,1,3,2,0,2,1,2,3,3,0,3,1,3,2,0,0,0,1,0,2,0,3,1,0,1,2,1,3,2,0,2,1,2,3,3,0,3,1,3,2,0,0,0,1,0,2,0,3,2,0,2,1,2,3,0,0,0,2,1,0,1,2,2,0,2,2,3,0,0,0,0,1,0,2,0,3,1,0,1,2,1,3,2,0,2,1,2,3,3,0,3,1,3,2,0,0,0,1,0,2,0,3,1,0,1,2,1,3,2,0,2,1,2,3,3,0,3,1,3,2,0,0,0,1,0,2,0,3,1,0,1,2,1,3,2,0,2,1,2,3,3,0,3,1,3,2,0,0,0,1,0,2,0,3,13,0,13,1,13,3,0,0,0,2,1,0,1,2,2,0,3,0,3,2,0,0,0,1,0,2,0,3,1,0,1,2,1,3,2,0,2,1,2,3,3,0,3,1,3,2,0,0,0,1,0,2,0,3,13,0,13,2,0,0,0,1,0,2,0,3,1,0,1,2,1,3,2,0,2,1,2,3,3,0,3,1,3,2,0,0,0,1,0,2,0,3,13,0,13,2,0,0,0,1,0,2,0,3,1,0,1,2,1,3,2,0,2,1,2,3,3,0,3,1,3,2,0,0,0,13,13,0,0,0,0,13,1,0,2,0,2,13,3,0,0,0,0,2,1,0,1,2,2,0,3,0,3,2,0,0,0,2,2,0,0,0,0,2,1,0,1,2,2,0,3,0,3,2,0,0,0,13,13,0,0,0,0,1,0,2,0,3,1,0,1,2,1,3,2,0,2,1,2,3,3,0,3,1,3,2,0,0,0,2,2,0,0,0,0,2,1,0,2,0,2,2,3,0,3,2,0,0,0,1,0,2,0,3,1,0,1,2,1,3,2,0,2,1,2,3,3,0,3,1,3,2,0,0,0,2,1,0,1,2,2,0,3,0,3,2,0,0,0,1,0,2,0,3,1,0,1,2,1,3,2,0,2,1,2,3,3,0,3,1,3,2,0,0,0,1,0,2,0,3,1,0,1,2,1,3,2,0,2,1,2,3,3,0,3,1,3,2,0,0,0,1,0,2,0,3,1,0,1,2,1,3,2,0,2,1,2,3,3,0,3,1,3,2,0,0,0,1,0,2,0,3,1,0,1,2,1,3,2,0,2,1,2,3,3,0,3,1,3,2,0,0,0,2,2,0,0,0,0,1,0,2,0,3,2,0,2,1,2,2,0,0,0,13,13,0,0,0,0,2,2,0,0,0,0,1,0,2,0,3,1,0,1,1,1,2,1,3,2,0,2,2,2,3,3,0,3,1,3,2,3,3,0,0,0,1,0,2,0,3,1,0,1,2,1,3,2,0,2,1,2,3,3,0,3,1,3,2,0,0,0,2,2,0,0,0,0,1,0,2,0,3,1,0,1,2,1,3,2,0,2,1,2,3,3,0,3,1,3,2,0,0,0,2,2,0,0,0,0,2,2,0,0,0,0,1,0,2,0,3,1,0,1,2,1,3,2,0,2,1,2,3,3,0,3,1,3,2,0,0,0,2,1,0,1,2,2,0,3,0,3,2,0,0,0,1,0,2,0,3,1,0,1,2,1,3,2,0,2,1,2,3,3,0,3,1,3,2,0,0,0,1,0,2,0,3,1,0,1,2,1,3,2,0,2,1,2,3,3,0,3,1,3,2,0,0,0,1,0,2,0,3,13,0,13,1,13,3,0,0,0,2,1,0,1,2,2,0,3,0,3,2,0,0,0,1,0,2,0,3,1,0,1,2,1,3,2,0,2,1,2,3,3,0,3,1,3,2,0,0,0,2,1,0,2,0,2,2,3,0,3,2,0,0,0,2,1,0,1,2,2,0,3,0,3,2,0,0,0,1,0,2,0,3,1,0,1,2,1,3,2,0,2,1,2,3,3,0,3,1,3,2,0,0,0,1,0,2,0,3,1,0,1,2,1,3,2,0,2,1,2,3,3,0,3,1,3,2,0,0,0,1,0,2,0,3,2,0,2,1,2,3,0,0,0,1,0,2,0,3,1,0,1,2,1,3,2,0,2,1,2,2,2,3,3,0,3,1,3,2,3,3,0,0,0,1,0,2,0,3,13,0,13,1,13,3,0,0,0,1,0,2,0,3,1,0,1,2,1,3,2,0,2,1,2,3,3,0,3,1,3,2,0,0,0,1,0,2,0,3,2,0,2,1,2,3,0,0,0,13,13,0,0,0,0,1,0,2,0,3,1,0,1,2,1,3,2,0,2,1,2,3,3,0,3,1,3,2,0,0,0,1,0,2,0,3,13,0,13,1,13,3,0,0,0,1,0,2,0,3,1,0,1,2,1,3,2,0,2,1,2,3,3,0,3,1,3,2,0,0,0,2,2,0,0,0,0,1,0,2,0,3,2,0,2,1,2,2,0,0,0,2,2,0,0,0,0,1,0,2,0,3,1,0,1,2,1,3,2,0,2,1,2,3,3,0,3,1,3,2,0,0,0,1,0,2,0,3,1,0,1,1,1,2,1,3,2,0,2,1,2,3,3,0,3,1,3,2,3,3,0,0,0,1,0,2,0,3,1,0,1,2,1,3,2,0,2,1,2,3,3,0,3,1,3,2,0,0,0,1,0,2,0,3,1,0,1,2,1,3,2,0,2,1,2,3,3,0,3,1,3,2,0,0,0,2,1,0,1,2,2,0,3,0,3,2,0,0,0,1,0,2,0,3,1,0,1,2,1,3,2,0,2,1,2,3,3,0,3,1,3,2,0,0,0,2,2,0,0,0,0,2,2,0,0,0,0,1,0,2,0,3,1,0,1,2,1,3,2,0,2,1,2,3,3,0,3,1,3,2,0,0,0,1,0,2,0,3,13,0,13,1,13,3,0,0,0,1,0,2,0,3,1,0,1,2,1,3,2,0,2,1,2,3,3,0,3,1,3,2,0,0,0,1,0,2,0,3,1,0,1,2,1,3,2,0,2,1,2,3,3,0,3,1,3,2,0,0,0,1,0,2,0,3,13,0,13,1,13,3,0,0,0,1,0,2,0,3,1,0,1,2,1,3,2,0,2,1,2,3,3,0,3,1,3,2,0,0,0,1,0,2,0,3,1,0,1,2,1,3,2,0,2,1,2,3,3,0,3,1,3,2,0,0,0,2,2,0,0,0,0,1,0,2,0,3,2,0,2,1,2,3,0,0,0,1,0,2,0,3,13,0,13,1,13,3,0,0,0,2,1,0,1,2,2,0,2,2,3,0,0,0,0,1,0,2,0,3,1,0,1,2,1,3,2,0,2,1,2,3,3,0,3,1,3,2,0,0,0,2,1,0,1,2,2,0,3,0,3,2,0,0,0,2,2,0,0,0,0,13,13,0,0,0,0,1,0,2,0,3,1,0,1,2,1,3,2,0,2,1,2,3,3,0,3,1,3,2,0,0,0,1,0,2,0,3,1,0,1,2,1,3,2,0,2,1,2,3,3,0,3,1,3,2,0,0,0,1,0,2,0,3,13,0,13,2,0,0,0,2,2,0,0,0,0,1,0,2,0,3,1,0,1,2,1,3,2,0,2,1,2,3,3,0,3,1,3,2,0,0,0,1,0,2,0,3,1,0,1,2,1,3,2,0,2,1,2,3,3,0,3,1,3,2,0,0,0,1,0,2,0,3,1,0,1,2,1,3,2,0,2,1,2,3,3,0,3,1,3,2,0,0,0,1,0,2,0,3,1,0,1,2,1,3,2,0,2,1,2,3,3,0,3,1,3,2,0,0,0,1,0,2,0,3,1,0,1,2,1,3,2,0,2,1,2,3,3,0,3,1,3,2,0,0,0,13,13,0,0,0,0,1,0,2,0,3,1,0,1,2,1,3,2,0,2,1,2,3,3,0,3,1,3,2,0,0,0,1,0,2,0,3,13,0,13,1,13,3,0,0,0,13,13,0,0,0,0,13,13,0,0,0,0,2,2,0,0,0,0,1,0,2,0,3,1,0,1,2,1,3,2,0,2,1,2,3,3,0,3,1,3,2,0,0,0,2,2,0,0,0,0,2,1,0,1,2,2,0,3,0,3,2,0,0,0,2,1,0,1,2,2,0,3,0,3,2,0,0,0,13,1,0,2,0,2,13,3,0,0,0,0,1,0,2,0,3,1,0,1,2,1,3,2,0,2,1,2,3,3,0,3,1,3,2,0,0,0,2,1,0,1,2,2,0,3,0,3,2,0,0,0,13,13,0,0,0,0,2,2,0,0,0,0,1,0,2,0,3,1,0,1,2,1,3,2,0,2,1,2,3,3,0,3,1,3,2,0,0,0,2,2,0,0,0,0,2,1,0,1,2,2,0,3,0,3,2,0,0,0,1,0,2,0,3,1,0,1,2,1,3,2,0,2,1,2,3,3,0,3,1,3,2,0,0,0,2,2,0,0,0,0,13,1,0,2,0,2,13,3,0,0,0,0,2,2,0,0,0,0,2,1,0,1,2,2,0,2,2,3,0,0,0,0,1,0,2,0,3,1,0,1,2,1,3,2,0,2,1,2,3,3,0,3,1,3,2,0,0,0,1,0,2,0,3,13,0,13,2,0,0,0,1,0,2,0,3,13,0,13,1,13,3,0,0,0,1,0,2,0,3,13,0,13,1,13,3,0,0,0,1,0,2,0,3,13,0,13,1,13,3,0,0,0,2,1,0,2,0,2,2,3,0,3,2,0,0,0,1,0,2,0,3,1,0,1,2,1,3,2,0,2,1,2,3,3,0,3,1,3,2,0,0,0,2,1,0,1,2,2,0,2,2,3,0,0,0,0,1,0,2,0,3,1,0,1,2,1,3,2,0,2,1,2,3,3,0,3,1,3,2,0,0,0,2,2,0,0,0,0,2,2,0,0,0,0,1,0,2,0,3,13,0,13,1,13,3,0,0,0,13,13,0,0,0,0,1,0,2,0,3,1,0,1,2,1,3,2,0,2,1,2,3,3,0,3,1,3,2,0,0,0,1,0,2,0,3,1,0,1,1,1,3,2,0,2,1,2,2,3,0,3,1,3,2,3,3,0,0,0,1,0,2,0,3,1,0,1,2,1,3,2,0,2,1,2,3,3,0,3,1,3,2,0,0,0,2,2,0,0,0,0,1,0,2,0,3,13,0,13,2,0,0,0,1,0,2,0,3,1,0,1,2,1,3,2,0,2,1,2,3,3,0,3,1,3,2,0,0,0,1,0,2,0,3,1,0,1,2,1,3,2,0,2,1,2,3,3,0,3,1,3,2,0,0,0,1,0,2,0,3,13,0,13,1,13,3,0,0,0,2,2,0,0,0,0,1,0,2,0,3,13,0,13,1,13,3,0,0,0,1,0,2,0,3,1,0,1,2,1,3,2,0,2,1,2,3,3,0,3,1,3,2,0,0,0,1,0,2,0,3,13,0,13,2,0,0,0,13,13,0,0,0,0,1,0,2,0,3,1,0,1,2,1,3,2,0,2,1,2,3,3,0,3,1,3,2,0,0,0,2,1,0,1,2,2,0,3,0,3,2,0,0,0,1,0,2,0,3,1,0,1,2,1,3,2,0,2,1,2,3,3,0,3,1,3,2,0,0,0,1,0,2,0,3,13,0,13,2,0,0,0,13,13,0,0,0,0,2,2,0,0,0,0,1,0,2,0,3,13,0,13,1,13,3,0,0,0,1,0,2,0,3,1,0,1,2,1,3,2,0,2,1,2,3,3,0,3,1,3,2,0,0,0,1,0,2,0,3,1,0,1,2,1,3,2,0,2,1,2,3,3,0,3,1,3,2,0,0,0,1,0,2,0,3,13,0,13,2,0,0,0,2,2,0,0,0,0,1,0,2,0,3,1,0,1,2,1,3,2,0,2,1,2,3,3,0,3,1,3,2,0,0,0,2,2,0,0,0,0,2,1,0,1,2,2,0,3,0,3,2,0,0,0,2,2,0,0,0,0,1,0,2,0,3,1,0,1,2,1,3,2,0,2,1,2,3,3,0,3,1,3,2,0,0,0,2,1,0,1,2,2,0,3,0,3,2,0,0,0,2,1,0,1,2,2,0,3,0,3,2,0,0,0,1,0,2,0,3,1,0,1,2,1,3,2,0,2,1,2,3,3,0,3,1,3,2,0,0,0,13,1,0,2,0,2,13,3,0,0,0,0,2,2,0,0,0,0,1,0,2,0,3,1,0,1,2,1,3,2,0,2,1,2,3,3,0,3,1,3,2,0,0,0,1,0,2,0,3,1,0,1,2,1,3,2,0,2,1,2,3,3,0,3,1,3,2,0,0,0,1,0,2,0,3,1,0,1,2,1,3,2,0,2,1,2,3,3,0,3,1,3,2,0,0,0,1,0,2,0,3,1,0,1,2,1,3,2,0,2,1,2,3,3,0,3,1,3,2,0,0,0,2,2,0,0,0,0,1,0,2,0,3,1,0,1,1,1,3,2,0,2,1,2,2,3,0,3,1,3,2,3,3,0,0,0,1,0,2,0,3,1,0,1,2,1,3,2,0,2,1,2,3,3,0,3,1,3,2,0,0,0,13,13,0,0,0,0,1,0,2,0,3,1,0,1,2,1,3,2,0,2,1,2,3,3,0,3,1,3,2,0,0,0,2,1,0,1,2,2,0,3,0,3,2,0,0,0,1,0,2,0,3,2,0,2,1,2,3,0,0,0,13,13,0,0,0,0,2,2,0,0,0,0,13,13,0,0,0,0,13,13,0,0,0,0,1,0,2,0,3,2,0,2,1,2,3,0,0,0,1,0,2,0,3,13,0,13,2,0,0,0,2,2,0,0,0,0,1,0,2,0,3,1,0,1,2,1,3,2,0,2,1,2,3,3,0,3,1,3,2,0,0,0,1,0,2,0,3,1,0,1,2,1,3,2,0,2,1,2,3,3,0,3,1,3,2,0,0,0,13,13,0,0,0,0,13,13,0,0,0,0,2,1,0,1,2,2,0,3,0,3,2,0,0,0,1,0,2,0,3,2,0,2,1,2,3,0,0,0,2,1,0,1,2,2,0,3,0,3,2,0,0,0,1,0,2,0,3,1,0,1,2,1,3,2,0,2,1,2,3,3,0,3,1,3,2,0,0,0,1,0,2,0,3,1,0,1,2,1,3,2,0,2,1,2,3,3,0,3,1,3,2,0,0,0,1,0,2,0,3,1,0,1,2,1,3,2,0,2,1,2,3,3,0,3,1,3,2,0,0,0,2,2,0,0,0,0,1,0,2,0,3,1,0,1,2,1,3,2,0,2,1,2,3,3,0,3,1,3,2,0,0,0,2,2,0,0,0,0,2,2,0,0,0,0,13,13,0,0,0,0,1,0,2,0,3,2,0,2,1,2,2,0,0,0,13,13,0,0,0,0,1,0,2,0,3,1,0,1,2,1,3,2,0,2,1,2,3,3,0,3,1,3,2,0,0,0,2,1,0,1,2,2,0,3,0,3,2,0,0,0,1,0,2,0,3,13,0,13,2,0,0,0,1,0,2,0,3,1,0,1,2,1,3,2,0,2,1,2,3,3,0,3,1,3,2,0,0,0,1,0,2,0,3,13,0,13,2,13,3,0,0,0,1,0,2,0,3,13,0,13,1,13,3,0,0,0,1,0,2,0,3,13,0,13,2,13,3,0,0,0,2,2,0,0,0,0,1,0,2,0,3,13,0,13,2,0,0,0,1,0,2,0,3,1,0,1,2,1,3,2,0,2,1,2,3,3,0,3,1,3,2,0,0,0,1,0,2,0,3,13,0,13,1,13,3,0,0,0,1,0,2,0,3,13,0,13,2,0,0,0,13,13,0,0,0,0,2,2,0,0,0,0,1,0,2,0,3,1,0,1,2,1,3,2,0,2,1,2,3,3,0,3,1,3,2,0,0,0,1,0,2,0,3,13,0,13,1,13,2,0,0,0,2,1,0,1,2,2,0,3,0,3,2,0,0,0,1,0,2,0,3,13,0,13,2,0,0,0,1,0,2,0,3,1,0,1,2,1,3,2,0,2,1,2,3,3,0,3,1,3,2,0,0,0,1,0,2,0,3,1,0,1,2,1,3,2,0,2,1,2,3,3,0,3,1,3,2,0,0,0,13,13,0,0,0,0,1,0,2,0,3,1,0,1,2,1,3,2,0,2,1,2,3,3,0,3,1,3,2,0,0,0,1,0,2,0,3,13,0,13,2,0,0,0,2,1,0,1,2,2,0,3,0,3,2,0,0,0,13,13,0,0,0,0,1,0,2,0,3,13,0,13,2,0,0,0,1,0,2,0,3,1,0,1,2,1,3,2,0,2,1,2,3,3,0,3,1,3,2,0,0,0,2,1,0,2,0,2,2,3,0,3,2,0,0,0,1,0,2,0,3,1,0,1,2,1,3,2,0,2,1,2,3,3,0,3,1,3,2,0,0,0,13,13,0,0,0,0,1,0,2,0,3,13,0,13,2,0,0,0,13,13,0,0,0,0,1,0,2,0,3,13,0,13,1,13,3,0,0,0,2,1,0,1,2,2,0,3,0,3,2,0,0,0,2,1,0,1,2,2,0,3,0,3,2,0,0,0,1,0,2,0,3,1,0,1,2,1,3,2,0,2,1,2,3,3,0,3,1,3,2,0,0,0,1,0,2,0,3,1,0,1,1,1,2,1,3,2,0,2,1,2,2,2,3,3,0,3,2,3,3,0,0,0,1,0,2,0,3,1,0,1,2,1,3,2,0,2,1,2,3,3,0,3,1,3,2,0,0,0,2,2,0,0,0,0,2,2,0,0,0,0,1,0,2,0,3,1,0,1,2,1,3,2,0,2,1,2,3,3,0,3,1,3,2,0,0,0,1,0,2,0,3,1,0,1,2,1,3,2,0,2,1,2,3,3,0,3,1,3,2,0,0,0,2,2,0,0,0,0,1,0,2,0,3,13,0,13,1,13,3,0,0,0,2,1,0,1,2,2,0,2,2,3,0,0,0,0,1,0,2,0,3,1,0,1,2,1,3,2,0,2,1,2,3,3,0,3,1,3,2,0,0,0,13,1,0,2,0,2,13,3,0,0,0,0,1,0,2,0,3,13,0,13,1,13,3,0,0,0,13,13,0,0,0,0,1,0,2,0,3,1,0,1,2,1,3,2,0,2,1,2,3,3,0,3,1,3,2,0,0,0,13,13,0,0,0,0,1,0,2,0,3,13,0,13,2,0,0,0,2,1,0,1,2,2,0,3,0,3,2,0,0,0,1,0,2,0,3,1,0,1,2,1,3,2,0,2,1,2,3,3,0,3,1,3,2,0,0,0,1,0,2,0,3,1,0,1,2,1,3,2,0,2,1,2,3,3,0,3,1,3,2,0,0,0,1,0,2,0,3,1,0,1,2,1,3,2,0,2,1,2,3,3,0,3,1,3,2,0,0,0,1,0,2,0,3,13,0,13,1,13,3,0,0,0,1,0,2,0,3,1,0,1,2,1,3,2,0,2,1,2,3,3,0,3,1,3,2,0,0,0,1,0,2,0,3,1,0,1,2,1,3,2,0,2,1,2,3,3,0,3,1,3,2,0,0,0,13,13,0,0,0,0,2,2,0,0,0,0,13,13,0,0,0,0,2,2,0,0,0,0,1,0,2,0,3,13,0,13,2,0,0,0,1,0,2,0,3,2,0,2,1,2,3,0,0,0,1,0,2,0,3,1,0,1,2,1,3,2,0,2,1,2,3,3,0,3,1,3,2,0,0,0,2,2,0,0,0,0,2,2,0,0,0,0,1,0,2,0,3,1,0,1,2,1,3,2,0,2,1,2,3,3,0,3,1,3,2,0,0,0,1,0,2,0,3,1,0,1,2,1,3,2,0,2,1,2,3,3,0,3,1,3,2,0,0,0,2,2,0,0,0,0,13,13,0,0,0,0,2,2,0,0,0,0,2,1,0,1,2,2,0,3,0,3,2,0,0,0,1,0,2,0,3,1,0,1,2,1,3,2,0,2,1,2,3,3,0,3,1,3,2,0,0,0,1,0,2,0,3,13,0,13,2,13,3,0,0,0,1,0,2,0,3,1,0,1,2,1,3,2,0,2,1,2,3,3,0,3,1,3,2,0,0,0,1,0,2,0,3,13,0,13,2,0,0,0,1,0,2,0,3,1,0,1,2,1,3,2,0,2,1,2,3,3,0,3,1,3,2,0,0,0,1,0,2,0,3,13,0,13,2,0,0,0,1,0,2,0,3,13,0,13,2,13,3,0,0,0,1,0,2,0,3,13,0,13,2,13,3,0,0,0,1,0,2,0,3,13,0,13,2,13,3,0,0,0,2,2,0,0,0,0,1,0,2,0,3,1,0,1,2,1,3,2,0,2,1,2,3,3,0,3,1,3,2,0,0,0,1,0,2,0,3,13,0,13,1,13,3,0,0,0,2,2,0,0,0,0,2,2,0,0,0,0,1,0,2,0,3,13,0,13,2,0,0,0,1,0,2,0,3,1,0,1,2,1,3,2,0,2,1,2,3,3,0,3,1,3,2,0,0,0,1,0,2,0,3,1,0,1,2,1,3,2,0,2,1,2,3,3,0,3,1,3,2,0,0,0,1,0,2,0,3,1,0,1,2,1,3,2,0,2,1,2,3,3,0,3,1,3,2,0,0,0,1,0,2,0,3,1,0,1,2,1,3,2,0,2,1,2,3,3,0,3,1,3,2,0,0,0,1,0,2,0,3,1,0,1,2,1,3,2,0,2,1,2,3,3,0,3,1,3,2,0,0,0,1,0,2,0,3,13,0,13,2,0,0,0,13,13,0,0,0,0,2,2,0,0,0,0,13,13,0,0,0,0,13,13,0,0,0,0,1,0,2,0,3,1,0,1,2,1,3,2,0,2,1,2,3,3,0,3,1,3,2,0,0,0,1,0,2,0,3,1,0,1,2,1,3,2,0,2,1,2,3,3,0,3,1,3,2,0,0,0,2,2,0,0,0,0,1,0,2,0,3,1,0,1,1,1,2,1,3,2,0,2,2,2,3,3,0,3,1,3,3,0,0,0,1,0,2,0,3,1,0,1,2,1,3,2,0,2,1,2,3,3,0,3,1,3,2,0,0,0,2,2,0,0,0,0,1,0,2,0,3,1,0,1,2,1,3,2,0,2,1,2,3,3,0,3,1,3,2,0,0,0,13,13,0,0,0,0,2,2,0,0,0,0,2,2,0,0,0,0,1,0,2,0,3,1,0,1,2,1,3,2,0,2,1,2,3,3,0,3,1,3,2,0,0,0,2,2,0,0,0,0,1,0,2,0,3,1,0,1,2,1,3,2,0,2,1,2,3,3,0,3,1,3,2,0,0,0,1,0,2,0,3,13,0,13,2,0,0,0,1,0,2,0,3,1,0,1,1,1,2,1,3,2,0,2,2,2,3,3,0,3,1,3,2,3,3,0,0,0,1,0,2,0,3,1,0,1,2,1,3,2,0,2,1,2,3,3,0,3,1,3,2,0,0,0,1,0,2,0,3,1,0,1,2,1,3,2,0,2,1,2,3,3,0,3,1,3,2,0,0,0,1,0,2,0,3,13,0,13,2,0,0,0,2,1,0,1,2,2,0,3,0,3,2,0,0,0,1,0,2,0,3,1,0,1,2,1,3,2,0,2,1,2,3,3,0,3,1,3,2,0,0,0,1,0,2,0,3,1,0,1,2,1,3,2,0,2,1,2,3,3,0,3,1,3,2,0,0,0,1,0,2,0,3,13,0,13,2,0,0,0,13,13,0,0,0,0,2,2,0,0,0,0,1,0,2,0,3,13,0,13,2,13,3,0,0,0,1,0,2,0,3,1,0,1,2,1,3,2,0,2,1,2,3,3,0,3,1,3,2,0,0,0,2,1,0,2,0,2,2,3,0,3,2,0,0,0,1,0,2,0,3,1,0,1,2,1,3,2,0,2,1,2,3,3,0,3,1,3,2,0,0,0,2,13,0,0,0,0,13,13,0,0,0,0,1,0,2,0,3,1,0,1,2,1,3,2,0,2,1,2,3,3,0,3,1,3,2,0,0,0,1,0,2,0,3,13,0,13,2,0,0,0,1,0,2,0,3,1,0,1,2,1,3,2,0,2,1,2,3,3,0,3,1,3,2,0,0,0,2,1,0,2,0,2,2,3,0,3,2,0,0,0,1,0,2,0,3,1,0,1,2,1,3,2,0,2,1,2,3,3,0,3,1,3,2,0,0,0,2,1,0,1,2,2,0,2,2,3,0,0,0,0,1,0,2,0,3,1,0,1,2,1,3,2,0,2,1,2,3,3,0,3,1,3,2,0,0,0,2,1,0,1,2,2,0,3,0,3,2,0,0,0,1,0,2,0,3,1,0,1,2,1,3,2,0,2,1,2,3,3,0,3,1,3,2,0,0,0,1,0,2,0,3,1,0,1,2,1,3,2,0,2,1,2,3,3,0,3,1,3,2,0,0,0,1,0,2,0,3,1,0,1,2,1,3,2,0,2,1,2,3,3,0,3,1,3,2,0,0,0,1,0,2,0,3,2,0,2,1,2,2,0,0,0,1,0,2,0,3,13,0,13,1,13,2,0,0,0,2,1,0,1,2,2,0,2,2,3,0,0,0,0,1,0,2,0,3,1,0,1,2,1,3,2,0,2,1,2,3,3,0,3,1,3,2,0,0,0,1,0,2,0,3,1,0,1,2,1,3,2,0,2,1,2,3,3,0,3,1,3,2,0,0,0,1,0,2,0,3,1,0,1,1,1,2,1,3,2,0,2,1,2,2,2,3,3,0,3,2,3,3,0,0,0,1,0,2,0,3,2,0,2,1,2,3,0,0,0,1,0,2,0,3,13,0,13,2,0,0,0,1,0,2,0,3,1,0,1,2,1,3,2,0,2,1,2,3,3,0,3,1,3,2,0,0,0,1,0,2,0,3,1,0,1,2,1,3,2,0,2,1,2,3,3,0,3,1,3,2,0,0,0,1,0,2,0,3,13,0,13,2,0,0,0,1,0,2,0,3,1,0,1,2,1,3,2,0,2,1,2,3,3,0,3,1,3,2,0,0,0,2,1,0,1,2,2,0,3,0,3,2,0,0,0,1,0,2,0,3,1,0,1,2,1,3,2,0,2,1,2,3,3,0,3,1,3,2,0,0,0,1,0,2,0,3,1,0,1,2,1,3,2,0,2,1,2,3,3,0,3,1,3,2,0,0,0,13,13,0,0,0,0,1,0,2,0,3,1,0,1,2,1,3,2,0,2,1,2,3,3,0,3,1,3,2,0,0,0,1,0,2,0,3,13,0,13,2,0,0,0,1,0,2,0,3,13,0,13,2,0,0,0,1,0,2,0,3,1,0,1,2,1,3,2,0,2,1,2,3,3,0,3,1,3,2,0,0,0,13,1,0,2,0,2,13,3,0,0,0,0,2,1,0,1,2,2,0,3,0,3,2,0,0,0,1,0,2,0,3,1,0,1,2,1,3,2,0,2,1,2,3,3,0,3,1,3,2,0,0,0,1,0,2,0,3,1,0,1,2,1,3,2,0,2,1,2,3,3,0,3,1,3,2,0,0,0,2,1,0,2,0,2,2,3,0,3,2,0,0,0,1,0,2,0,3,2,0,2,1,2,3,0,0,0,1,0,2,0,3,1,0,1,2,1,3,2,0,2,1,2,3,3,0,3,1,3,2,0,0,0,1,0,2,0,3,13,0,13,1,13,3,0,0,0,1,0,2,0,3,13,0,13,2,0,0,0,2,2,0,0,0,0,1,0,2,0,3,1,0,1,2,1,3,2,0,2,1,2,3,3,0,3,1,3,2,0,0,0,1,0,2,0,3,1,0,1,2,1,3,2,0,2,1,2,3,3,0,3,1,3,2,0,0,0,1,0,2,0,3,1,0,1,2,1,3,2,0,2,1,2,3,3,0,3,1,3,2,0,0,0,1,0,2,0,3,13,0,13,2,0,0,0,13,13,0,0,0,0,1,0,2,0,3,13,0,13,2,13,3,0,0,0,1,0,2,0,3,1,0,1,2,1,3,2,0,2,1,2,3,3,0,3,1,3,2,0,0,0,1,0,2,0,3,1,0,1,2,1,3,2,0,2,1,2,3,3,0,3,1,3,2,0,0,0,1,0,2,0,3,1,0,1,2,1,3,2,0,2,1,2,3,3,0,3,1,3,2,0,0,0,13,13,0,0,0,0,2,2,0,0,0,0,1,0,2,0,3,1,0,1,2,1,3,2,0,2,1,2,3,3,0,3,1,3,2,0,0,0,1,0,2,0,3,1,0,1,2,1,3,2,0,2,1,2,3,3,0,3,1,3,2,0,0,0,2,1,0,2,0,2,2,3,0,3,2,0,0,0,2,2,0,0,0,0,2,1,0,1,2,2,0,3,0,3,2,0,0,0,1,0,2,0,3,1,0,1,2,1,3,2,0,2,1,2,3,3,0,3,1,3,2,0,0,0,1,0,2,0,3,1,0,1,2,1,3,2,0,2,1,2,3,3,0,3,1,3,2,0,0,0,1,0,2,0,3,1,0,1,2,1,3,2,0,2,1,2,3,3,0,3,1,3,2,0,0,0,1,0,2,0,3,13,0,13,2,0,0,0,2,1,0,1,2,2,0,3,0,3,2,0,0,0,2,1,0,1,2,2,0,3,0,3,2,0,0,0,1,0,2,0,3,1,0,1,2,1,3,2,0,2,1,2,3,3,0,3,1,3,2,0,0,0,2,1,0,1,2,2,0,3,0,3,2,0,0,0,1,0,2,0,3,13,0,13,2,0,0,0,2,2,0,0,0,0,1,0,2,0,3,1,0,1,1,1,2,1,3,2,0,2,1,2,2,2,3,3,0,3,1,3,2,0,0,0,1,0,2,0,3,1,0,1,2,1,3,2,0,2,1,2,3,3,0,3,1,3,2,0,0,0,1,0,2,0,3,1,0,1,2,1,3,2,0,2,1,2,3,3,0,3,1,3,2,0,0,0,1,0,2,0,3,2,0,2,1,2,3,0,0,0,1,0,2,0,3,13,0,13,2,13,3,0,0,0,1,0,2,0,3,2,0,2,1,2,3,0,0,0,1,0,2,0,3,13,0,13,2,0,0,0,1,0,2,0,3,13,0,13,1,13,2,0,0,0,13,13,0,0,0,0,1,0,2,0,3,1,0,1,2,1,3,2,0,2,1,2,3,3,0,3,1,3,2,0,0,0,13,13,0,0,0,0,1,0,2,0,3,2,0,2,1,2,2,0,0,0,1,0,2,0,3,13,0,13,1,13,3,0,0,0,1,0,2,0,3,1,0,1,2,1,3,2,0,2,1,2,3,3,0,3,1,3,2,0,0,0,1,0,2,0,3,1,0,1,2,1,3,2,0,2,1,2,3,3,0,3,1,3,2,0,0,0,1,0,2,0,3,13,0,13,2,0,0,0,2,2,0,0,0,0,2,2,0,0,0,0,1,0,2,0,3,1,0,1,2,1,3,2,0,2,1,2,3,3,0,3,1,3,2,0,0,0,2,2,0,0,0,0,1,0,2,0,3,1,0,1,2,1,3,2,0,2,1,2,3,3,0,3,1,3,2,0,0,0,1,0,2,0,3,1,0,1,2,1,3,2,0,2,1,2,3,3,0,3,1,3,2,0,0,0,1,0,2,0,3,1,0,1,2,1,3,2,0,2,1,2,3,3,0,3,1,3,2,0,0,0,1,0,2,0,3,13,0,13,2,0,0,0,2,1,0,1,2,2,0,3,0,3,2,0,0,0,1,0,2,0,3,1,0,1,2,1,3,2,0,2,1,2,3,3,0,3,1,3,2,0,0,0,1,0,2,0,3,1,0,1,2,1,3,2,0,2,1,2,3,3,0,3,1,3,2,0,0,0,1,0,2,0,3,1,0,1,2,1,3,2,0,2,1,2,3,3,0,3,1,3,2,0,0,0,1,0,2,0,3,13,0,13,1,13,3,0,0,0,1,0,2,0,3,13,0,13,1,13,3,0,0,0,2,2,0,0,0,0,2,2,0,0,0,0,1,0,2,0,3,2,0,2,1,2,2,0,0,0,1,0,2,0,3,1,0,1,2,1,3,2,0,2,1,2,3,3,0,3,1,3,2,0,0,0,1,0,2,0,3,1,0,1,2,1,3,2,0,2,1,2,3,3,0,3,1,3,2,0,0,0,1,0,2,0,3,1,0,1,2,1,3,2,0,2,1,2,3,3,0,3,1,3,2,0,0,0,13,13,0,0,0,0,1,0,2,0,3,1,0,1,2,1,3,2,0,2,1,2,3,3,0,3,1,3,2,0,0,0,1,0,2,0,3,13,0,13,2,0,0,0,1,0,2,0,3,1,0,1,2,1,3,2,0,2,1,2,3,3,0,3,1,3,2,0,0,0,1,0,2,0,3,1,0,1,2,1,3,2,0,2,1,2,3,3,0,3,1,3,2,0,0,0,13,1,0,2,0,2,13,3,0,0,0,0,1,0,2,0,3,13,0,13,2,0,0,0,2,2,0,0,0,0,2,2,0,0,0,0,2,1,0,1,2,2,0,3,0,3,2,0,0,0,1,0,2,0,3,1,0,1,2,1,3,2,0,2,1,2,3,3,0,3,1,3,2,0,0,0,1,0,2,0,3,1,0,1,1,1,2,1,3,2,0,2,1,2,2,2,3,3,0,3,2,3,3,0,0,0,1,0,2,0,3,1,0,1,2,1,3,2,0,2,1,2,3,3,0,3,1,3,2,0,0,0,1,0,2,0,3,1,0,1,2,1,3,2,0,2,1,2,3,3,0,3,1,3,2,0,0,0,1,0,2,0,3,1,0,1,2,1,3,2,0,2,1,2,3,3,0,3,1,3,2,0,0,0,1,0,2,0,3,1,0,1,2,1,3,2,0,2,1,2,3,3,0,3,1,3,2,0,0,0,1,0,2,0,3,1,0,1,2,1,3,2,0,2,1,2,3,3,0,3,1,3,2,0,0,0,1,0,2,0,3,1,0,1,2,1,3,2,0,2,1,2,3,3,0,3,1,3,2,0,0,0,1,0,2,0,3,1,0,1,2,1,3,2,0,2,1,2,3,3,0,3,1,3,2,0,0,0,1,0,2,0,3,1,0,1,1,1,3,2,0,2,1,2,2,3,0,3,1,3,2,3,3,0,0,0,1,0,2,0,3,1,0,1,2,1,3,2,0,2,1,2,3,3,0,3,1,3,2,0,0,0,2,1,0,1,2,2,0,3,0,3,2,0,0,0,1,0,2,0,3,1,0,1,2,1,3,2,0,2,1,2,3,3,0,3,1,3,2,0,0,0,1,0,2,0,3,1,0,1,2,1,3,2,0,2,1,2,3,3,0,3,1,3,2,0,0,0,1,0,2,0,3,13,0,13,1,13,3,0,0,0,1,0,2,0,3,1,0,1,2,1,3,2,0,2,1,2,3,3,0,3,1,3,2,0,0,0,2,1,0,1,2,2,0,3,0,3,2,0,0,0,1,0,2,0,3,1,0,1,2,1,3,2,0,2,1,2,3,3,0,3,1,3,2,0,0,0,2,1,0,1,2,2,0,3,0,3,2,0,0,0,2,1,0,1,2,2,0,3,0,3,2,0,0,0,1,0,2,0,3,1,0,1,2,1,3,2,0,2,1,2,3,3,0,3,1,3,2,0,0,0,2,1,0,1,2,2,0,3,0,3,2,0,0,0,1,0,2,0,3,13,0,13,1,13,3,0,0,0,2,1,0,1,2,2,0,3,0,3,2,0,0,0,13,13,0,0,0,0,1,0,2,0,3,1,0,1,2,1,3,2,0,2,1,2,3,3,0,3,1,3,2,0,0,0,1,0,2,0,3,1,0,1,2,1,3,2,0,2,1,2,3,3,0,3,1,3,2,0,0,0,1,0,2,0,3,1,0,1,2,1,3,2,0,2,1,2,3,3,0,3,1,3,2,0,0,0,1,0,2,0,3,13,0,13,2,0,0,0,1,0,2,0,3,1,0,1,2,1,3,2,0,2,1,2,3,3,0,3,1,3,2,0,0,0,13,13,0,0,0,0,2,2,0,0,0,0,1,0,2,0,3,1,0,1,2,1,3,2,0,2,1,2,3,3,0,3,1,3,2,0,0,0,1,0,2,0,3,13,0,13,2,0,0,0,1,0,2,0,3,1,0,1,2,1,3,2,0,2,1,2,3,3,0,3,1,3,2,0,0,0,13,1,0,2,0,2,13,3,0,0,0,0,1,0,2,0,3,1,0,1,2,1,3,2,0,2,1,2,3,3,0,3,1,3,2,0,0,0,1,0,2,0,3,13,0,13,1,13,3,0,0,0,1,0,2,0,3,1,0,1,2,1,3,2,0,2,1,2,3,3,0,3,1,3,2,0,0,0,13,13,0,0,0,0,1,0,2,0,3,1,0,1,2,1,3,2,0,2,1,2,3,3,0,3,1,3,2,0,0,0,1,0,2,0,3,13,0,13,1,13,3,0,0,0,2,1,0,1,2,2,0,3,0,3,2,0,0,0,1,0,2,0,3,1,0,1,2,1,3,2,0,2,1,2,3,3,0,3,1,3,2,0,0,0,1,0,2,0,3,13,0,13,2,0,0,0,1,0,2,0,3,13,0,13,2,0,0,0,1,0,2,0,3,13,0,13,2,0,0,0,2,2,0,0,0,0,2,2,0,0,0,0,13,13,0,0,0,0,1,0,2,0,3,1,0,1,2,1,3,2,0,2,1,2,3,3,0,3,1,3,2,0,0,0,1,0,2,0,3,1,0,1,2,1,3,2,0,2,1,2,3,3,0,3,1,3,2,0,0,0,1,0,2,0,3,13,0,13,1,13,3,0,0,0,1,0,2,0,3,1,0,1,2,1,3,2,0,2,1,2,3,3,0,3,1,3,2,0,0,0,1,0,2,0,3,1,0,1,2,1,3,2,0,2,1,2,3,3,0,3,1,3,2,0,0,0,1,0,2,0,3,13,0,13,1,13,3,0,0,0,1,0,2,0,3,1,0,1,2,1,3,2,0,2,1,2,3,3,0,3,1,3,2,0,0,0,13,13,0,0,0,0,13,13,0,0,0,0,1,0,2,0,3,1,0,1,2,1,3,2,0,2,1,2,3,3,0,3,1,3,2,0,0,0,2,2,0,0,0,0,1,0,2,0,3,1,0,1,2,1,3,2,0,2,1,2,3,3,0,3,1,3,2,0,0,0,1,0,2,0,3,1,0,1,2,1,3,2,0,2,1,2,3,3,0,3,1,3,2,0,0,0,1,0,2,0,3,1,0,1,2,1,3,2,0,2,1,2,3,3,0,3,1,3,2,0,0,0,1,0,2,0,3,13,0,13,1,13,3,0,0,0,1,0,2,0,3,13,0,13,1,13,3,0,0,0,1,0,2,0,3,1,0,1,2,1,3,2,0,2,1,2,3,3,0,3,1,3,2,0,0,0,1,0,2,0,3,1,0,1,1,1,2,1,3,2,0,2,1,2,2,2,3,3,0,3,2,3,3,0,0,0,1,0,2,0,3,1,0,1,2,1,3,2,0,2,1,2,3,3,0,3,1,3,2,0,0,0,1,0,2,0,3,1,0,1,2,1,3,2,0,2,1,2,3,3,0,3,1,3,2,0,0,0,1,0,2,0,3,1,0,1,2,1,3,2,0,2,1,2,3,3,0,3,1,3,2,0,0,0,1,0,2,0,3,1,0,1,2,1,3,2,0,2,1,2,3,3,0,3,1,3,2,0,0,0,1,0,2,0,3,1,0,1,2,1,3,2,0,2,1,2,3,3,0,3,1,3,2,0,0,0,1,0,2,0,3,1,0,1,2,1,3,2,0,2,1,2,3,3,0,3,1,3,2,0,0,0,2,1,0,1,2,2,0,3,0,3,2,0,0,0,13,13,0,0,0,0,2,2,0,0,0,0,1,0,2,0,3,1,0,1,2,1,3,2,0,2,1,2,3,3,0,3,1,3,2,0,0,0,2,1,0,2,0,2,2,3,0,3,2,0,0,0,13,13,0,0,0,0,1,0,2,0,3,1,0,1,2,1,3,2,0,2,1,2,3,3,0,3,1,3,2,0,0,0,2,2,0,0,0,0,13,13,0,0,0,0,1,0,2,0,3,1,0,1,2,1,3,2,0,2,1,2,3,3,0,3,1,3,2,0,0,0,2,2,0,0,0,0,1,0,2,0,3,1,0,1,2,1,3,2,0,2,1,2,3,3,0,3,1,3,2,0,0,0,1,0,2,0,3,1,0,1,2,1,3,2,0,2,1,2,3,3,0,3,1,3,2,0,0,0,2,2,0,0,0,0,2,2,0,0,0,0,1,0,2,0,3,1,0,1,2,1,3,2,0,2,1,2,3,3,0,3,1,3,2,0,0,0,2,1,0,1,2,2,0,3,0,3,2,0,0,0,2,2,0,0,0,0,1,0,2,0,3,1,0,1,2,1,3,2,0,2,1,2,3,3,0,3,1,3,2,0,0,0,1,0,2,0,3,1,0,1,2,1,3,2,0,2,1,2,3,3,0,3,1,3,2,0,0,0,2,1,0,1,2,2,0,2,2,3,0,0,0,0,1,0,2,0,3,1,0,1,2,1,3,2,0,2,1,2,3,3,0,3,1,3,2,0,0,0,1,0,2,0,3,1,0,1,2,1,3,2,0,2,1,2,3,3,0,3,1,3,2,0,0,0,1,0,2,0,3,1,0,1,2,1,3,2,0,2,1,2,3,3,0,3,1,3,2,0,0,0,13,13,0,0,0,0,1,0,2,0,3,13,0,13,1,13,3,0,0,0,2,1,0,1,2,2,0,3,0,3,2,0,0,0,1,0,2,0,3,13,0,13,1,13,3,0,0,0,2,1,0,1,2,2,0,3,0,3,2,0,0,0,1,0,2,0,3,1,0,1,2,1,3,2,0,2,1,2,3,3,0,3,1,3,2,0,0,0,1,0,2,0,3,1,0,1,2,1,3,2,0,2,1,2,3,3,0,3,1,3,2,0,0,0,1,0,2,0,3,13,0,13,1,13,3,0,0,0,1,0,2,0,3,1,0,1,2,1,3,2,0,2,1,2,3,3,0,3,1,3,2,0,0,0,1,0,2,0,3,1,0,1,2,1,3,2,0,2,1,2,3,3,0,3,1,3,2,0,0,0,1,0,2,0,3,1,0,1,2,1,3,2,0,2,1,2,3,3,0,3,1,3,2,0,0,0,1,0,2,0,3,1,0,1,2,1,3,2,0,2,1,2,3,3,0,3,1,3,2,0,0,0,2,2,0,0,0,0,2,2,0,0,0,0,1,0,2,0,3,13,0,13,1,13,3,0,0,0,13,13,0,0,0,0,13,13,0,0,0,0,2,2,0,0,0,0,1,0,2,0,3,1,0,1,2,1,3,2,0,2,1,2,3,3,0,3,1,3,2,0,0,0,1,0,2,0,3,1,0,1,2,1,3,2,0,2,1,2,3,3,0,3,1,3,2,0,0,0,1,0,2,0,3,1,0,1,2,1,3,2,0,2,1,2,3,3,0,3,1,3,2,0,0,0,2,2,0,0,0,0,1,0,2,0,3,1,0,1,2,1,3,2,0,2,1,2,3,3,0,3,1,3,2,0,0,0,2,2,0,0,0,0,1,0,2,0,3,1,0,1,1,1,2,1,3,2,0,2,1,2,2,2,3,3,0,3,2,3,3,0,0,0,2,1,0,1,2,2,0,3,0,3,2,0,0,0,1,0,2,0,3,13,0,13,2,13,3,0,0,0,1,0,2,0,3,1,0,1,2,1,3,2,0,2,1,2,3,3,0,3,1,3,2,0,0,0,2,1,0,1,2,2,0,2,2,3,0,0,0,0,1,0,2,0,3,13,0,13,1,13,3,0,0,0,1,0,2,0,3,1,0,1,2,1,3,2,0,2,1,2,3,3,0,3,1,3,2,0,0,0,13,13,0,0,0,0,1,0,2,0,3,1,0,1,2,1,3,2,0,2,1,2,3,3,0,3,1,3,2,0,0,0,13,13,0,0,0,0,1,0,2,0,3,1,0,1,2,1,3,2,0,2,1,2,3,3,0,3,1,3,2,0,0,0,1,0,2,0,3,1,0,1,2,1,3,2,0,2,1,2,3,3,0,3,1,3,2,0,0,0,13,1,0,2,0,2,13,3,0,0,0,0,1,0,2,0,3,2,0,2,1,2,3,0,0,0,2,1,0,1,2,2,0,3,0,3,2,0,0,0,1,0,2,0,3,1,0,1,1,1,2,1,3,2,0,2,2,2,3,3,0,3,1,3,2,3,3,0,0,0,2,2,0,0,0,0,1,0,2,0,3,1,0,1,2,1,3,2,0,2,1,2,3,3,0,3,1,3,2,0,0,0,1,0,2,0,3,1,0,1,2,1,3,2,0,2,1,2,3,3,0,3,1,3,2,0,0,0,13,13,0,0,0,0,2,1,0,1,2,2,0,3,0,3,2,0,0,0,2,1,0,1,2,2,0,3,0,3,2,0,0,0,1,0,2,0,3,13,0,13,2,0,0,0,1,0,2,0,3,1,0,1,2,1,3,2,0,2,1,2,3,3,0,3,1,3,2,0,0,0,1,0,2,0,3,1,0,1,2,1,3,2,0,2,1,2,3,3,0,3,1,3,2,0,0,0,1,0,2,0,3,1,0,1,2,1,3,2,0,2,1,2,3,3,0,3,1,3,2,0,0,0,13,13,0,0,0,0,1,0,2,0,3,13,0,13,2,0,0,0,1,0,2,0,3,13,0,13,1,13,2,0,0,0,1,0,2,0,3,13,0,13,1,13,3,0,0,0,2,2,0,0,0,0,1,0,2,0,3,1,0,1,2,1,3,2,0,2,1,2,3,3,0,3,1,3,2,0,0,0,13,13,0,0,0,0,1,0,2,0,3,1,0,1,2,1,3,2,0,2,1,2,3,3,0,3,1,3,2,0,0,0,1,0,2,0,3,1,0,1,1,1,3,2,0,2,1,2,2,3,0,3,1,3,2,3,3,0,0,0,1,0,2,0,3,2,0,2,1,2,3,0,0,0,13,13,0,0,0,0,2,2,0,0,0,0,1,0,2,0,3,1,0,1,2,1,3,2,0,2,1,2,3,3,0,3,1,3,2,0,0,0,1,0,2,0,3,1,0,1,2,1,3,2,0,2,1,2,3,3,0,3,1,3,2,0,0,0,1,0,2,0,3,1,0,1,1,1,2,1,3,2,0,2,2,2,3,3,0,3,1,3,3,0,0,0,1,0,2,0,3,1,0,1,1,1,2,1,3,2,0,2,2,2,3,3,0,3,1,3,3,0,0,0,1,0,2,0,3,1,0,1,2,1,3,2,0,2,1,2,3,3,0,3,1,3,2,0,0,0,1,0,2,0,3,13,0,13,2,0,0,0,2,2,0,0,0,0,13,13,0];
num_constraints3= 882;
max_constraints3 = 141162;
scopes3x = [93,298,93,66,403,314,64,92,315,64,93,93,92,309,91,92,314,310,309,429,427,64,436,312,91,313,91,64,309,65,550,553,525,314,286,64,312,314,67,64,66,549,93,286,317,92,318,67,311,93,64,91,315,92,65,313,118,66,91,313,298,286,313,313,65,75,310,311,66,310,362,286,311,314,311,316,298,81,93,309,92,298,316,286,66,311,298,604,316,316,91,91,312,67,66,65,298,316,66,310,314,525,309,315,309,286,314,309,298,313,317,67,427,312,318,316,315,65,318,66,286,66,65,312,65,314,93,67,315,585,64,317,317,312,314,318,431,66,65,314,525,316,313,317,313,67,286,286,605,318,298,311,309,310,605,602,65,309,315,585,309,316,315,65,553,317,318,315,67,314,311,312,586,311,310,310,316,298,604,64,318,93,316,313,92,310,439,298,65,435,586,525,91,312,312,286,547,312,311,315,93,66,93,317,603,92,92,286,318,312,604,314,317,91,550,91,309,309,315,93,438,310,317,318,365,314,525,92,547,309,604,92,65,314,92,586,427,312,65,75,525,586,585,91,91,309,64,309,603,313,65,309,585,311,310,309,311,311,314,311,93,525,298,404,309,92,286,64,427,586,286,286,415,548,310,314,313,286,65,604,315,430,65,427,309,298,298,286,311,315,92,317,298,309,315,317,311,91,92,318,316,312,309,403,431,91,93,415,315,309,317,312,309,309,318,313,315,315,525,99,64,66,314,314,550,316,311,64,525,93,310,64,402,309,92,366,317,318,317,64,309,318,286,91,64,310,66,313,314,525,67,317,312,310,318,317,309,318,427,64,298,310,313,316,286,64,427,92,298,315,312,309,317,312,312,318,315,312,316,525,317,93,318,66,298,314,316,92,317,298,547,318,315,91,585,93,66,64,286,310,66,312,92,315,314,318,309,93,316,92,315,66,91,92,605,585,313,66,91,314,309,67,317,91,430,65,64,67,547,315,525,311,310,310,66,602,314,310,64,81,317,286,551,310,318,93,309,313,311,298,66,313,314,317,309,318,313,430,316,313,314,316,64,585,67,585,316,311,64,604,431,548,298,118,75,310,311,316,99,309,586,315,93,99,298,65,92,553,314,317,91,93,318,428,317,66,318,92,317,298,316,309,91,315,318,313,431,586,309,318,317,65,314,93,585,318,315,309,66,92,404,92,317,315,586,311,318,312,91,67,91,309,64,312,525,605,66,312,604,286,317,317,309,318,318,313,313,286,313,65,317,66,310,430,440,313,66,298,549,65,525,547,65,431,67,66,604,315,311,316,65,316,525,313,309,604,604,547,586,315,65,64,298,65,316,312,311,604,314,286,311,525,298,551,311,313,603,314,65,65,309,286,547,586,93,286,402,65,430,318,431,92,314,298,548,91,316,402,309,316,312,415,92,66,315,312,604,97,314,315,91,65,430,93,310,310,316,92,586,415,429,604,310,403,310,96,91,431,428,93,93,118,92,92,309,91,309,316,91,311,286,315,310,65,66,309,311,286,67,65,431,309,93,286,66,316,298,93,92,309,315,65,549,315,286,314,93,368,309,64,65,431,314,298,316,92,317,64,317,311,317,91,585,318,318,312,315,547,363,65,312,429,309,309,314,313,298,605,316,298,585,313,525,318,317,434,585,315,318,311,64,309,434,313,311,314,311,429,312,298,602,309,315,64,92,313,525,64,428,429,314,91,309,585,309,604,586,311,310,585,310,64,310,66,65,97,431,525,317,298,431,97,316,93,316,602,586,586,286,435,92,427,66,429,316,298,64,91,603,603,96,312,316,67,93,427,96,585,316,316,64,298,65,314,317,316,318,315,316,298,93,309,66,93,309,604,586,310,317,312,312,431,318,314,67,553,91,404,316,525,317,318,66,364,415,312,64,66,315,318,602,317,551,318,286,313,67,310,93,315,437,310,310,92,415,315,314,317,525,64,318,66,313,314,298,298,313,286,312,313,415,64,66,298,367,311,298,311,298,547,67,93];
scopes3y = [117,310,121,82,427,304,79,117,301,88,112,112,121,297,117,112,301,296,294,444,401,82,415,295,121,299,112,88,296,80,536,547,535,301,317,79,300,300,83,85,88,536,120,317,303,120,303,88,299,113,85,120,304,113,83,299,91,80,113,297,315,314,294,300,83,91,299,295,85,297,385,317,294,302,300,287,310,44,115,290,115,315,287,318,88,300,314,586,301,289,115,115,296,88,82,83,311,305,88,295,301,551,296,300,293,316,304,294,313,296,287,88,399,300,287,306,299,80,287,79,318,85,88,299,82,299,121,85,303,603,79,305,289,300,300,305,442,85,82,303,551,304,294,302,300,85,316,315,589,302,312,296,294,297,589,589,85,291,287,603,297,287,287,82,547,304,304,301,85,301,299,296,603,297,295,300,288,314,589,80,287,114,308,295,114,296,415,311,88,415,602,536,114,299,294,317,531,300,295,299,119,79,111,288,589,119,119,317,288,299,589,299,303,119,537,119,290,292,303,113,415,299,308,308,385,303,550,111,528,290,585,111,85,302,116,602,400,297,79,92,536,605,602,111,116,297,83,293,589,297,79,292,605,299,295,296,297,294,304,300,118,550,310,427,292,118,316,83,401,605,316,315,427,536,300,301,300,315,79,586,299,442,85,401,296,312,313,317,295,303,117,308,313,293,299,305,296,117,112,305,303,299,291,427,444,112,114,440,303,297,302,297,294,295,302,299,302,287,549,57,80,83,302,287,535,307,299,80,551,120,296,82,427,291,120,385,301,301,304,88,295,304,316,120,83,300,83,295,304,549,83,307,296,299,307,306,295,306,399,80,312,300,300,308,318,85,399,115,312,303,299,290,287,297,294,287,302,300,289,537,308,116,308,80,310,300,302,116,303,311,530,303,302,116,603,117,80,82,318,296,82,295,117,304,302,289,292,112,289,121,301,88,117,112,589,602,296,83,121,301,292,88,307,112,444,80,88,83,527,304,537,297,299,294,80,589,304,300,79,44,289,318,537,299,289,120,294,299,300,314,85,299,287,289,296,289,297,444,303,300,287,287,82,605,83,605,305,299,85,589,443,537,312,91,93,297,300,302,57,293,603,302,57,75,310,83,57,547,302,287,57,115,287,441,305,82,305,115,302,311,304,293,115,304,302,296,442,603,291,303,288,80,304,113,603,288,301,295,88,113,427,113,287,300,605,296,287,297,113,88,113,295,79,294,535,589,79,300,585,314,304,307,294,304,307,299,294,316,300,88,288,82,299,442,427,299,85,312,537,82,549,557,88,443,85,82,585,303,299,308,80,305,535,295,292,589,586,534,603,304,80,79,311,82,302,299,297,586,299,318,294,536,313,535,300,296,589,299,88,85,296,318,533,602,121,317,427,83,443,308,442,121,303,311,535,121,301,427,290,304,294,404,114,79,301,300,586,57,303,300,114,85,443,119,294,299,306,119,605,427,444,585,297,427,300,57,119,443,441,57,111,91,57,111,291,57,292,287,111,299,316,302,295,82,79,291,297,314,85,79,444,295,115,314,79,303,311,118,118,293,301,88,535,304,316,303,116,385,297,83,79,444,302,310,307,116,287,83,301,296,289,116,603,301,289,299,300,532,385,85,297,442,297,294,304,299,313,589,289,313,602,297,537,307,306,427,602,287,306,299,83,297,415,300,294,287,300,442,295,312,589,295,303,80,120,295,550,88,441,443,303,120,290,602,296,589,603,295,297,605,294,82,300,83,79,57,444,537,287,315,442,75,301,114,288,589,602,602,317,427,114,400,83,443,287,310,85,114,589,589,57,297,287,83,119,400,75,605,307,306,82,313,83,301,301,288,301,302,288,313,111,291,83,116,293,585,605,299,287,295,300,443,287,300,83,547,111,427,287,536,306,306,80,385,402,296,88,88,304,288,589,288,536,288,315,297,88,297,118,302,415,294,300,118,427,301,302,287,535,80,287,80,297,303,310,311,294,318,299,300,403,85,85,315,385,297,312,300,314,529,85,117];
scopes3z = [129,327,129,105,413,331,106,130,329,107,130,129,129,320,130,130,329,325,320,424,414,109,427,322,129,329,130,106,324,105,555,528,519,327,307,105,328,328,109,107,110,555,130,308,332,130,332,110,329,128,106,130,328,128,107,327,129,110,128,323,329,301,323,323,106,57,324,322,110,327,377,304,323,330,323,302,325,62,129,320,130,327,303,305,107,328,328,564,331,306,130,129,324,107,109,105,324,332,106,324,332,536,323,329,322,308,330,319,325,325,302,106,414,329,302,331,326,109,303,105,307,107,108,326,107,326,128,107,326,567,109,332,305,327,327,332,425,106,106,326,537,332,322,332,322,106,304,304,567,332,322,324,321,325,563,565,108,323,302,563,324,306,303,105,556,332,332,331,105,331,324,323,566,327,323,326,306,327,567,108,306,129,332,324,129,322,427,323,110,427,567,522,129,323,325,302,554,325,324,328,129,109,129,306,567,130,129,303,306,328,563,328,330,130,555,129,321,319,328,130,427,322,332,332,377,328,536,130,554,324,566,129,110,326,128,563,414,324,107,57,521,567,564,129,128,323,109,324,563,325,106,325,564,323,322,319,325,325,326,325,129,537,322,414,321,129,303,108,413,563,302,302,399,555,328,330,326,303,105,565,329,423,107,412,325,326,329,306,323,329,129,331,327,323,327,330,322,129,129,330,332,327,319,412,425,129,128,427,327,322,330,323,322,319,330,322,328,304,536,76,107,109,328,304,555,332,322,106,535,129,324,108,414,325,129,377,332,332,330,105,325,330,306,129,110,329,108,322,328,537,108,332,325,326,332,332,321,332,413,105,323,327,328,330,306,105,412,129,328,332,325,322,301,322,322,301,329,322,305,522,330,130,330,107,324,329,332,130,331,326,554,331,327,130,565,128,106,110,308,323,108,325,128,329,327,305,320,128,307,128,326,105,128,128,565,565,324,110,128,326,322,105,331,128,424,108,109,110,554,327,520,322,323,325,105,566,327,325,108,63,307,304,555,328,307,128,324,326,329,329,105,324,302,308,320,308,327,423,330,327,303,305,107,565,107,566,331,326,109,565,425,555,327,128,57,324,327,331,77,319,567,332,76,57,323,109,76,557,332,305,76,128,305,419,331,110,331,128,331,328,331,325,128,332,331,323,423,563,320,330,305,110,332,129,564,305,328,320,109,130,413,129,307,326,565,323,307,326,130,109,129,322,110,324,522,564,108,324,567,304,331,330,323,331,330,323,325,301,325,107,307,107,327,424,447,328,109,325,555,109,535,554,106,423,109,106,563,330,328,331,107,330,520,323,324,564,566,554,564,331,106,107,329,108,330,329,324,567,329,302,324,519,322,555,324,322,564,327,105,106,321,303,554,564,130,305,413,110,424,331,426,130,329,327,555,130,332,412,323,330,323,427,128,110,327,323,563,76,327,328,128,105,423,128,322,325,332,128,564,400,423,564,322,414,322,76,128,426,420,77,128,130,77,128,321,77,323,301,128,327,305,330,325,110,107,324,323,302,110,109,424,324,130,303,106,331,325,128,128,320,332,109,555,330,307,332,129,377,319,107,108,423,329,326,331,129,303,106,331,325,306,129,566,331,306,324,327,554,377,109,327,424,325,325,329,325,326,566,308,324,566,322,521,331,331,447,567,301,331,325,105,321,427,329,322,301,322,423,324,329,567,323,331,109,128,325,535,108,421,424,331,128,319,563,322,566,565,325,326,567,324,106,324,107,110,77,426,519,306,326,424,57,330,130,305,563,565,566,301,447,130,413,106,423,307,328,108,130,565,566,77,325,308,106,130,412,57,563,330,330,105,323,108,328,330,307,330,326,308,328,130,322,105,128,321,565,566,329,308,323,326,424,308,326,105,527,130,412,304,520,330,330,109,377,427,322,110,108,326,307,564,308,555,308,301,324,108,323,130,331,427,323,323,130,401,330,331,304,521,110,304,108,326,330,329,322,324,301,322,324,427,110,108,328,377,326,324,326,326,554,108,130];
num_tuples3 = [63,31,31,31,31,63,31,63,63,31,31,31,31,63,63,31,63,63,63,63,31,31,31,63,31,63,31,31,63,31,63,63,63,63,63,31,63,63,31,31,31,63,63,63,63,63,63,31,63,31,31,63,63,31,31,63,63,31,31,63,31,63,63,63,31,31,63,63,31,63,63,63,63,63,63,63,31,15,63,63,63,31,63,63,31,63,31,63,63,63,63,63,63,31,31,31,31,63,31,63,63,63,63,63,63,63,63,63,31,63,63,31,31,63,63,63,63,31,63,31,63,31,31,63,31,63,31,31,63,63,31,63,63,63,63,63,63,31,31,63,63,63,63,63,63,31,63,63,63,63,31,63,63,63,63,63,31,63,63,63,63,63,63,31,63,63,63,63,31,63,63,63,63,63,63,63,63,31,63,31,63,31,63,63,31,63,31,31,31,63,63,63,31,63,63,63,63,63,63,63,63,31,31,63,63,63,63,63,63,63,63,63,63,63,63,63,63,63,63,31,31,63,63,63,63,63,63,31,63,63,63,31,31,63,63,63,31,63,31,31,63,63,63,31,63,63,31,63,63,63,31,63,63,63,63,63,63,63,63,63,63,63,31,31,63,63,63,31,31,63,63,63,63,31,63,63,63,63,31,63,63,63,31,31,63,31,31,63,63,63,63,63,31,63,63,63,63,63,31,63,63,63,63,31,63,31,31,63,63,63,63,63,63,63,63,63,63,63,63,7,31,31,63,63,63,63,63,31,63,63,63,31,31,63,63,63,63,63,63,31,63,63,63,63,31,63,31,63,63,63,31,63,63,63,63,63,63,63,31,31,31,63,63,63,63,31,31,63,31,63,63,63,63,63,63,63,63,63,63,63,63,63,63,31,31,63,63,63,63,31,63,63,63,63,63,63,31,31,63,63,31,63,63,63,63,63,63,31,63,31,63,31,63,31,63,63,63,31,31,63,63,31,63,31,63,31,31,31,63,63,63,63,63,63,31,63,63,63,31,15,63,63,63,63,63,63,63,63,63,31,31,63,63,63,63,63,63,63,63,63,63,63,31,63,31,63,63,63,31,63,63,31,31,63,31,63,63,63,7,63,63,63,15,15,31,31,15,63,63,63,15,63,63,63,63,31,63,63,63,31,63,63,63,63,63,63,63,63,63,63,63,31,63,31,63,63,63,63,31,31,31,31,63,63,63,63,63,63,31,31,31,63,31,63,63,63,31,63,63,63,63,63,63,63,63,63,63,63,63,31,63,31,63,63,63,63,31,31,63,31,63,63,31,63,31,31,63,63,63,63,31,63,63,63,63,63,63,63,63,63,31,31,31,31,63,63,63,63,63,63,63,63,31,63,63,63,63,63,31,31,63,63,63,63,31,63,31,31,63,63,63,31,63,31,31,31,63,31,63,63,63,63,31,31,63,63,63,7,63,63,31,31,63,63,63,63,63,63,63,63,63,63,63,31,63,7,63,63,63,15,31,63,15,31,63,15,63,63,31,63,63,63,63,31,31,63,63,63,31,31,63,63,63,63,31,63,31,63,63,63,63,31,63,63,63,63,63,63,63,31,31,63,63,31,63,63,63,31,63,63,63,63,63,63,63,63,63,63,63,31,63,63,63,63,63,63,31,63,63,31,63,63,63,63,63,63,63,63,63,63,31,63,63,63,63,63,63,63,63,31,63,63,63,31,63,63,63,31,63,63,63,63,63,63,63,63,63,63,63,63,63,31,63,31,31,7,63,63,63,31,63,15,63,31,63,63,63,63,63,63,31,31,31,63,63,31,31,31,63,63,7,63,63,31,63,31,15,63,63,63,31,31,31,63,63,63,63,63,63,31,31,63,31,63,63,63,63,63,63,63,63,63,63,63,31,63,31,31,63,63,63,63,31,63,63,63,31,31,63,63,63,63,63,63,63,63,31,63,63,63,31,63,63,63,63,63,63,63,63,31,63,31,63,63,31,31,63,63,63,63,63,31,31,31,63,63,31,63,31,63,31,63];
cum_tuples3 = [0,63,94,125,156,187,250,281,344,407,438,469,500,531,594,657,688,751,814,877,940,971,1002,1033,1096,1127,1190,1221,1252,1315,1346,1409,1472,1535,1598,1661,1692,1755,1818,1849,1880,1911,1974,2037,2100,2163,2226,2289,2320,2383,2414,2445,2508,2571,2602,2633,2696,2759,2790,2821,2884,2915,2978,3041,3104,3135,3166,3229,3292,3323,3386,3449,3512,3575,3638,3701,3764,3795,3810,3873,3936,3999,4030,4093,4156,4187,4250,4281,4344,4407,4470,4533,4596,4659,4690,4721,4752,4783,4846,4877,4940,5003,5066,5129,5192,5255,5318,5381,5444,5475,5538,5601,5632,5663,5726,5789,5852,5915,5946,6009,6040,6103,6134,6165,6228,6259,6322,6353,6384,6447,6510,6541,6604,6667,6730,6793,6856,6919,6950,6981,7044,7107,7170,7233,7296,7359,7390,7453,7516,7579,7642,7673,7736,7799,7862,7925,7988,8019,8082,8145,8208,8271,8334,8397,8428,8491,8554,8617,8680,8711,8774,8837,8900,8963,9026,9089,9152,9215,9246,9309,9340,9403,9434,9497,9560,9591,9654,9685,9716,9747,9810,9873,9936,9967,10030,10093,10156,10219,10282,10345,10408,10471,10502,10533,10596,10659,10722,10785,10848,10911,10974,11037,11100,11163,11226,11289,11352,11415,11478,11541,11572,11603,11666,11729,11792,11855,11918,11981,12012,12075,12138,12201,12232,12263,12326,12389,12452,12483,12546,12577,12608,12671,12734,12797,12828,12891,12954,12985,13048,13111,13174,13205,13268,13331,13394,13457,13520,13583,13646,13709,13772,13835,13898,13929,13960,14023,14086,14149,14180,14211,14274,14337,14400,14463,14494,14557,14620,14683,14746,14777,14840,14903,14966,14997,15028,15091,15122,15153,15216,15279,15342,15405,15468,15499,15562,15625,15688,15751,15814,15845,15908,15971,16034,16097,16128,16191,16222,16253,16316,16379,16442,16505,16568,16631,16694,16757,16820,16883,16946,17009,17016,17047,17078,17141,17204,17267,17330,17393,17424,17487,17550,17613,17644,17675,17738,17801,17864,17927,17990,18053,18084,18147,18210,18273,18336,18367,18430,18461,18524,18587,18650,18681,18744,18807,18870,18933,18996,19059,19122,19153,19184,19215,19278,19341,19404,19467,19498,19529,19592,19623,19686,19749,19812,19875,19938,20001,20064,20127,20190,20253,20316,20379,20442,20505,20536,20567,20630,20693,20756,20819,20850,20913,20976,21039,21102,21165,21228,21259,21290,21353,21416,21447,21510,21573,21636,21699,21762,21825,21856,21919,21950,22013,22044,22107,22138,22201,22264,22327,22358,22389,22452,22515,22546,22609,22640,22703,22734,22765,22796,22859,22922,22985,23048,23111,23174,23205,23268,23331,23394,23425,23440,23503,23566,23629,23692,23755,23818,23881,23944,24007,24038,24069,24132,24195,24258,24321,24384,24447,24510,24573,24636,24699,24762,24793,24856,24887,24950,25013,25076,25107,25170,25233,25264,25295,25358,25389,25452,25515,25578,25585,25648,25711,25774,25789,25804,25835,25866,25881,25944,26007,26070,26085,26148,26211,26274,26337,26368,26431,26494,26557,26588,26651,26714,26777,26840,26903,26966,27029,27092,27155,27218,27281,27312,27375,27406,27469,27532,27595,27658,27689,27720,27751,27782,27845,27908,27971,28034,28097,28160,28191,28222,28253,28316,28347,28410,28473,28536,28567,28630,28693,28756,28819,28882,28945,29008,29071,29134,29197,29260,29323,29354,29417,29448,29511,29574,29637,29700,29731,29762,29825,29856,29919,29982,30013,30076,30107,30138,30201,30264,30327,30390,30421,30484,30547,30610,30673,30736,30799,30862,30925,30988,31019,31050,31081,31112,31175,31238,31301,31364,31427,31490,31553,31616,31647,31710,31773,31836,31899,31962,31993,32024,32087,32150,32213,32276,32307,32370,32401,32432,32495,32558,32621,32652,32715,32746,32777,32808,32871,32902,32965,33028,33091,33154,33185,33216,33279,33342,33405,33412,33475,33538,33569,33600,33663,33726,33789,33852,33915,33978,34041,34104,34167,34230,34293,34324,34387,34394,34457,34520,34583,34598,34629,34692,34707,34738,34801,34816,34879,34942,34973,35036,35099,35162,35225,35256,35287,35350,35413,35476,35507,35538,35601,35664,35727,35790,35821,35884,35915,35978,36041,36104,36167,36198,36261,36324,36387,36450,36513,36576,36639,36670,36701,36764,36827,36858,36921,36984,37047,37078,37141,37204,37267,37330,37393,37456,37519,37582,37645,37708,37771,37802,37865,37928,37991,38054,38117,38180,38211,38274,38337,38368,38431,38494,38557,38620,38683,38746,38809,38872,38935,38998,39029,39092,39155,39218,39281,39344,39407,39470,39533,39564,39627,39690,39753,39784,39847,39910,39973,40004,40067,40130,40193,40256,40319,40382,40445,40508,40571,40634,40697,40760,40823,40854,40917,40948,40979,40986,41049,41112,41175,41206,41269,41284,41347,41378,41441,41504,41567,41630,41693,41756,41787,41818,41849,41912,41975,42006,42037,42068,42131,42194,42201,42264,42327,42358,42421,42452,42467,42530,42593,42656,42687,42718,42749,42812,42875,42938,43001,43064,43127,43158,43189,43252,43283,43346,43409,43472,43535,43598,43661,43724,43787,43850,43913,43976,44007,44070,44101,44132,44195,44258,44321,44384,44415,44478,44541,44604,44635,44666,44729,44792,44855,44918,44981,45044,45107,45170,45201,45264,45327,45390,45421,45484,45547,45610,45673,45736,45799,45862,45925,45956,46019,46050,46113,46176,46207,46238,46301,46364,46427,46490,46553,46584,46615,46646,46709,46772,46803,46866,46897,46960,46991];
constraints3 = [0,0,0,0,0,1,0,0,2,0,0,3,0,1,0,0,1,1,0,1,2,0,1,3,0,2,0,0,2,1,0,2,2,0,2,3,0,3,0,0,3,1,0,3,2,0,3,3,1,0,0,1,0,1,1,0,2,1,0,3,1,1,0,1,1,1,1,1,2,1,1,3,1,2,0,1,2,1,1,2,2,1,2,3,1,3,0,1,3,1,1,3,2,1,3,3,2,0,0,2,0,1,2,0,2,2,0,3,2,1,0,2,1,1,2,1,2,2,1,3,2,2,0,2,2,1,2,2,2,2,2,3,2,3,0,2,3,1,2,3,2,2,3,3,3,0,0,3,0,1,3,0,2,3,0,3,3,1,0,3,1,1,3,1,2,3,1,3,3,2,0,3,2,2,3,2,3,3,3,0,3,3,1,3,3,2,3,3,3,0,0,0,0,0,1,0,0,2,0,0,3,0,1,0,0,1,1,0,1,2,0,1,3,0,2,0,0,2,1,0,2,2,0,2,3,0,3,0,0,3,1,0,3,2,0,3,3,13,0,0,13,0,1,13,0,2,13,0,3,13,1,0,13,1,1,13,1,2,13,1,3,13,2,0,13,2,2,13,2,3,13,3,0,13,3,1,13,3,2,13,3,3,0,0,0,0,0,1,0,0,2,0,0,3,0,2,0,0,2,1,0,2,2,0,2,3,1,0,0,1,0,1,1,0,2,1,0,3,1,2,0,1,2,1,1,2,2,1,2,3,2,0,0,2,0,1,2,0,2,2,0,3,2,2,0,2,2,1,2,2,2,2,2,3,3,0,0,3,0,1,3,0,2,3,0,3,3,2,0,3,2,2,3,2,3,0,0,0,0,0,1,0,0,2,0,0,3,0,1,0,0,1,1,0,1,2,0,1,3,0,2,0,0,2,1,0,2,2,0,2,3,0,3,0,0,3,1,0,3,2,0,3,3,13,0,0,13,0,1,13,0,2,13,0,3,13,1,0,13,1,1,13,1,2,13,1,3,13,2,0,13,2,2,13,2,3,13,3,0,13,3,1,13,3,2,13,3,3,0,0,0,0,0,2,0,1,0,0,1,2,0,2,0,0,2,2,0,3,0,0,3,2,1,0,0,1,0,2,1,1,0,1,1,2,1,2,0,1,2,2,1,3,0,1,3,2,2,0,0,2,0,2,2,1,0,2,1,2,2,2,0,2,2,2,2,3,0,2,3,2,3,0,0,3,0,2,3,1,0,3,2,0,3,2,2,3,3,0,3,3,2,0,0,0,0,0,1,0,0,2,0,0,3,0,1,0,0,1,1,0,1,2,0,1,3,0,2,0,0,2,1,0,2,2,0,2,3,0,3,0,0,3,1,0,3,2,0,3,3,1,0,0,1,0,1,1,0,2,1,0,3,1,1,0,1,1,1,1,1,2,1,1,3,1,2,0,1,2,1,1,2,2,1,2,3,1,3,0,1,3,1,1,3,2,1,3,3,2,0,0,2,0,1,2,0,2,2,0,3,2,1,0,2,1,1,2,1,2,2,1,3,2,2,0,2,2,1,2,2,2,2,2,3,2,3,0,2,3,2,2,3,3,3,0,0,3,0,1,3,0,2,3,0,3,3,1,0,3,1,1,3,1,2,3,1,3,3,2,0,3,2,1,3,2,2,3,2,3,3,3,0,3,3,1,3,3,2,3,3,3,0,0,0,0,0,1,0,0,2,0,0,3,0,1,0,0,1,1,0,1,2,0,1,3,0,2,0,0,2,1,0,2,2,0,2,3,0,3,0,0,3,1,0,3,2,0,3,3,13,0,0,13,0,1,13,0,2,13,0,3,13,1,0,13,1,1,13,1,2,13,1,3,13,2,0,13,2,2,13,2,3,13,3,0,13,3,1,13,3,2,13,3,3,0,0,0,0,0,1,0,0,2,0,0,3,0,1,0,0,1,1,0,1,2,0,1,3,0,2,0,0,2,1,0,2,2,0,2,3,0,3,0,0,3,1,0,3,2,0,3,3,1,0,0,1,0,1,1,0,2,1,0,3,1,1,0,1,1,1,1,1,2,1,1,3,1,2,0,1,2,1,1,2,2,1,2,3,1,3,0,1,3,1,1,3,2,1,3,3,2,0,0,2,0,1,2,0,2,2,0,3,2,1,0,2,1,1,2,1,2,2,1,3,2,2,0,2,2,1,2,2,2,2,2,3,2,3,0,2,3,1,2,3,2,2,3,3,3,0,0,3,0,1,3,0,2,3,0,3,3,1,0,3,1,1,3,1,2,3,1,3,3,2,0,3,2,2,3,2,3,3,3,0,3,3,1,3,3,2,3,3,3,0,0,0,0,0,1,0,0,2,0,0,3,0,1,0,0,1,1,0,1,2,0,1,3,0,2,0,0,2,1,0,2,2,0,2,3,0,3,0,0,3,1,0,3,2,0,3,3,1,0,0,1,0,1,1,0,2,1,0,3,1,1,0,1,1,1,1,1,2,1,1,3,1,2,0,1,2,1,1,2,2,1,2,3,1,3,0,1,3,1,1,3,2,1,3,3,2,0,0,2,0,1,2,0,2,2,0,3,2,1,0,2,1,1,2,1,2,2,1,3,2,2,0,2,2,1,2,2,2,2,2,3,2,3,0,2,3,2,2,3,3,3,0,0,3,0,1,3,0,2,3,0,3,3,1,0,3,1,1,3,1,2,3,1,3,3,2,0,3,2,1,3,2,2,3,2,3,3,3,0,3,3,1,3,3,2,3,3,3,0,0,0,0,0,1,0,0,2,0,0,3,0,1,0,0,1,1,0,1,2,0,1,3,0,2,0,0,2,1,0,2,2,0,2,3,0,3,0,0,3,1,0,3,2,0,3,3,13,0,0,13,0,1,13,0,2,13,0,3,13,1,0,13,1,1,13,1,2,13,1,3,13,2,0,13,2,2,13,2,3,13,3,0,13,3,1,13,3,2,13,3,3,0,0,0,0,0,1,0,0,2,0,0,3,0,2,0,0,2,1,0,2,2,0,2,3,1,0,0,1,0,1,1,0,2,1,0,3,1,2,0,1,2,1,1,2,2,1,2,3,2,0,0,2,0,1,2,0,2,2,0,3,2,2,0,2,2,1,2,2,2,2,2,3,3,0,0,3,0,1,3,0,2,3,0,3,3,2,0,3,2,2,3,2,3,0,0,0,0,0,1,0,0,2,0,0,3,0,2,0,0,2,1,0,2,2,0,2,3,1,0,0,1,0,1,1,0,2,1,0,3,1,2,0,1,2,1,1,2,2,1,2,3,2,0,0,2,0,1,2,0,2,2,0,3,2,2,0,2,2,1,2,2,2,2,2,3,3,0,0,3,0,1,3,0,2,3,0,3,3,2,0,3,2,2,3,2,3,0,0,0,0,0,1,0,0,2,0,0,3,0,2,0,0,2,1,0,2,2,0,2,3,1,0,0,1,0,1,1,0,2,1,0,3,1,2,0,1,2,1,1,2,2,1,2,3,2,0,0,2,0,1,2,0,2,2,0,3,2,2,0,2,2,1,2,2,2,2,2,3,3,0,0,3,0,1,3,0,2,3,0,3,3,2,0,3,2,2,3,2,3,0,0,0,0,0,1,0,0,2,0,0,3,0,1,0,0,1,1,0,1,2,0,1,3,0,2,0,0,2,1,0,2,2,0,2,3,0,3,0,0,3,1,0,3,2,0,3,3,1,0,0,1,0,1,1,0,2,1,0,3,1,1,0,1,1,1,1,1,2,1,1,3,1,2,0,1,2,1,1,2,2,1,2,3,1,3,0,1,3,1,1,3,2,1,3,3,2,0,0,2,0,1,2,0,2,2,0,3,2,1,0,2,1,1,2,1,2,2,1,3,2,2,0,2,2,1,2,2,2,2,2,3,2,3,0,2,3,2,2,3,3,3,0,0,3,0,1,3,0,2,3,0,3,3,1,0,3,1,1,3,1,2,3,1,3,3,2,0,3,2,1,3,2,2,3,2,3,3,3,0,3,3,1,3,3,2,3,3,3,0,0,0,0,0,1,0,0,2,0,0,3,0,1,0,0,1,1,0,1,2,0,1,3,0,2,0,0,2,1,0,2,2,0,2,3,0,3,0,0,3,1,0,3,2,0,3,3,1,0,0,1,0,1,1,0,2,1,0,3,1,1,0,1,1,1,1,1,2,1,1,3,1,2,0,1,2,1,1,2,2,1,2,3,1,3,0,1,3,1,1,3,2,1,3,3,2,0,0,2,0,1,2,0,2,2,0,3,2,1,0,2,1,1,2,1,2,2,1,3,2,2,0,2,2,1,2,2,2,2,2,3,2,3,0,2,3,1,2,3,2,2,3,3,3,0,0,3,0,1,3,0,2,3,0,3,3,1,0,3,1,1,3,1,2,3,1,3,3,2,0,3,2,2,3,2,3,3,3,0,3,3,1,3,3,2,3,3,3,0,0,0,0,0,1,0,0,2,0,0,3,0,2,0,0,2,1,0,2,2,0,2,3,1,0,0,1,0,1,1,0,2,1,0,3,1,2,0,1,2,1,1,2,2,1,2,3,2,0,0,2,0,1,2,0,2,2,0,3,2,2,0,2,2,1,2,2,2,2,2,3,3,0,0,3,0,1,3,0,2,3,0,3,3,2,0,3,2,2,3,2,3,0,0,0,0,0,1,0,0,2,0,0,3,0,1,0,0,1,1,0,1,2,0,1,3,0,2,0,0,2,1,0,2,2,0,2,3,0,3,0,0,3,1,0,3,2,0,3,3,1,0,0,1,0,1,1,0,2,1,0,3,1,1,0,1,1,1,1,1,2,1,1,3,1,2,0,1,2,1,1,2,2,1,2,3,1,3,0,1,3,1,1,3,2,1,3,3,2,0,0,2,0,1,2,0,2,2,0,3,2,1,0,2,1,1,2,1,2,2,1,3,2,2,0,2,2,1,2,2,2,2,2,3,2,3,0,2,3,2,2,3,3,3,0,0,3,0,1,3,0,2,3,0,3,3,1,0,3,1,1,3,1,2,3,1,3,3,2,0,3,2,1,3,2,2,3,2,3,3,3,0,3,3,1,3,3,2,3,3,3,0,0,0,0,0,1,0,0,2,0,0,3,0,1,0,0,1,1,0,1,2,0,1,3,0,2,0,0,2,1,0,2,2,0,2,3,0,3,0,0,3,1,0,3,2,0,3,3,1,0,0,1,0,1,1,0,2,1,0,3,1,1,0,1,1,1,1,1,2,1,1,3,1,2,0,1,2,1,1,2,2,1,2,3,1,3,0,1,3,1,1,3,2,1,3,3,2,0,0,2,0,1,2,0,2,2,0,3,2,1,0,2,1,1,2,1,2,2,1,3,2,2,0,2,2,1,2,2,2,2,2,3,2,3,0,2,3,2,2,3,3,3,0,0,3,0,1,3,0,2,3,0,3,3,1,0,3,1,1,3,1,2,3,1,3,3,2,0,3,2,1,3,2,2,3,2,3,3,3,0,3,3,1,3,3,2,3,3,3,0,0,0,0,0,1,0,0,2,0,0,3,0,1,0,0,1,1,0,1,2,0,1,3,0,2,0,0,2,1,0,2,2,0,2,3,0,3,0,0,3,1,0,3,2,0,3,3,1,0,0,1,0,1,1,0,2,1,0,3,1,1,0,1,1,1,1,1,2,1,1,3,1,2,0,1,2,1,1,2,2,1,2,3,1,3,0,1,3,1,1,3,2,1,3,3,2,0,0,2,0,1,2,0,2,2,0,3,2,1,0,2,1,1,2,1,2,2,1,3,2,2,0,2,2,1,2,2,2,2,2,3,2,3,0,2,3,2,2,3,3,3,0,0,3,0,1,3,0,2,3,0,3,3,1,0,3,1,1,3,1,2,3,1,3,3,2,0,3,2,1,3,2,2,3,2,3,3,3,0,3,3,1,3,3,2,3,3,3,0,0,0,0,0,1,0,0,2,0,0,3,0,1,0,0,1,1,0,1,2,0,1,3,0,2,0,0,2,1,0,2,2,0,2,3,0,3,0,0,3,1,0,3,2,0,3,3,1,0,0,1,0,1,1,0,2,1,0,3,1,1,0,1,1,1,1,1,2,1,1,3,1,2,0,1,2,1,1,2,2,1,2,3,1,3,0,1,3,1,1,3,2,1,3,3,2,0,0,2,0,1,2,0,2,2,0,3,2,1,0,2,1,1,2,1,2,2,2,0,2,2,1,2,2,2,2,2,3,2,3,0,2,3,1,2,3,2,2,3,3,3,0,0,3,0,1,3,0,2,3,0,3,3,1,0,3,1,1,3,1,2,3,1,3,3,2,0,3,2,1,3,2,2,3,2,3,3,3,0,3,3,1,3,3,2,3,3,3,0,0,0,0,0,2,0,1,0,0,1,2,0,2,0,0,2,2,0,3,0,0,3,2,1,0,0,1,0,2,1,1,0,1,1,2,1,2,0,1,2,2,1,3,0,2,0,0,2,0,2,2,1,0,2,1,2,2,2,0,2,2,2,2,3,0,2,3,2,3,0,0,3,0,2,3,1,0,3,1,2,3,2,0,3,2,2,3,3,0,3,3,2,0,0,0,0,0,1,0,0,2,0,0,3,0,1,0,0,1,1,0,1,2,0,1,3,0,2,0,0,2,1,0,2,2,0,2,3,0,3,0,0,3,1,0,3,2,0,3,3,13,0,0,13,0,1,13,0,2,13,0,3,13,1,0,13,1,1,13,1,2,13,1,3,13,2,0,13,2,2,13,2,3,13,3,0,13,3,1,13,3,2,13,3,3,0,0,0,0,0,1,0,0,2,0,0,3,0,1,0,0,1,1,0,1,2,0,1,3,0,2,0,0,2,1,0,2,2,0,2,3,0,3,0,0,3,1,0,3,2,0,3,3,13,0,0,13,0,1,13,0,2,13,0,3,13,1,0,13,1,1,13,1,2,13,1,3,13,2,0,13,2,1,13,2,2,13,2,3,13,3,0,13,3,1,13,3,3,0,0,0,0,0,1,0,0,2,0,0,3,0,1,0,0,1,1,0,1,2,0,1,3,0,2,0,0,2,1,0,2,2,0,2,3,0,3,0,0,3,1,0,3,2,0,3,3,1,0,0,1,0,1,1,0,2,1,0,3,1,1,0,1,1,1,1,1,2,1,1,3,1,2,0,1,2,1,1,2,2,1,2,3,1,3,0,1,3,1,1,3,2,1,3,3,2,0,0,2,0,1,2,0,2,2,0,3,2,1,0,2,1,1,2,1,2,2,1,3,2,2,0,2,2,1,2,2,2,2,2,3,2,3,0,2,3,2,2,3,3,3,0,0,3,0,1,3,0,2,3,0,3,3,1,0,3,1,1,3,1,2,3,1,3,3,2,0,3,2,1,3,2,2,3,2,3,3,3,0,3,3,1,3,3,2,3,3,3,0,0,0,0,0,1,0,0,2,0,0,3,0,2,0,0,2,1,0,2,2,0,2,3,1,0,0,1,0,1,1,0,2,1,0,3,1,2,0,1,2,1,1,2,2,1,2,3,2,0,0,2,0,1,2,0,2,2,0,3,2,2,0,2,2,1,2,2,2,2,2,3,3,0,0,3,0,1,3,0,2,3,0,3,3,2,0,3,2,2,3,2,3,0,0,0,0,0,1,0,0,2,0,0,3,0,1,0,0,1,1,0,1,2,0,1,3,0,2,0,0,2,1,0,2,2,0,2,3,0,3,0,0,3,1,0,3,2,0,3,3,1,0,0,1,0,1,1,0,2,1,0,3,1,1,0,1,1,1,1,1,2,1,1,3,1,2,0,1,2,1,1,2,2,1,2,3,1,3,0,1,3,1,1,3,2,1,3,3,2,0,0,2,0,1,2,0,2,2,0,3,2,1,0,2,1,1,2,1,2,2,1,3,2,2,0,2,2,1,2,2,2,2,2,3,2,3,0,2,3,2,2,3,3,3,0,0,3,0,1,3,0,2,3,0,3,3,1,0,3,1,1,3,1,2,3,1,3,3,2,0,3,2,1,3,2,2,3,2,3,3,3,0,3,3,1,3,3,2,3,3,3,0,0,0,0,0,1,0,0,2,0,0,3,0,2,0,0,2,1,0,2,2,0,2,3,1,0,0,1,0,1,1,0,2,1,0,3,1,2,0,1,2,1,1,2,2,1,2,3,2,0,0,2,0,1,2,0,2,2,0,3,2,2,0,2,2,1,2,2,2,2,2,3,3,0,0,3,0,1,3,0,2,3,0,3,3,2,0,3,2,2,3,2,3,0,0,0,0,0,1,0,0,2,0,0,3,0,1,0,0,1,1,0,1,2,0,1,3,0,2,0,0,2,1,0,2,2,0,2,3,0,3,0,0,3,1,0,3,2,0,3,3,13,0,0,13,0,1,13,0,2,13,0,3,13,1,0,13,1,1,13,1,2,13,1,3,13,2,0,13,2,2,13,2,3,13,3,0,13,3,1,13,3,2,13,3,3,0,0,0,0,0,1,0,0,2,0,0,3,0,1,0,0,1,1,0,1,2,0,1,3,0,2,0,0,2,1,0,2,2,0,2,3,0,3,0,0,3,1,0,3,2,0,3,3,1,0,0,1,0,1,1,0,2,1,0,3,1,1,0,1,1,1,1,1,2,1,1,3,1,2,0,1,2,1,1,2,2,1,2,3,1,3,0,1,3,1,1,3,2,1,3,3,2,0,0,2,0,1,2,0,2,2,0,3,2,1,0,2,1,1,2,1,2,2,1,3,2,2,0,2,2,1,2,2,2,2,2,3,2,3,0,2,3,2,2,3,3,3,0,0,3,0,1,3,0,2,3,0,3,3,1,0,3,1,1,3,1,2,3,1,3,3,2,0,3,2,1,3,2,2,3,2,3,3,3,0,3,3,1,3,3,2,3,3,3,0,0,0,0,0,1,0,0,2,0,0,3,0,1,0,0,1,1,0,1,2,0,1,3,0,2,0,0,2,1,0,2,2,0,2,3,0,3,0,0,3,1,0,3,2,0,3,3,13,0,0,13,0,1,13,0,2,13,0,3,13,1,0,13,1,1,13,1,2,13,1,3,13,2,0,13,2,2,13,2,3,13,3,0,13,3,1,13,3,2,13,3,3,0,0,0,0,0,1,0,0,2,0,0,3,0,1,0,0,1,1,0,1,2,0,1,3,0,2,0,0,2,1,0,2,2,0,2,3,0,3,0,0,3,1,0,3,2,0,3,3,1,0,0,1,0,1,1,0,2,1,0,3,1,1,0,1,1,1,1,1,2,1,1,3,1,2,0,1,2,1,1,2,2,1,2,3,1,3,0,1,3,1,1,3,2,1,3,3,2,0,0,2,0,1,2,0,2,2,0,3,2,1,0,2,1,1,2,1,2,2,1,3,2,2,0,2,2,1,2,2,2,2,2,3,2,3,0,2,3,2,2,3,3,3,0,0,3,0,1,3,0,2,3,0,3,3,1,0,3,1,1,3,1,2,3,1,3,3,2,0,3,2,1,3,2,2,3,2,3,3,3,0,3,3,1,3,3,2,3,3,3,0,0,0,0,0,1,0,0,2,0,0,3,0,1,0,0,1,1,0,1,2,0,1,3,0,2,0,0,2,1,0,2,2,0,2,3,0,3,0,0,3,1,0,3,2,0,3,3,1,0,0,1,0,1,1,0,2,1,0,3,1,1,0,1,1,1,1,1,2,1,1,3,1,2,0,1,2,1,1,2,2,1,3,0,1,3,1,1,3,2,1,3,3,2,0,0,2,0,1,2,0,2,2,0,3,2,1,0,2,1,1,2,1,2,2,1,3,2,2,0,2,2,1,2,2,2,2,2,3,2,3,0,2,3,1,2,3,2,2,3,3,3,0,0,3,0,1,3,0,2,3,0,3,3,1,0,3,1,1,3,1,2,3,1,3,3,2,0,3,2,1,3,2,2,3,2,3,3,3,0,3,3,1,3,3,2,3,3,3,0,0,0,0,0,1,0,0,2,0,0,3,0,1,0,0,1,1,0,1,2,0,1,3,0,2,0,0,2,1,0,2,2,0,2,3,0,3,0,0,3,1,0,3,2,0,3,3,1,0,0,1,0,1,1,0,2,1,0,3,1,1,0,1,1,1,1,1,2,1,1,3,1,2,0,1,2,1,1,2,2,1,2,3,1,3,0,1,3,1,1,3,2,1,3,3,2,0,0,2,0,1,2,0,2,2,0,3,2,1,0,2,1,1,2,1,2,2,2,0,2,2,1,2,2,2,2,2,3,2,3,0,2,3,1,2,3,2,2,3,3,3,0,0,3,0,1,3,0,2,3,0,3,3,1,0,3,1,1,3,1,2,3,1,3,3,2,0,3,2,1,3,2,2,3,2,3,3,3,0,3,3,1,3,3,2,3,3,3,0,0,0,0,0,1,0,0,2,0,0,3,0,1,0,0,1,1,0,1,2,0,1,3,0,2,0,0,2,1,0,2,2,0,2,3,0,3,0,0,3,1,0,3,2,0,3,3,1,0,0,1,0,1,1,0,2,1,0,3,1,1,0,1,1,1,1,1,2,1,1,3,1,2,0,1,2,1,1,2,2,1,2,3,1,3,0,1,3,1,1,3,2,1,3,3,2,0,0,2,0,1,2,0,2,2,0,3,2,1,0,2,1,1,2,1,2,2,1,3,2,2,0,2,2,1,2,2,2,2,2,3,2,3,0,2,3,2,2,3,3,3,0,0,3,0,1,3,0,2,3,0,3,3,1,0,3,1,1,3,1,2,3,1,3,3,2,0,3,2,1,3,2,2,3,2,3,3,3,0,3,3,1,3,3,2,3,3,3,0,0,0,0,0,1,0,0,2,0,0,3,0,1,0,0,1,1,0,1,2,0,1,3,0,2,0,0,2,1,0,2,2,0,2,3,0,3,0,0,3,1,0,3,2,0,3,3,1,0,0,1,0,1,1,0,2,1,0,3,1,1,0,1,1,1,1,1,2,1,1,3,1,2,0,1,2,1,1,2,2,1,2,3,1,3,0,1,3,1,1,3,2,1,3,3,2,0,0,2,0,1,2,0,2,2,0,3,2,1,0,2,1,1,2,1,2,2,1,3,2,2,0,2,2,1,2,2,2,2,2,3,2,3,0,2,3,1,2,3,2,2,3,3,3,0,0,3,0,1,3,0,2,3,0,3,3,1,0,3,1,1,3,1,3,3,2,0,3,2,1,3,2,2,3,2,3,3,3,0,3,3,1,3,3,2,3,3,3,0,0,0,0,0,1,0,0,2,0,0,3,0,1,0,0,1,1,0,1,2,0,1,3,0,2,0,0,2,1,0,2,2,0,2,3,0,3,0,0,3,1,0,3,2,0,3,3,13,0,0,13,0,1,13,0,2,13,0,3,13,1,0,13,1,1,13,1,2,13,1,3,13,2,0,13,2,2,13,2,3,13,3,0,13,3,1,13,3,2,13,3,3,0,0,0,0,0,1,0,0,2,0,0,3,0,1,0,0,1,1,0,1,2,0,1,3,0,2,0,0,2,1,0,2,2,0,2,3,0,3,0,0,3,1,0,3,2,0,3,3,1,0,0,1,0,1,1,0,2,1,0,3,1,1,0,1,1,1,1,1,2,1,1,3,1,2,0,1,2,1,1,2,2,1,2,3,1,3,0,1,3,1,1,3,2,1,3,3,2,0,0,2,0,1,2,0,2,2,0,3,2,1,0,2,1,1,2,1,2,2,1,3,2,2,0,2,2,1,2,2,2,2,2,3,2,3,0,2,3,2,2,3,3,3,0,0,3,0,1,3,0,2,3,0,3,3,1,0,3,1,1,3,1,2,3,1,3,3,2,0,3,2,1,3,2,2,3,2,3,3,3,0,3,3,1,3,3,2,3,3,3,0,0,0,0,0,1,0,0,2,0,0,3,0,1,0,0,1,1,0,1,2,0,1,3,0,2,0,0,2,1,0,2,2,0,2,3,0,3,0,0,3,1,0,3,2,0,3,3,1,0,0,1,0,1,1,0,2,1,0,3,1,1,0,1,1,1,1,1,2,1,1,3,1,2,0,1,2,1,1,2,2,1,2,3,1,3,0,1,3,1,1,3,2,1,3,3,2,0,0,2,0,1,2,0,2,2,0,3,2,1,0,2,1,1,2,1,2,2,1,3,2,2,0,2,2,1,2,2,2,2,2,3,2,3,0,2,3,2,2,3,3,3,0,0,3,0,1,3,0,2,3,0,3,3,1,0,3,1,1,3,1,2,3,1,3,3,2,0,3,2,1,3,2,2,3,2,3,3,3,0,3,3,1,3,3,2,3,3,3,0,0,0,0,0,1,0,0,2,0,0,3,0,1,0,0,1,1,0,1,2,0,1,3,0,2,0,0,2,1,0,2,2,0,2,3,0,3,0,0,3,1,0,3,2,0,3,3,13,0,0,13,0,1,13,0,2,13,0,3,13,1,0,13,1,1,13,1,2,13,1,3,13,2,0,13,2,2,13,2,3,13,3,0,13,3,1,13,3,2,13,3,3,0,0,0,0,0,1,0,0,2,0,0,3,0,1,0,0,1,1,0,1,2,0,1,3,0,2,0,0,2,1,0,2,2,0,2,3,0,3,0,0,3,1,0,3,2,0,3,3,13,0,0,13,0,1,13,0,2,13,0,3,13,1,0,13,1,1,13,1,2,13,1,3,13,2,0,13,2,2,13,2,3,13,3,0,13,3,1,13,3,2,13,3,3,0,0,0,0,0,1,0,0,2,0,0,3,0,1,0,0,1,1,0,1,2,0,1,3,0,2,0,0,2,1,0,2,2,0,2,3,0,3,0,0,3,1,0,3,2,0,3,3,13,0,0,13,0,1,13,0,2,13,0,3,13,1,0,13,1,1,13,1,2,13,1,3,13,2,0,13,2,2,13,2,3,13,3,0,13,3,1,13,3,2,13,3,3,0,0,0,0,0,1,0,0,2,0,0,3,0,1,0,0,1,1,0,1,2,0,1,3,0,2,0,0,2,1,0,2,2,0,2,3,0,3,0,0,3,1,0,3,2,0,3,3,1,0,0,1,0,1,1,0,2,1,0,3,1,1,0,1,1,1,1,1,2,1,1,3,1,2,0,1,2,1,1,2,2,1,2,3,1,3,0,1,3,1,1,3,2,1,3,3,2,0,0,2,0,1,2,0,2,2,0,3,2,1,0,2,1,1,2,1,2,2,1,3,2,2,0,2,2,1,2,2,2,2,2,3,2,3,0,2,3,2,2,3,3,3,0,0,3,0,1,3,0,2,3,0,3,3,1,0,3,1,1,3,1,2,3,1,3,3,2,0,3,2,1,3,2,2,3,2,3,3,3,0,3,3,1,3,3,2,3,3,3,0,0,0,0,0,1,0,0,2,0,0,3,0,1,0,0,1,1,0,1,2,0,1,3,0,2,0,0,2,1,0,2,2,0,2,3,0,3,0,0,3,1,0,3,2,0,3,3,1,0,0,1,0,1,1,0,2,1,0,3,1,1,0,1,1,1,1,1,2,1,1,3,1,2,0,1,2,1,1,2,2,1,2,3,1,3,0,1,3,1,1,3,2,1,3,3,2,0,0,2,0,1,2,0,2,2,0,3,2,1,0,2,1,1,2,1,2,2,1,3,2,2,0,2,2,1,2,2,2,2,2,3,2,3,0,2,3,1,2,3,2,2,3,3,3,0,0,3,0,1,3,0,2,3,0,3,3,1,0,3,1,1,3,1,2,3,1,3,3,2,0,3,2,2,3,2,3,3,3,0,3,3,1,3,3,2,3,3,3,0,0,0,0,0,1,0,0,2,0,0,3,0,1,0,0,1,1,0,1,2,0,1,3,0,2,0,0,2,1,0,2,2,0,2,3,0,3,0,0,3,1,0,3,2,0,3,3,1,0,0,1,0,1,1,0,2,1,0,3,1,1,0,1,1,1,1,1,2,1,1,3,1,2,0,1,2,1,1,2,2,1,2,3,1,3,0,1,3,1,1,3,2,1,3,3,2,0,0,2,0,1,2,0,2,2,0,3,2,1,0,2,1,1,2,1,2,2,1,3,2,2,0,2,2,1,2,2,2,2,2,3,2,3,0,2,3,1,2,3,2,2,3,3,3,0,0,3,0,1,3,0,2,3,0,3,3,1,0,3,1,1,3,1,3,3,2,0,3,2,1,3,2,2,3,2,3,3,3,0,3,3,1,3,3,2,3,3,3,0,0,0,0,0,1,0,0,2,0,0,3,0,1,0,0,1,1,0,1,2,0,1,3,0,2,0,0,2,1,0,2,2,0,2,3,0,3,0,0,3,1,0,3,2,0,3,3,1,0,0,1,0,1,1,0,2,1,0,3,1,1,0,1,1,1,1,1,2,1,1,3,1,2,0,1,2,1,1,2,2,1,2,3,1,3,0,1,3,1,1,3,2,1,3,3,2,0,0,2,0,1,2,0,2,2,0,3,2,1,0,2,1,1,2,1,2,2,1,3,2,2,0,2,2,1,2,2,2,2,2,3,2,3,0,2,3,2,2,3,3,3,0,0,3,0,1,3,0,2,3,0,3,3,1,0,3,1,1,3,1,2,3,1,3,3,2,0,3,2,1,3,2,2,3,2,3,3,3,0,3,3,1,3,3,2,3,3,3,0,0,0,0,0,1,0,0,2,0,0,3,0,1,0,0,1,1,0,1,2,0,1,3,0,2,0,0,2,1,0,2,2,0,2,3,0,3,0,0,3,1,0,3,2,0,3,3,1,0,0,1,0,1,1,0,2,1,0,3,1,1,0,1,1,1,1,1,2,1,1,3,1,2,0,1,2,1,1,2,2,1,2,3,1,3,0,1,3,1,1,3,2,1,3,3,2,0,0,2,0,1,2,0,2,2,0,3,2,1,0,2,1,1,2,1,2,2,1,3,2,2,0,2,2,1,2,2,2,2,2,3,2,3,0,2,3,1,2,3,2,2,3,3,3,0,0,3,0,1,3,0,2,3,0,3,3,1,0,3,1,1,3,1,2,3,1,3,3,2,0,3,2,2,3,2,3,3,3,0,3,3,1,3,3,2,3,3,3,0,0,0,0,0,1,0,0,2,0,0,3,0,1,0,0,1,1,0,1,2,0,1,3,0,2,0,0,2,1,0,2,2,0,2,3,0,3,0,0,3,1,0,3,2,0,3,3,1,0,0,1,0,1,1,0,2,1,0,3,1,1,0,1,1,1,1,1,2,1,1,3,1,2,0,1,2,1,1,2,2,1,2,3,1,3,0,1,3,1,1,3,2,1,3,3,2,0,0,2,0,1,2,0,2,2,0,3,2,1,0,2,1,1,2,1,2,2,1,3,2,2,0,2,2,1,2,2,2,2,2,3,2,3,0,2,3,2,2,3,3,3,0,0,3,0,1,3,0,2,3,0,3,3,1,0,3,1,1,3,1,2,3,1,3,3,2,0,3,2,1,3,2,2,3,2,3,3,3,0,3,3,1,3,3,2,3,3,3,0,0,0,0,0,1,0,0,2,0,0,3,0,1,0,0,1,1,0,1,2,0,1,3,0,2,0,0,2,1,0,2,2,0,2,3,0,3,0,0,3,1,0,3,2,0,3,3,13,0,0,13,0,1,13,0,2,13,0,3,13,1,0,13,1,1,13,1,2,13,1,3,13,2,0,13,2,2,13,2,3,13,3,0,13,3,1,13,3,2,13,3,3,0,0,0,0,0,1,0,0,2,0,0,3,0,1,0,0,1,1,0,1,2,0,1,3,0,2,0,0,2,1,0,2,2,0,2,3,0,3,0,0,3,1,0,3,2,0,3,3,1,0,0,1,0,1,1,0,2,1,0,3,1,1,0,1,1,1,1,1,2,1,1,3,1,2,0,1,2,1,1,2,2,1,2,3,1,3,0,1,3,1,1,3,2,1,3,3,2,0,0,2,0,1,2,0,2,2,0,3,2,1,0,2,1,1,2,1,2,2,1,3,2,2,0,2,2,1,2,2,2,2,2,3,2,3,0,2,3,2,2,3,3,3,0,0,3,0,1,3,0,2,3,0,3,3,1,0,3,1,1,3,1,2,3,1,3,3,2,0,3,2,1,3,2,2,3,2,3,3,3,0,3,3,1,3,3,2,3,3,3,0,0,0,0,0,1,0,0,2,0,0,3,0,2,0,0,2,1,0,2,2,0,2,3,1,0,0,1,0,1,1,0,2,1,0,3,1,2,0,1,2,1,1,2,2,1,2,3,2,0,0,2,0,1,2,0,2,2,0,3,2,2,0,2,2,1,2,2,2,2,2,3,3,0,0,3,0,1,3,0,2,3,0,3,3,2,0,3,2,2,3,2,3,0,0,0,0,0,1,0,0,2,0,0,3,0,1,0,0,1,1,0,1,2,0,1,3,0,2,0,0,2,1,0,2,2,0,2,3,0,3,0,0,3,1,0,3,2,0,3,3,13,0,0,13,0,1,13,0,2,13,0,3,13,1,0,13,1,1,13,1,2,13,1,3,13,2,0,13,2,2,13,2,3,13,3,0,13,3,1,13,3,2,13,3,3,0,0,0,0,0,1,0,0,2,0,0,3,0,1,0,0,1,1,0,1,2,0,1,3,0,2,0,0,2,1,0,2,2,0,2,3,0,3,0,0,3,1,0,3,2,0,3,3,1,0,0,1,0,1,1,0,2,1,0,3,1,1,0,1,1,1,1,1,2,1,1,3,1,2,0,1,2,1,1,2,2,1,2,3,1,3,0,1,3,1,1,3,2,1,3,3,2,0,0,2,0,1,2,0,2,2,0,3,2,1,0,2,1,1,2,1,2,2,1,3,2,2,0,2,2,1,2,2,2,2,2,3,2,3,0,2,3,1,2,3,2,2,3,3,3,0,0,3,0,1,3,0,2,3,0,3,3,1,0,3,1,1,3,1,2,3,1,3,3,2,0,3,2,2,3,2,3,3,3,0,3,3,1,3,3,2,3,3,3,0,0,0,0,0,1,0,0,2,0,0,3,0,1,0,0,1,1,0,1,2,0,1,3,0,2,0,0,2,1,0,2,2,0,2,3,0,3,0,0,3,1,0,3,2,0,3,3,1,0,0,1,0,1,1,0,2,1,0,3,1,1,0,1,1,1,1,1,2,1,1,3,1,2,0,1,2,1,1,2,2,1,2,3,1,3,0,1,3,1,1,3,2,1,3,3,2,0,0,2,0,1,2,0,2,2,0,3,2,1,0,2,1,1,2,1,2,2,1,3,2,2,0,2,2,1,2,2,2,2,2,3,2,3,0,2,3,2,2,3,3,3,0,0,3,0,1,3,0,2,3,0,3,3,1,0,3,1,1,3,1,2,3,1,3,3,2,0,3,2,1,3,2,2,3,2,3,3,3,0,3,3,1,3,3,2,3,3,3,0,0,0,0,0,1,0,0,2,0,0,3,0,2,0,0,2,1,0,2,2,0,2,3,1,0,0,1,0,1,1,0,2,1,0,3,1,2,0,1,2,1,1,2,2,1,2,3,2,0,0,2,0,1,2,0,2,2,0,3,2,2,0,2,2,1,2,2,2,2,2,3,3,0,0,3,0,1,3,0,2,3,0,3,3,2,0,3,2,2,3,2,3,0,0,0,0,0,1,0,0,2,0,0,3,0,1,0,0,1,1,0,1,2,0,1,3,0,2,0,0,2,1,0,2,2,0,2,3,0,3,0,0,3,1,0,3,2,0,3,3,13,0,0,13,0,1,13,0,2,13,0,3,13,1,0,13,1,1,13,1,2,13,1,3,13,2,0,13,2,2,13,2,3,13,3,0,13,3,1,13,3,2,13,3,3,0,0,0,0,0,1,0,0,2,0,0,3,0,1,0,0,1,1,0,1,2,0,1,3,0,2,0,0,2,1,0,2,2,0,2,3,0,3,0,0,3,1,0,3,2,0,3,3,1,0,0,1,0,1,1,0,2,1,0,3,1,1,0,1,1,1,1,1,2,1,1,3,1,2,0,1,2,1,1,2,2,1,2,3,1,3,0,1,3,1,1,3,2,1,3,3,2,0,0,2,0,1,2,0,2,2,0,3,2,1,0,2,1,1,2,1,2,2,1,3,2,2,0,2,2,1,2,2,2,2,2,3,2,3,0,2,3,2,2,3,3,3,0,0,3,0,1,3,0,2,3,0,3,3,1,0,3,1,1,3,1,2,3,1,3,3,2,0,3,2,1,3,2,2,3,2,3,3,3,0,3,3,1,3,3,2,3,3,3,0,0,0,0,0,1,0,0,2,0,0,3,0,1,0,0,1,1,0,1,2,0,1,3,0,2,0,0,2,1,0,2,2,0,2,3,0,3,0,0,3,1,0,3,2,0,3,3,1,0,0,1,0,1,1,0,2,1,0,3,1,1,0,1,1,1,1,1,2,1,1,3,1,2,0,1,2,1,1,2,2,1,2,3,1,3,0,1,3,1,1,3,2,1,3,3,2,0,0,2,0,1,2,0,2,2,0,3,2,1,0,2,1,1,2,1,2,2,1,3,2,2,0,2,2,1,2,2,2,2,2,3,2,3,0,2,3,2,2,3,3,3,0,0,3,0,1,3,0,2,3,0,3,3,1,0,3,1,1,3,1,2,3,1,3,3,2,0,3,2,1,3,2,2,3,2,3,3,3,0,3,3,1,3,3,2,3,3,3,0,0,0,0,0,1,0,0,2,0,0,3,0,1,0,0,1,1,0,1,2,0,1,3,0,2,0,0,2,1,0,2,2,0,2,3,0,3,0,0,3,1,0,3,2,0,3,3,13,0,0,13,0,1,13,0,2,13,0,3,13,1,0,13,1,1,13,1,2,13,1,3,13,2,0,13,2,2,13,2,3,13,3,0,13,3,1,13,3,2,13,3,3,0,0,0,0,0,1,0,0,2,0,0,3,0,2,0,0,2,1,0,2,2,0,2,3,1,0,0,1,0,1,1,0,2,1,0,3,1,2,0,1,2,1,1,2,2,1,2,3,2,0,0,2,0,1,2,0,2,2,0,3,2,2,0,2,2,1,2,2,2,2,2,3,3,0,0,3,0,1,3,0,2,3,0,3,3,2,0,3,2,2,3,2,3,0,0,0,0,0,1,0,0,2,0,0,3,0,1,0,0,1,1,0,1,2,0,1,3,0,2,0,0,2,1,0,2,2,0,2,3,0,3,0,0,3,1,0,3,2,0,3,3,1,0,0,1,0,1,1,0,2,1,0,3,1,1,0,1,1,1,1,1,2,1,1,3,1,2,0,1,2,1,1,2,2,1,2,3,1,3,0,1,3,1,1,3,2,1,3,3,2,0,0,2,0,1,2,0,2,2,0,3,2,1,0,2,1,1,2,1,2,2,1,3,2,2,0,2,2,1,2,2,2,2,2,3,2,3,0,2,3,2,2,3,3,3,0,0,3,0,1,3,0,2,3,0,3,3,1,0,3,1,1,3,1,2,3,1,3,3,2,0,3,2,1,3,2,2,3,2,3,3,3,0,3,3,1,3,3,2,3,3,3,0,0,0,0,0,1,0,0,2,0,0,3,0,1,0,0,1,1,0,1,2,0,1,3,0,2,0,0,2,1,0,2,2,0,2,3,0,3,0,0,3,1,0,3,2,0,3,3,13,0,0,13,0,1,13,0,2,13,0,3,13,1,0,13,1,1,13,1,2,13,1,3,13,2,0,13,2,2,13,2,3,13,3,0,13,3,1,13,3,2,13,3,3,0,0,0,0,0,1,0,0,2,0,0,3,0,1,0,0,1,1,0,1,2,0,1,3,0,2,0,0,2,1,0,2,2,0,2,3,0,3,0,0,3,1,0,3,2,0,3,3,1,0,0,1,0,1,1,0,2,1,0,3,1,1,0,1,1,1,1,1,2,1,1,3,1,2,0,1,2,1,1,2,2,1,2,3,1,3,0,1,3,1,1,3,2,1,3,3,2,0,0,2,0,1,2,0,2,2,0,3,2,1,0,2,1,1,2,1,2,2,1,3,2,2,0,2,2,1,2,2,2,2,2,3,2,3,0,2,3,1,2,3,2,2,3,3,3,0,0,3,0,1,3,0,2,3,0,3,3,1,0,3,1,1,3,1,3,3,2,0,3,2,1,3,2,2,3,2,3,3,3,0,3,3,1,3,3,2,3,3,3,0,0,0,0,0,1,0,0,2,0,0,3,0,1,0,0,1,1,0,1,2,0,1,3,0,2,0,0,2,1,0,2,2,0,2,3,0,3,0,0,3,1,0,3,2,0,3,3,1,0,0,1,0,1,1,0,2,1,0,3,1,1,0,1,1,1,1,1,2,1,1,3,1,2,0,1,2,1,1,2,2,1,2,3,1,3,0,1,3,1,1,3,2,1,3,3,2,0,0,2,0,1,2,0,2,2,0,3,2,1,0,2,1,1,2,1,2,2,1,3,2,2,0,2,2,1,2,2,2,2,2,3,2,3,0,2,3,2,2,3,3,3,0,0,3,0,1,3,0,2,3,0,3,3,1,0,3,1,1,3,1,2,3,1,3,3,2,0,3,2,1,3,2,2,3,2,3,3,3,0,3,3,1,3,3,2,3,3,3,0,0,0,0,0,1,0,0,2,0,0,3,0,1,0,0,1,1,0,1,2,0,1,3,0,2,0,0,2,1,0,2,2,0,2,3,0,3,0,0,3,1,0,3,2,0,3,3,1,0,0,1,0,1,1,0,2,1,0,3,1,1,0,1,1,1,1,1,2,1,1,3,1,2,0,1,2,1,1,2,2,1,2,3,1,3,0,1,3,1,1,3,2,1,3,3,2,0,0,2,0,1,2,0,2,2,0,3,2,1,0,2,1,1,2,1,2,2,1,3,2,2,0,2,2,1,2,2,2,2,2,3,2,3,0,2,3,2,2,3,3,3,0,0,3,0,1,3,0,2,3,0,3,3,1,0,3,1,1,3,1,2,3,1,3,3,2,0,3,2,1,3,2,2,3,2,3,3,3,0,3,3,1,3,3,2,3,3,3,0,0,0,0,0,1,0,0,2,0,0,3,0,1,0,0,1,1,0,1,2,0,1,3,0,2,0,0,2,1,0,2,2,0,2,3,0,3,0,0,3,1,0,3,2,0,3,3,13,0,0,13,0,1,13,0,2,13,0,3,13,1,0,13,1,1,13,1,2,13,1,3,13,2,0,13,2,2,13,2,3,13,3,0,13,3,1,13,3,2,13,3,3,0,0,0,0,0,13,0,1,0,0,1,13,0,2,0,0,2,13,0,3,0,0,3,13,1,0,0,1,0,13,1,1,0,1,1,13,1,2,0,1,2,13,1,3,0,1,3,13,2,0,0,2,0,13,2,1,0,2,2,0,2,2,13,2,3,0,2,3,13,3,0,0,3,0,13,3,1,0,3,1,13,3,2,0,3,2,13,3,3,0,3,3,13,0,0,0,0,0,1,0,0,2,0,0,3,0,1,0,0,1,1,0,1,2,0,1,3,0,2,0,0,2,1,0,2,2,0,2,3,0,3,0,0,3,1,0,3,2,0,3,3,1,0,0,1,0,1,1,0,2,1,0,3,1,1,0,1,1,1,1,1,2,1,1,3,1,2,0,1,2,1,1,2,2,1,2,3,1,3,0,1,3,1,1,3,2,1,3,3,2,0,0,2,0,1,2,0,2,2,0,3,2,1,0,2,1,1,2,1,2,2,1,3,2,2,0,2,2,1,2,2,2,2,2,3,2,3,0,2,3,2,2,3,3,3,0,0,3,0,1,3,0,2,3,0,3,3,1,0,3,1,1,3,1,2,3,1,3,3,2,0,3,2,1,3,2,2,3,2,3,3,3,0,3,3,1,3,3,2,3,3,3,0,0,0,0,0,1,0,0,2,0,0,3,0,1,0,0,1,1,0,1,2,0,1,3,0,2,0,0,2,1,0,2,2,0,2,3,0,3,0,0,3,1,0,3,2,0,3,3,1,0,0,1,0,1,1,0,2,1,0,3,1,1,0,1,1,1,1,1,2,1,1,3,1,2,0,1,2,1,1,2,2,1,2,3,1,3,0,1,3,1,1,3,2,1,3,3,2,0,0,2,0,1,2,0,2,2,0,3,2,1,0,2,1,1,2,1,2,2,1,3,2,2,0,2,2,1,2,2,2,2,2,3,2,3,0,2,3,2,2,3,3,3,0,0,3,0,1,3,0,2,3,0,3,3,1,0,3,1,1,3,1,2,3,1,3,3,2,0,3,2,1,3,2,2,3,2,3,3,3,0,3,3,1,3,3,2,3,3,3,0,0,0,0,0,1,0,0,2,0,0,3,0,1,0,0,1,1,0,1,2,0,1,3,0,2,0,0,2,1,0,2,2,0,2,3,0,3,0,0,3,1,0,3,2,0,3,3,13,0,0,13,0,1,13,0,2,13,0,3,13,1,0,13,1,1,13,1,2,13,1,3,13,2,0,13,2,2,13,2,3,13,3,0,13,3,1,13,3,2,13,3,3,0,0,0,0,0,1,0,0,2,0,0,3,0,1,0,0,1,1,0,1,2,0,1,3,0,2,0,0,2,1,0,2,2,0,2,3,0,3,0,0,3,1,0,3,2,0,3,3,1,0,0,1,0,1,1,0,2,1,0,3,1,1,0,1,1,1,1,1,2,1,1,3,1,2,0,1,2,1,1,2,2,1,2,3,1,3,0,1,3,1,1,3,2,1,3,3,2,0,0,2,0,1,2,0,2,2,0,3,2,1,0,2,1,1,2,1,2,2,1,3,2,2,0,2,2,1,2,2,2,2,2,3,2,3,0,2,3,2,2,3,3,3,0,0,3,0,1,3,0,2,3,0,3,3,1,0,3,1,1,3,1,2,3,1,3,3,2,0,3,2,1,3,2,2,3,2,3,3,3,0,3,3,1,3,3,2,3,3,3,0,0,0,0,0,1,0,0,2,0,0,3,0,1,0,0,1,1,0,1,2,0,1,3,0,2,0,0,2,1,0,2,2,0,2,3,0,3,0,0,3,1,0,3,2,0,3,3,1,0,0,1,0,1,1,0,2,1,0,3,1,1,0,1,1,1,1,1,2,1,1,3,1,2,0,1,2,1,1,2,2,1,2,3,1,3,0,1,3,1,1,3,2,1,3,3,2,0,0,2,0,1,2,0,2,2,0,3,2,1,0,2,1,1,2,1,2,2,1,3,2,2,0,2,2,1,2,2,2,2,2,3,2,3,0,2,3,1,2,3,2,2,3,3,3,0,0,3,0,1,3,0,2,3,0,3,3,1,0,3,1,1,3,1,3,3,2,0,3,2,1,3,2,2,3,2,3,3,3,0,3,3,1,3,3,2,3,3,3,0,0,0,0,0,1,0,0,2,0,0,3,0,1,0,0,1,1,0,1,2,0,1,3,0,2,0,0,2,1,0,2,2,0,2,3,0,3,0,0,3,1,0,3,2,0,3,3,1,0,0,1,0,1,1,0,2,1,0,3,1,1,0,1,1,1,1,1,2,1,1,3,1,2,0,1,2,1,1,2,2,1,2,3,1,3,0,1,3,1,1,3,2,1,3,3,2,0,0,2,0,1,2,0,2,2,0,3,2,1,0,2,1,1,2,1,2,2,1,3,2,2,0,2,2,1,2,2,2,2,2,3,2,3,0,2,3,1,2,3,2,2,3,3,3,0,0,3,0,1,3,0,2,3,0,3,3,1,0,3,1,1,3,1,3,3,2,0,3,2,1,3,2,2,3,2,3,3,3,0,3,3,1,3,3,2,3,3,3,0,0,0,0,0,1,0,0,2,0,0,3,0,1,0,0,1,1,0,1,2,0,1,3,0,2,0,0,2,1,0,2,2,0,2,3,0,3,0,0,3,1,0,3,2,0,3,3,1,0,0,1,0,1,1,0,2,1,0,3,1,1,0,1,1,1,1,1,2,1,1,3,1,2,0,1,2,1,1,2,2,1,2,3,1,3,0,1,3,1,1,3,2,1,3,3,2,0,0,2,0,1,2,0,2,2,0,3,2,1,0,2,1,1,2,1,2,2,1,3,2,2,0,2,2,1,2,2,2,2,2,3,2,3,0,2,3,2,2,3,3,3,0,0,3,0,1,3,0,2,3,0,3,3,1,0,3,1,1,3,1,2,3,1,3,3,2,0,3,2,1,3,2,2,3,2,3,3,3,0,3,3,1,3,3,2,3,3,3,0,0,0,0,0,1,0,0,2,0,0,3,0,1,0,0,1,1,0,1,2,0,1,3,0,2,0,0,2,1,0,2,2,0,2,3,0,3,0,0,3,1,0,3,2,0,3,3,1,0,0,1,0,1,1,0,2,1,0,3,1,1,0,1,1,1,1,1,2,1,1,3,1,2,0,1,2,1,1,2,2,1,2,3,1,3,0,1,3,1,1,3,2,1,3,3,2,0,0,2,0,1,2,0,2,2,0,3,2,1,0,2,1,1,2,1,2,2,1,3,2,2,0,2,2,1,2,2,2,2,2,3,2,3,0,2,3,2,2,3,3,3,0,0,3,0,1,3,0,2,3,0,3,3,1,0,3,1,1,3,1,2,3,1,3,3,2,0,3,2,1,3,2,2,3,2,3,3,3,0,3,3,1,3,3,2,3,3,3,0,0,0,0,0,1,0,0,2,0,0,3,0,1,0,0,1,1,0,1,2,0,1,3,0,2,0,0,2,1,0,2,2,0,2,3,0,3,0,0,3,1,0,3,2,0,3,3,1,0,0,1,0,1,1,0,2,1,0,3,1,1,0,1,1,1,1,1,2,1,1,3,1,2,0,1,2,1,1,2,2,1,2,3,1,3,0,1,3,1,1,3,2,1,3,3,2,0,0,2,0,1,2,0,2,2,0,3,2,1,0,2,1,1,2,1,2,2,1,3,2,2,0,2,2,1,2,2,2,2,2,3,2,3,0,2,3,2,2,3,3,3,0,0,3,0,1,3,0,2,3,0,3,3,1,0,3,1,1,3,1,2,3,1,3,3,2,0,3,2,1,3,2,2,3,2,3,3,3,0,3,3,1,3,3,2,3,3,3,0,0,0,0,0,1,0,0,2,0,0,3,0,1,0,0,1,1,0,1,2,0,1,3,0,2,0,0,2,1,0,2,2,0,2,3,0,3,0,0,3,1,0,3,2,0,3,3,1,0,0,1,0,1,1,0,2,1,0,3,1,1,0,1,1,1,1,1,2,1,1,3,1,2,0,1,2,1,1,2,2,1,2,3,1,3,0,1,3,1,1,3,3,2,0,0,2,0,1,2,0,2,2,0,3,2,1,0,2,1,1,2,1,2,2,1,3,2,2,0,2,2,1,2,2,2,2,2,3,2,3,0,2,3,1,2,3,2,2,3,3,3,0,0,3,0,1,3,0,2,3,0,3,3,1,0,3,1,1,3,1,2,3,1,3,3,2,0,3,2,1,3,2,2,3,2,3,3,3,0,3,3,1,3,3,2,3,3,3,0,0,0,0,0,1,0,0,2,0,0,3,0,1,0,0,1,1,0,1,2,0,1,3,0,2,0,0,2,1,0,2,2,0,2,3,0,3,0,0,3,1,0,3,2,0,3,3,13,0,0,13,0,1,13,0,2,13,0,3,13,1,0,13,1,1,13,1,2,13,1,3,13,2,0,13,2,2,13,2,3,13,3,0,13,3,1,13,3,2,13,3,3,0,0,0,0,0,2,0,1,0,0,1,2,0,2,0,0,2,2,0,3,0,0,3,2,13,0,0,13,0,2,13,1,0,13,1,2,13,2,0,13,2,2,13,3,0,0,0,0,0,0,1,0,0,2,0,0,3,0,1,0,0,1,1,0,1,2,0,1,3,0,2,0,0,2,1,0,2,2,0,2,3,0,3,0,0,3,1,0,3,2,0,3,3,1,0,0,1,0,1,1,0,2,1,0,3,1,1,0,1,1,1,1,1,2,1,1,3,1,2,0,1,2,1,1,2,2,1,2,3,1,3,0,1,3,1,1,3,2,1,3,3,2,0,0,2,0,1,2,0,2,2,0,3,2,1,0,2,1,1,2,1,2,2,1,3,2,2,0,2,2,1,2,2,2,2,2,3,2,3,0,2,3,1,2,3,2,2,3,3,3,0,0,3,0,1,3,0,2,3,0,3,3,1,0,3,1,1,3,1,2,3,1,3,3,2,0,3,2,2,3,2,3,3,3,0,3,3,1,3,3,2,3,3,3,0,0,0,0,0,1,0,0,2,0,0,3,0,1,0,0,1,1,0,1,2,0,1,3,0,2,0,0,2,1,0,2,2,0,2,3,0,3,0,0,3,1,0,3,2,0,3,3,1,0,0,1,0,1,1,0,2,1,0,3,1,1,0,1,1,1,1,1,2,1,1,3,1,2,0,1,2,1,1,2,2,1,2,3,1,3,0,1,3,1,1,3,2,1,3,3,2,0,0,2,0,1,2,0,2,2,0,3,2,1,0,2,1,1,2,1,2,2,1,3,2,2,0,2,2,1,2,2,2,2,2,3,2,3,0,2,3,2,2,3,3,3,0,0,3,0,1,3,0,2,3,0,3,3,1,0,3,1,1,3,1,2,3,1,3,3,2,0,3,2,1,3,2,2,3,2,3,3,3,0,3,3,1,3,3,2,3,3,3,0,0,0,0,0,1,0,0,2,0,0,3,0,1,0,0,1,1,0,1,2,0,1,3,0,2,0,0,2,1,0,2,2,0,2,3,0,3,0,0,3,1,0,3,2,0,3,3,1,0,0,1,0,1,1,0,2,1,0,3,1,1,0,1,1,1,1,1,2,1,1,3,1,2,0,1,2,1,1,2,2,1,2,3,1,3,0,1,3,1,1,3,2,1,3,3,2,0,0,2,0,1,2,0,2,2,0,3,2,1,0,2,1,1,2,1,2,2,1,3,2,2,0,2,2,1,2,2,2,2,2,3,2,3,0,2,3,1,2,3,2,2,3,3,3,0,0,3,0,1,3,0,2,3,0,3,3,1,0,3,1,1,3,1,2,3,1,3,3,2,0,3,2,2,3,2,3,3,3,0,3,3,1,3,3,2,3,3,3,0,0,0,0,0,1,0,0,2,0,0,3,0,1,0,0,1,1,0,1,2,0,1,3,0,2,0,0,2,1,0,2,2,0,2,3,0,3,0,0,3,1,0,3,2,0,3,3,13,0,0,13,0,1,13,0,2,13,0,3,13,1,0,13,1,1,13,1,2,13,1,3,13,2,0,13,2,2,13,2,3,13,3,0,13,3,1,13,3,2,13,3,3,0,0,0,0,0,1,0,0,2,0,0,3,0,1,0,0,1,1,0,1,2,0,1,3,0,2,0,0,2,1,0,2,2,0,2,3,0,3,0,0,3,1,0,3,2,0,3,3,1,0,0,1,0,1,1,0,2,1,0,3,1,1,0,1,1,1,1,1,2,1,1,3,1,2,0,1,2,1,1,2,2,1,2,3,1,3,0,1,3,1,1,3,3,2,0,0,2,0,1,2,0,2,2,0,3,2,1,0,2,1,1,2,1,2,2,1,3,2,2,0,2,2,1,2,2,2,2,2,3,2,3,0,2,3,1,2,3,2,2,3,3,3,0,0,3,0,1,3,0,2,3,0,3,3,1,0,3,1,1,3,1,2,3,1,3,3,2,0,3,2,1,3,2,2,3,2,3,3,3,0,3,3,1,3,3,2,3,3,3,0,0,0,0,0,1,0,0,2,0,0,3,0,1,0,0,1,1,0,1,2,0,1,3,0,2,0,0,2,1,0,2,2,0,2,3,0,3,0,0,3,1,0,3,2,0,3,3,1,0,0,1,0,1,1,0,2,1,0,3,1,1,0,1,1,1,1,1,2,1,1,3,1,2,0,1,2,1,1,2,2,1,2,3,1,3,0,1,3,1,1,3,2,1,3,3,2,0,0,2,0,1,2,0,2,2,0,3,2,1,0,2,1,1,2,1,2,2,1,3,2,2,0,2,2,1,2,2,2,2,2,3,2,3,0,2,3,1,2,3,2,2,3,3,3,0,0,3,0,1,3,0,2,3,0,3,3,1,0,3,1,1,3,1,3,3,2,0,3,2,1,3,2,2,3,2,3,3,3,0,3,3,1,3,3,2,3,3,3,0,0,0,0,0,1,0,0,2,0,0,3,0,1,0,0,1,1,0,1,2,0,1,3,0,2,0,0,2,1,0,2,2,0,2,3,0,3,0,0,3,1,0,3,2,0,3,3,13,0,0,13,0,1,13,0,2,13,0,3,13,1,0,13,1,1,13,1,2,13,1,3,13,2,0,13,2,2,13,2,3,13,3,0,13,3,1,13,3,2,13,3,3,0,0,0,0,0,1,0,0,2,0,0,3,0,1,0,0,1,1,0,1,2,0,1,3,0,2,0,0,2,1,0,2,2,0,2,3,0,3,0,0,3,1,0,3,2,0,3,3,1,0,0,1,0,1,1,0,2,1,0,3,1,1,0,1,1,1,1,1,2,1,1,3,1,2,0,1,2,1,1,2,2,1,2,3,1,3,0,1,3,1,1,3,2,1,3,3,2,0,0,2,0,1,2,0,2,2,0,3,2,1,0,2,1,1,2,1,2,2,1,3,2,2,0,2,2,1,2,2,2,2,2,3,2,3,0,2,3,2,2,3,3,3,0,0,3,0,1,3,0,2,3,0,3,3,1,0,3,1,1,3,1,2,3,1,3,3,2,0,3,2,1,3,2,2,3,2,3,3,3,0,3,3,1,3,3,2,3,3,3,0,0,0,0,0,1,0,0,2,0,0,3,0,1,0,0,1,1,0,1,2,0,1,3,0,2,0,0,2,1,0,2,2,0,2,3,0,3,0,0,3,1,0,3,2,0,3,3,13,0,0,13,0,1,13,0,2,13,0,3,13,1,0,13,1,1,13,1,2,13,1,3,13,2,0,13,2,2,13,2,3,13,3,0,13,3,1,13,3,2,13,3,3,0,0,0,0,0,1,0,0,2,0,0,3,0,1,0,0,1,1,0,1,2,0,1,3,0,2,0,0,2,1,0,2,2,0,2,3,0,3,0,0,3,1,0,3,2,0,3,3,1,0,0,1,0,1,1,0,2,1,0,3,1,1,0,1,1,1,1,1,2,1,1,3,1,2,0,1,2,1,1,2,2,1,3,0,1,3,1,1,3,2,1,3,3,2,0,0,2,0,1,2,0,2,2,0,3,2,1,0,2,1,1,2,1,2,2,1,3,2,2,0,2,2,1,2,2,2,2,2,3,2,3,0,2,3,1,2,3,2,2,3,3,3,0,0,3,0,1,3,0,2,3,0,3,3,1,0,3,1,1,3,1,2,3,1,3,3,2,0,3,2,1,3,2,2,3,2,3,3,3,0,3,3,1,3,3,2,3,3,3,0,0,0,0,0,1,0,0,2,0,0,3,0,1,0,0,1,1,0,1,2,0,1,3,0,2,0,0,2,1,0,2,2,0,2,3,0,3,0,0,3,1,0,3,2,0,3,3,1,0,0,1,0,1,1,0,2,1,0,3,1,1,0,1,1,1,1,1,2,1,1,3,1,2,0,1,2,1,1,2,2,1,2,3,1,3,0,1,3,1,1,3,2,1,3,3,2,0,0,2,0,1,2,0,2,2,0,3,2,1,0,2,1,1,2,1,2,2,1,3,2,2,0,2,2,1,2,2,2,2,2,3,2,3,0,2,3,2,2,3,3,3,0,0,3,0,1,3,0,2,3,0,3,3,1,0,3,1,1,3,1,2,3,1,3,3,2,0,3,2,1,3,2,2,3,2,3,3,3,0,3,3,1,3,3,2,3,3,3,0,0,0,0,0,1,0,0,2,0,0,3,0,1,0,0,1,1,0,1,2,0,1,3,0,2,0,0,2,1,0,2,2,0,2,3,0,3,0,0,3,1,0,3,2,0,3,3,1,0,0,1,0,1,1,0,2,1,0,3,1,1,0,1,1,1,1,1,2,1,1,3,1,2,0,1,2,1,1,2,2,1,2,3,1,3,0,1,3,1,1,3,3,2,0,0,2,0,1,2,0,2,2,0,3,2,1,0,2,1,1,2,1,2,2,1,3,2,2,0,2,2,1,2,2,2,2,2,3,2,3,0,2,3,1,2,3,2,2,3,3,3,0,0,3,0,1,3,0,2,3,0,3,3,1,0,3,1,1,3,1,2,3,1,3,3,2,0,3,2,1,3,2,2,3,2,3,3,3,0,3,3,1,3,3,2,3,3,3,0,0,0,0,0,1,0,0,2,0,0,3,0,1,0,0,1,1,0,1,2,0,1,3,0,2,0,0,2,1,0,2,2,0,2,3,0,3,0,0,3,1,0,3,2,0,3,3,1,0,0,1,0,1,1,0,2,1,0,3,1,1,0,1,1,1,1,1,2,1,1,3,1,2,0,1,2,1,1,2,2,1,2,3,1,3,0,1,3,1,1,3,2,1,3,3,2,0,0,2,0,1,2,0,2,2,0,3,2,1,0,2,1,1,2,1,2,2,1,3,2,2,0,2,2,1,2,2,2,2,2,3,2,3,0,2,3,1,2,3,2,2,3,3,3,0,0,3,0,1,3,0,2,3,0,3,3,1,0,3,1,1,3,1,2,3,1,3,3,2,0,3,2,2,3,2,3,3,3,0,3,3,1,3,3,2,3,3,3,0,0,0,0,0,1,0,0,2,0,0,3,0,1,0,0,1,1,0,1,2,0,1,3,0,2,0,0,2,1,0,2,2,0,2,3,0,3,0,0,3,1,0,3,2,0,3,3,1,0,0,1,0,1,1,0,2,1,0,3,1,1,0,1,1,1,1,1,2,1,1,3,1,2,0,1,2,1,1,2,2,1,2,3,1,3,0,1,3,1,1,3,2,1,3,3,2,0,0,2,0,1,2,0,2,2,0,3,2,1,0,2,1,1,2,1,2,2,1,3,2,2,0,2,2,1,2,2,2,2,2,3,2,3,0,2,3,1,2,3,2,2,3,3,3,0,0,3,0,1,3,0,2,3,0,3,3,1,0,3,1,1,3,1,2,3,1,3,3,2,0,3,2,2,3,2,3,3,3,0,3,3,1,3,3,2,3,3,3,0,0,0,0,0,1,0,0,2,0,0,3,0,1,0,0,1,1,0,1,2,0,1,3,0,2,0,0,2,1,0,2,2,0,2,3,0,3,0,0,3,1,0,3,2,0,3,3,1,0,0,1,0,1,1,0,2,1,0,3,1,1,0,1,1,1,1,1,2,1,1,3,1,2,0,1,2,1,1,2,2,1,2,3,1,3,0,1,3,1,1,3,2,1,3,3,2,0,0,2,0,1,2,0,2,2,0,3,2,1,0,2,1,1,2,1,2,2,1,3,2,2,0,2,2,1,2,2,2,2,2,3,2,3,0,2,3,2,2,3,3,3,0,0,3,0,1,3,0,2,3,0,3,3,1,0,3,1,1,3,1,2,3,1,3,3,2,0,3,2,1,3,2,2,3,2,3,3,3,0,3,3,1,3,3,2,3,3,3,0,0,0,0,0,1,0,0,2,0,0,3,0,1,0,0,1,1,0,1,2,0,1,3,0,2,0,0,2,1,0,2,2,0,2,3,0,3,0,0,3,1,0,3,2,0,3,3,13,0,0,13,0,1,13,0,2,13,0,3,13,1,0,13,1,1,13,1,2,13,1,3,13,2,0,13,2,2,13,2,3,13,3,0,13,3,1,13,3,2,13,3,3,0,0,0,0,0,1,0,0,2,0,0,3,0,1,0,0,1,1,0,1,2,0,1,3,0,2,0,0,2,1,0,2,2,0,2,3,0,3,0,0,3,1,0,3,2,0,3,3,13,0,0,13,0,1,13,0,2,13,0,3,13,1,0,13,1,1,13,1,2,13,1,3,13,2,0,13,2,2,13,2,3,13,3,0,13,3,1,13,3,2,13,3,3,0,0,0,0,0,1,0,0,2,0,0,3,0,1,0,0,1,1,0,1,2,0,1,3,0,2,0,0,2,1,0,2,2,0,2,3,0,3,0,0,3,1,0,3,2,0,3,3,13,0,0,13,0,1,13,0,2,13,0,3,13,1,0,13,1,1,13,1,2,13,1,3,13,2,0,13,2,2,13,2,3,13,3,0,13,3,1,13,3,2,13,3,3,0,0,0,0,0,1,0,0,2,0,0,3,0,1,0,0,1,1,0,1,2,0,1,3,0,2,0,0,2,1,0,2,2,0,2,3,0,3,0,0,3,1,0,3,2,0,3,3,13,0,0,13,0,1,13,0,2,13,0,3,13,1,0,13,1,1,13,1,2,13,1,3,13,2,0,13,2,2,13,2,3,13,3,0,13,3,1,13,3,2,13,3,3,0,0,0,0,0,1,0,0,2,0,0,3,0,1,0,0,1,1,0,1,2,0,1,3,0,2,0,0,2,1,0,2,2,0,2,3,0,3,0,0,3,1,0,3,2,0,3,3,1,0,0,1,0,1,1,0,2,1,0,3,1,1,0,1,1,1,1,1,2,1,1,3,1,2,0,1,2,1,1,2,2,1,2,3,1,3,0,1,3,1,1,3,2,1,3,3,2,0,0,2,0,1,2,0,2,2,0,3,2,1,0,2,1,1,2,1,2,2,1,3,2,2,0,2,2,1,2,2,2,2,2,3,2,3,0,2,3,2,2,3,3,3,0,0,3,0,1,3,0,2,3,0,3,3,1,0,3,1,1,3,1,2,3,1,3,3,2,0,3,2,1,3,2,2,3,2,3,3,3,0,3,3,1,3,3,2,3,3,3,0,0,0,0,0,1,0,0,2,0,0,3,0,1,0,0,1,1,0,1,2,0,1,3,0,2,0,0,2,1,0,2,2,0,2,3,0,3,0,0,3,1,0,3,2,0,3,3,13,0,0,13,0,1,13,0,2,13,0,3,13,1,0,13,1,1,13,1,2,13,1,3,13,2,0,13,2,2,13,2,3,13,3,0,13,3,1,13,3,2,13,3,3,0,0,0,0,0,1,0,0,2,0,0,3,0,1,0,0,1,1,0,1,2,0,1,3,0,2,0,0,2,1,0,2,2,0,2,3,0,3,0,0,3,1,0,3,2,0,3,3,1,0,0,1,0,1,1,0,2,1,0,3,1,1,0,1,1,1,1,1,2,1,1,3,1,2,0,1,2,1,1,2,2,1,2,3,1,3,0,1,3,1,1,3,2,1,3,3,2,0,0,2,0,1,2,0,2,2,0,3,2,1,0,2,1,1,2,1,2,2,1,3,2,2,0,2,2,1,2,2,2,2,2,3,2,3,0,2,3,2,2,3,3,3,0,0,3,0,1,3,0,2,3,0,3,3,1,0,3,1,1,3,1,2,3,1,3,3,2,0,3,2,1,3,2,2,3,2,3,3,3,0,3,3,1,3,3,2,3,3,3,0,0,0,0,0,1,0,0,2,0,0,3,0,1,0,0,1,1,0,1,2,0,1,3,0,2,0,0,2,1,0,2,2,0,2,3,0,3,0,0,3,1,0,3,2,0,3,3,1,0,0,1,0,1,1,0,2,1,0,3,1,1,0,1,1,1,1,1,2,1,1,3,1,2,0,1,2,1,1,2,2,1,2,3,1,3,0,1,3,1,1,3,2,1,3,3,2,0,0,2,0,1,2,0,2,2,0,3,2,1,0,2,1,1,2,1,2,2,1,3,2,2,0,2,2,1,2,2,2,2,2,3,2,3,0,2,3,2,2,3,3,3,0,0,3,0,1,3,0,2,3,0,3,3,1,0,3,1,1,3,1,2,3,1,3,3,2,0,3,2,1,3,2,2,3,2,3,3,3,0,3,3,1,3,3,2,3,3,3,0,0,0,0,0,1,0,0,2,0,0,3,0,1,0,0,1,1,0,1,2,0,1,3,0,2,0,0,2,1,0,2,2,0,2,3,0,3,0,0,3,1,0,3,2,0,3,3,1,0,0,1,0,1,1,0,2,1,0,3,1,1,0,1,1,1,1,1,2,1,1,3,1,2,0,1,2,1,1,2,2,1,2,3,1,3,0,1,3,1,1,3,2,1,3,3,2,0,0,2,0,1,2,0,2,2,0,3,2,1,0,2,1,1,2,1,2,2,1,3,2,2,0,2,2,1,2,2,2,2,2,3,2,3,0,2,3,1,2,3,2,2,3,3,3,0,0,3,0,1,3,0,2,3,0,3,3,1,0,3,1,1,3,1,3,3,2,0,3,2,1,3,2,2,3,2,3,3,3,0,3,3,1,3,3,2,3,3,3,0,0,0,0,0,1,0,0,2,0,0,3,0,1,0,0,1,1,0,1,2,0,1,3,0,2,0,0,2,1,0,2,2,0,2,3,0,3,0,0,3,1,0,3,2,0,3,3,1,0,0,1,0,1,1,0,2,1,0,3,1,1,0,1,1,1,1,1,2,1,1,3,1,2,0,1,2,1,1,2,2,1,2,3,1,3,0,1,3,1,1,3,2,1,3,3,2,0,0,2,0,1,2,0,2,2,0,3,2,1,0,2,1,1,2,1,2,2,1,3,2,2,0,2,2,1,2,2,2,2,2,3,2,3,0,2,3,2,2,3,3,3,0,0,3,0,1,3,0,2,3,0,3,3,1,0,3,1,1,3,1,2,3,1,3,3,2,0,3,2,1,3,2,2,3,2,3,3,3,0,3,3,1,3,3,2,3,3,3,0,0,0,0,0,1,0,0,2,0,0,3,0,1,0,0,1,1,0,1,2,0,1,3,0,2,0,0,2,1,0,2,2,0,2,3,0,3,0,0,3,1,0,3,2,0,3,3,1,0,0,1,0,1,1,0,2,1,0,3,1,1,0,1,1,1,1,1,2,1,1,3,1,2,0,1,2,1,1,2,2,1,2,3,1,3,0,1,3,1,1,3,2,1,3,3,2,0,0,2,0,1,2,0,2,2,0,3,2,1,0,2,1,1,2,1,2,2,1,3,2,2,0,2,2,1,2,2,2,2,2,3,2,3,0,2,3,2,2,3,3,3,0,0,3,0,1,3,0,2,3,0,3,3,1,0,3,1,1,3,1,2,3,1,3,3,2,0,3,2,1,3,2,2,3,2,3,3,3,0,3,3,1,3,3,2,3,3,3,0,0,0,0,0,1,0,0,2,0,0,3,0,1,0,0,1,1,0,1,2,0,1,3,0,2,0,0,2,1,0,2,2,0,2,3,0,3,0,0,3,1,0,3,2,0,3,3,1,0,0,1,0,1,1,0,2,1,0,3,1,1,0,1,1,1,1,1,2,1,1,3,1,2,0,1,2,1,1,2,2,1,2,3,1,3,0,1,3,1,1,3,2,1,3,3,2,0,0,2,0,1,2,0,2,2,0,3,2,1,0,2,1,1,2,1,2,2,1,3,2,2,0,2,2,1,2,2,2,2,2,3,2,3,0,2,3,2,2,3,3,3,0,0,3,0,1,3,0,2,3,0,3,3,1,0,3,1,1,3,1,2,3,1,3,3,2,0,3,2,1,3,2,2,3,2,3,3,3,0,3,3,1,3,3,2,3,3,3,0,0,0,0,0,1,0,0,2,0,0,3,0,1,0,0,1,1,0,1,2,0,1,3,0,2,0,0,2,1,0,2,2,0,2,3,0,3,0,0,3,1,0,3,2,0,3,3,1,0,0,1,0,1,1,0,2,1,0,3,1,1,0,1,1,1,1,1,2,1,1,3,1,2,0,1,2,1,1,2,2,1,2,3,1,3,0,1,3,1,1,3,2,1,3,3,2,0,0,2,0,1,2,0,2,2,0,3,2,1,0,2,1,1,2,1,2,2,1,3,2,2,0,2,2,1,2,2,2,2,2,3,2,3,0,2,3,1,2,3,2,2,3,3,3,0,0,3,0,1,3,0,2,3,0,3,3,1,0,3,1,1,3,1,3,3,2,0,3,2,1,3,2,2,3,2,3,3,3,0,3,3,1,3,3,2,3,3,3,0,0,0,0,0,1,0,0,2,0,0,3,0,1,0,0,1,1,0,1,2,0,1,3,0,2,0,0,2,1,0,2,2,0,2,3,0,3,0,0,3,1,0,3,2,0,3,3,1,0,0,1,0,1,1,0,2,1,0,3,1,1,0,1,1,1,1,1,2,1,1,3,1,2,0,1,2,1,1,2,2,1,2,3,1,3,0,1,3,1,1,3,2,1,3,3,2,0,0,2,0,1,2,0,2,2,0,3,2,1,0,2,1,1,2,1,2,2,1,3,2,2,0,2,2,1,2,2,2,2,2,3,2,3,0,2,3,2,2,3,3,3,0,0,3,0,1,3,0,2,3,0,3,3,1,0,3,1,1,3,1,2,3,1,3,3,2,0,3,2,1,3,2,2,3,2,3,3,3,0,3,3,1,3,3,2,3,3,3,0,0,0,0,0,1,0,0,2,0,0,3,0,1,0,0,1,1,0,1,2,0,1,3,0,2,0,0,2,1,0,2,2,0,2,3,0,3,0,0,3,1,0,3,2,0,3,3,1,0,0,1,0,1,1,0,2,1,0,3,1,1,0,1,1,1,1,1,2,1,1,3,1,2,0,1,2,1,1,2,2,1,2,3,1,3,0,1,3,1,1,3,2,1,3,3,2,0,0,2,0,1,2,0,2,2,0,3,2,1,0,2,1,1,2,1,2,2,1,3,2,2,0,2,2,1,2,2,2,2,2,3,2,3,0,2,3,2,2,3,3,3,0,0,3,0,1,3,0,2,3,0,3,3,1,0,3,1,1,3,1,2,3,1,3,3,2,0,3,2,1,3,2,2,3,2,3,3,3,0,3,3,1,3,3,2,3,3,3,0,0,0,0,0,1,0,0,2,0,0,3,0,1,0,0,1,1,0,1,2,0,1,3,0,2,0,0,2,1,0,2,2,0,2,3,0,3,0,0,3,1,0,3,2,0,3,3,13,0,0,13,0,1,13,0,2,13,0,3,13,1,0,13,1,1,13,1,2,13,1,3,13,2,0,13,2,2,13,2,3,13,3,0,13,3,1,13,3,2,13,3,3,0,0,0,0,0,1,0,0,2,0,0,3,0,1,0,0,1,1,0,1,2,0,1,3,0,2,0,0,2,1,0,2,2,0,2,3,0,3,0,0,3,1,0,3,2,0,3,3,1,0,0,1,0,1,1,0,2,1,0,3,1,1,0,1,1,1,1,1,2,1,1,3,1,2,0,1,2,1,1,2,2,1,2,3,1,3,0,1,3,1,1,3,2,1,3,3,2,0,0,2,0,1,2,0,2,2,0,3,2,1,0,2,1,1,2,1,2,2,1,3,2,2,0,2,2,1,2,2,2,2,2,3,2,3,0,2,3,2,2,3,3,3,0,0,3,0,1,3,0,2,3,0,3,3,1,0,3,1,1,3,1,2,3,1,3,3,2,0,3,2,1,3,2,2,3,2,3,3,3,0,3,3,1,3,3,2,3,3,3,0,0,0,0,0,1,0,0,2,0,0,3,0,1,0,0,1,1,0,1,2,0,1,3,0,2,0,0,2,1,0,2,2,0,2,3,0,3,0,0,3,1,0,3,2,0,3,3,1,0,0,1,0,1,1,0,2,1,0,3,1,1,0,1,1,1,1,1,2,1,1,3,1,2,0,1,2,1,1,2,2,1,2,3,1,3,0,1,3,1,1,3,3,2,0,0,2,0,1,2,0,2,2,0,3,2,1,0,2,1,1,2,1,2,2,1,3,2,2,0,2,2,1,2,2,2,2,2,3,2,3,0,2,3,1,2,3,2,2,3,3,3,0,0,3,0,1,3,0,2,3,0,3,3,1,0,3,1,1,3,1,2,3,1,3,3,2,0,3,2,1,3,2,2,3,2,3,3,3,0,3,3,1,3,3,2,3,3,3,0,0,0,0,0,1,0,0,2,0,0,3,0,1,0,0,1,1,0,1,2,0,1,3,0,2,0,0,2,1,0,2,2,0,2,3,0,3,0,0,3,1,0,3,2,0,3,3,13,0,0,13,0,1,13,0,2,13,0,3,13,1,0,13,1,1,13,1,2,13,1,3,13,2,0,13,2,2,13,2,3,13,3,0,13,3,1,13,3,2,13,3,3,0,0,0,0,0,2,0,1,0,0,1,2,0,2,0,0,2,2,0,3,0,0,3,2,1,0,0,1,0,2,1,1,0,1,1,2,1,2,0,1,2,2,1,3,0,2,0,0,2,0,2,2,1,0,2,1,2,2,2,0,2,2,2,2,3,0,2,3,2,3,0,0,3,0,2,3,1,0,3,1,2,3,2,0,3,2,2,3,3,0,3,3,2,0,0,0,0,0,1,0,0,2,0,0,3,0,1,0,0,1,1,0,1,2,0,1,3,0,2,0,0,2,1,0,2,2,0,2,3,0,3,0,0,3,1,0,3,2,0,3,3,1,0,0,1,0,1,1,0,2,1,0,3,1,1,0,1,1,1,1,1,2,1,1,3,1,2,0,1,2,1,1,2,2,1,2,3,1,3,0,1,3,1,1,3,2,1,3,3,2,0,0,2,0,1,2,0,2,2,0,3,2,1,0,2,1,1,2,1,2,2,1,3,2,2,0,2,2,1,2,2,2,2,2,3,2,3,0,2,3,2,2,3,3,3,0,0,3,0,1,3,0,2,3,0,3,3,1,0,3,1,1,3,1,2,3,1,3,3,2,0,3,2,1,3,2,2,3,2,3,3,3,0,3,3,1,3,3,2,3,3,3,0,0,0,0,0,1,0,0,2,0,0,3,0,1,0,0,1,1,0,1,2,0,1,3,0,2,0,0,2,1,0,2,2,0,2,3,0,3,0,0,3,1,0,3,2,0,3,3,1,0,0,1,0,1,1,0,2,1,0,3,1,1,0,1,1,1,1,1,2,1,1,3,1,2,0,1,2,1,1,2,2,1,2,3,1,3,0,1,3,1,1,3,3,2,0,0,2,0,1,2,0,2,2,0,3,2,1,0,2,1,1,2,1,2,2,1,3,2,2,0,2,2,1,2,2,2,2,2,3,2,3,0,2,3,1,2,3,2,2,3,3,3,0,0,3,0,1,3,0,2,3,0,3,3,1,0,3,1,1,3,1,2,3,1,3,3,2,0,3,2,1,3,2,2,3,2,3,3,3,0,3,3,1,3,3,2,3,3,3,0,0,0,0,0,1,0,0,2,0,0,3,0,1,0,0,1,1,0,1,2,0,1,3,0,2,0,0,2,1,0,2,2,0,2,3,0,3,0,0,3,1,0,3,2,0,3,3,1,0,0,1,0,1,1,0,2,1,0,3,1,1,0,1,1,1,1,1,2,1,1,3,1,2,0,1,2,1,1,2,2,1,2,3,1,3,0,1,3,1,1,3,2,1,3,3,2,0,0,2,0,1,2,0,2,2,0,3,2,1,0,2,1,1,2,1,2,2,1,3,2,2,0,2,2,1,2,2,2,2,2,3,2,3,0,2,3,2,2,3,3,3,0,0,3,0,1,3,0,2,3,0,3,3,1,0,3,1,1,3,1,2,3,1,3,3,2,0,3,2,1,3,2,2,3,2,3,3,3,0,3,3,1,3,3,2,3,3,3,0,0,0,0,0,1,0,0,2,0,0,3,0,1,0,0,1,1,0,1,2,0,1,3,0,2,0,0,2,1,0,2,2,0,2,3,0,3,0,0,3,1,0,3,2,0,3,3,1,0,0,1,0,1,1,0,2,1,0,3,1,1,0,1,1,1,1,1,2,1,1,3,1,2,0,1,2,1,1,2,2,1,2,3,1,3,0,1,3,1,1,3,2,1,3,3,2,0,0,2,0,1,2,0,2,2,0,3,2,1,0,2,1,1,2,1,2,2,1,3,2,2,0,2,2,1,2,2,2,2,2,3,2,3,0,2,3,2,2,3,3,3,0,0,3,0,1,3,0,2,3,0,3,3,1,0,3,1,1,3,1,2,3,1,3,3,2,0,3,2,1,3,2,2,3,2,3,3,3,0,3,3,1,3,3,2,3,3,3,0,0,0,0,0,1,0,0,2,0,0,3,0,1,0,0,1,1,0,1,2,0,1,3,0,2,0,0,2,1,0,2,2,0,2,3,0,3,0,0,3,1,0,3,2,0,3,3,13,0,0,13,0,1,13,0,2,13,0,3,13,1,0,13,1,1,13,1,2,13,1,3,13,2,0,13,2,2,13,2,3,13,3,0,13,3,1,13,3,2,13,3,3,0,0,0,0,0,1,0,0,2,0,0,3,0,1,0,0,1,1,0,1,2,0,1,3,0,2,0,0,2,1,0,2,2,0,2,3,0,3,0,0,3,1,0,3,2,0,3,3,1,0,0,1,0,1,1,0,2,1,0,3,1,1,0,1,1,1,1,1,2,1,1,3,1,2,0,1,2,1,1,2,2,1,2,3,1,3,0,1,3,1,1,3,3,2,0,0,2,0,1,2,0,2,2,0,3,2,1,0,2,1,1,2,1,2,2,1,3,2,2,0,2,2,1,2,2,2,2,2,3,2,3,0,2,3,1,2,3,2,2,3,3,3,0,0,3,0,1,3,0,2,3,0,3,3,1,0,3,1,1,3,1,2,3,1,3,3,2,0,3,2,1,3,2,2,3,2,3,3,3,0,3,3,1,3,3,2,3,3,3,0,0,0,0,0,1,0,0,2,0,0,3,0,1,0,0,1,1,0,1,2,0,1,3,0,2,0,0,2,1,0,2,2,0,2,3,0,3,0,0,3,1,0,3,2,0,3,3,13,0,0,13,0,1,13,0,2,13,0,3,13,1,0,13,1,1,13,1,2,13,1,3,13,2,0,13,2,2,13,2,3,13,3,0,13,3,1,13,3,2,13,3,3,0,0,0,0,0,1,0,0,2,0,0,3,0,1,0,0,1,1,0,1,2,0,1,3,0,2,0,0,2,1,0,2,2,0,2,3,0,3,0,0,3,1,0,3,2,0,3,3,1,0,0,1,0,1,1,0,2,1,0,3,1,1,0,1,1,1,1,1,2,1,1,3,1,2,0,1,2,1,1,2,2,1,2,3,1,3,0,1,3,1,1,3,2,1,3,3,2,0,0,2,0,1,2,0,2,2,0,3,2,1,0,2,1,1,2,1,2,2,1,3,2,2,0,2,2,1,2,2,2,2,2,3,2,3,0,2,3,1,2,3,2,2,3,3,3,0,0,3,0,1,3,0,2,3,0,3,3,1,0,3,1,1,3,1,3,3,2,0,3,2,1,3,2,2,3,2,3,3,3,0,3,3,1,3,3,2,3,3,3,0,0,0,0,0,1,0,0,2,0,0,3,0,1,0,0,1,1,0,1,2,0,1,3,0,2,0,0,2,1,0,2,2,0,2,3,0,3,0,0,3,1,0,3,2,0,3,3,13,0,0,13,0,1,13,0,2,13,0,3,13,1,0,13,1,1,13,1,2,13,1,3,13,2,0,13,2,2,13,2,3,13,3,0,13,3,1,13,3,2,13,3,3,0,0,0,0,0,1,0,0,2,0,0,3,0,1,0,0,1,1,0,1,2,0,1,3,0,2,0,0,2,1,0,2,2,0,2,3,0,3,0,0,3,1,0,3,2,0,3,3,13,0,0,13,0,1,13,0,2,13,0,3,13,1,0,13,1,1,13,1,2,13,1,3,13,2,0,13,2,2,13,2,3,13,3,0,13,3,1,13,3,2,13,3,3,0,0,0,0,0,1,0,0,2,0,0,3,0,1,0,0,1,1,0,1,2,0,1,3,0,2,0,0,2,1,0,2,2,0,2,3,0,3,0,0,3,1,0,3,2,0,3,3,1,0,0,1,0,1,1,0,2,1,0,3,1,1,0,1,1,1,1,1,2,1,1,3,1,2,0,1,2,1,1,2,2,1,2,3,1,3,0,1,3,1,1,3,2,1,3,3,2,0,0,2,0,1,2,0,2,2,0,3,2,1,0,2,1,1,2,1,2,2,1,3,2,2,0,2,2,1,2,2,2,2,2,3,2,3,0,2,3,2,2,3,3,3,0,0,3,0,1,3,0,2,3,0,3,3,1,0,3,1,1,3,1,2,3,1,3,3,2,0,3,2,1,3,2,2,3,2,3,3,3,0,3,3,1,3,3,2,3,3,3,0,0,0,0,0,1,0,0,2,0,0,3,0,1,0,0,1,1,0,1,2,0,1,3,0,2,0,0,2,1,0,2,2,0,2,3,0,3,0,0,3,1,0,3,2,0,3,3,13,0,0,13,0,1,13,0,2,13,0,3,13,1,0,13,1,1,13,1,2,13,1,3,13,2,0,13,2,2,13,2,3,13,3,0,13,3,1,13,3,2,13,3,3,0,0,0,0,0,1,0,0,2,0,0,3,0,1,0,0,1,1,0,1,2,0,1,3,0,2,0,0,2,1,0,2,2,0,2,3,0,3,0,0,3,1,0,3,2,0,3,3,1,0,0,1,0,1,1,0,2,1,0,3,1,1,0,1,1,1,1,1,2,1,1,3,1,2,0,1,2,1,1,2,2,1,2,3,1,3,0,1,3,1,1,3,2,1,3,3,2,0,0,2,0,1,2,0,2,2,0,3,2,1,0,2,1,1,2,1,2,2,1,3,2,2,0,2,2,1,2,2,2,2,2,3,2,3,0,2,3,2,2,3,3,3,0,0,3,0,1,3,0,2,3,0,3,3,1,0,3,1,1,3,1,2,3,1,3,3,2,0,3,2,1,3,2,2,3,2,3,3,3,0,3,3,1,3,3,2,3,3,3,0,0,0,0,0,1,0,0,2,0,0,3,0,2,0,0,2,1,0,2,2,0,2,3,1,0,0,1,0,1,1,0,2,1,0,3,1,2,0,1,2,1,1,2,2,1,2,3,2,0,0,2,0,1,2,0,2,2,0,3,2,2,0,2,2,1,2,2,2,2,2,3,3,0,0,3,0,1,3,0,2,3,0,3,3,2,0,3,2,2,3,2,3,0,0,0,0,0,1,0,0,2,0,0,3,0,1,0,0,1,1,0,1,2,0,1,3,0,2,0,0,2,1,0,2,2,0,2,3,0,3,0,0,3,1,0,3,2,0,3,3,13,0,0,13,0,1,13,0,2,13,0,3,13,1,0,13,1,1,13,1,2,13,1,3,13,2,0,13,2,2,13,2,3,13,3,0,13,3,1,13,3,2,13,3,3,0,0,0,0,0,1,0,0,2,0,0,3,0,1,0,0,1,1,0,1,2,0,1,3,0,2,0,0,2,1,0,2,2,0,2,3,0,3,0,0,3,1,0,3,2,0,3,3,1,0,0,1,0,1,1,0,2,1,0,3,1,1,0,1,1,1,1,1,2,1,1,3,1,2,0,1,2,1,1,2,2,1,2,3,1,3,0,1,3,1,1,3,2,1,3,3,2,0,0,2,0,1,2,0,2,2,0,3,2,1,0,2,1,1,2,1,2,2,1,3,2,2,0,2,2,1,2,2,2,2,2,3,2,3,0,2,3,2,2,3,3,3,0,0,3,0,1,3,0,2,3,0,3,3,1,0,3,1,1,3,1,2,3,1,3,3,2,0,3,2,1,3,2,2,3,2,3,3,3,0,3,3,1,3,3,2,3,3,3,0,0,0,0,0,1,0,0,2,0,0,3,0,1,0,0,1,1,0,1,2,0,1,3,0,2,0,0,2,1,0,2,2,0,2,3,0,3,0,0,3,1,0,3,2,0,3,3,1,0,0,1,0,1,1,0,2,1,0,3,1,1,0,1,1,1,1,1,2,1,1,3,1,2,0,1,2,1,1,2,2,1,2,3,1,3,0,1,3,1,1,3,2,1,3,3,2,0,0,2,0,1,2,0,2,2,0,3,2,1,0,2,1,1,2,1,2,2,2,0,2,2,1,2,2,2,2,2,3,2,3,0,2,3,1,2,3,2,2,3,3,3,0,0,3,0,1,3,0,2,3,0,3,3,1,0,3,1,1,3,1,2,3,1,3,3,2,0,3,2,1,3,2,2,3,2,3,3,3,0,3,3,1,3,3,2,3,3,3,0,0,0,0,0,1,0,0,2,0,0,3,0,1,0,0,1,1,0,1,2,0,1,3,0,2,0,0,2,1,0,2,2,0,2,3,0,3,0,0,3,1,0,3,2,0,3,3,13,0,0,13,0,1,13,0,2,13,0,3,13,1,0,13,1,1,13,1,2,13,1,3,13,2,0,13,2,2,13,2,3,13,3,0,13,3,1,13,3,2,13,3,3,0,0,0,0,0,1,0,0,2,0,0,3,0,1,0,0,1,1,0,1,2,0,1,3,0,2,0,0,2,1,0,2,2,0,2,3,0,3,0,0,3,1,0,3,2,0,3,3,1,0,0,1,0,1,1,0,2,1,0,3,1,1,0,1,1,1,1,1,2,1,1,3,1,2,0,1,2,1,1,2,2,1,2,3,1,3,0,1,3,1,1,3,2,1,3,3,2,0,0,2,0,1,2,0,2,2,0,3,2,1,0,2,1,1,2,1,2,2,1,3,2,2,0,2,2,1,2,2,2,2,2,3,2,3,0,2,3,2,2,3,3,3,0,0,3,0,1,3,0,2,3,0,3,3,1,0,3,1,1,3,1,2,3,1,3,3,2,0,3,2,1,3,2,2,3,2,3,3,3,0,3,3,1,3,3,2,3,3,3,0,0,0,0,0,1,0,0,2,0,0,3,0,1,0,0,1,1,0,1,2,0,1,3,0,2,0,0,2,1,0,2,2,0,2,3,0,3,0,0,3,1,0,3,2,0,3,3,1,0,0,1,0,1,1,0,2,1,0,3,1,1,0,1,1,1,1,1,2,1,1,3,1,2,0,1,2,1,1,2,2,1,2,3,1,3,0,1,3,1,1,3,3,2,0,0,2,0,1,2,0,2,2,0,3,2,1,0,2,1,1,2,1,2,2,1,3,2,2,0,2,2,1,2,2,2,2,2,3,2,3,0,2,3,1,2,3,2,2,3,3,3,0,0,3,0,1,3,0,2,3,0,3,3,1,0,3,1,1,3,1,2,3,1,3,3,2,0,3,2,1,3,2,2,3,2,3,3,3,0,3,3,1,3,3,2,3,3,3,0,0,0,0,0,1,0,0,2,0,0,3,0,1,0,0,1,1,0,1,2,0,1,3,0,2,0,0,2,1,0,2,2,0,2,3,0,3,0,0,3,1,0,3,2,0,3,3,1,0,0,1,0,1,1,0,2,1,0,3,1,1,0,1,1,1,1,1,2,1,1,3,1,2,0,1,2,1,1,2,2,1,2,3,1,3,0,1,3,1,1,3,2,1,3,3,2,0,0,2,0,1,2,0,2,2,0,3,2,1,0,2,1,1,2,1,2,2,1,3,2,2,0,2,2,1,2,2,2,2,2,3,2,3,0,2,3,2,2,3,3,3,0,0,3,0,1,3,0,2,3,0,3,3,1,0,3,1,1,3,1,2,3,1,3,3,2,0,3,2,1,3,2,2,3,2,3,3,3,0,3,3,1,3,3,2,3,3,3,0,0,0,0,0,1,0,0,2,0,0,3,0,1,0,0,1,1,0,1,2,0,1,3,0,2,0,0,2,1,0,2,2,0,2,3,0,3,0,0,3,1,0,3,2,0,3,3,1,0,0,1,0,1,1,0,2,1,0,3,1,1,0,1,1,1,1,1,2,1,1,3,1,2,0,1,2,1,1,2,2,1,2,3,1,3,0,1,3,1,1,3,2,1,3,3,2,0,0,2,0,1,2,0,2,2,0,3,2,1,0,2,1,1,2,1,2,2,1,3,2,2,0,2,2,1,2,2,2,2,2,3,2,3,0,2,3,2,2,3,3,3,0,0,3,0,1,3,0,2,3,0,3,3,1,0,3,1,1,3,1,2,3,1,3,3,2,0,3,2,1,3,2,2,3,2,3,3,3,0,3,3,1,3,3,2,3,3,3,0,0,0,0,0,1,0,0,2,0,0,3,0,1,0,0,1,1,0,1,2,0,1,3,0,2,0,0,2,1,0,2,2,0,2,3,0,3,0,0,3,1,0,3,2,0,3,3,1,0,0,1,0,1,1,0,2,1,0,3,1,1,0,1,1,1,1,1,2,1,1,3,1,2,0,1,2,1,1,2,2,1,2,3,1,3,0,1,3,1,1,3,2,1,3,3,2,0,0,2,0,1,2,0,2,2,0,3,2,1,0,2,1,1,2,1,2,2,1,3,2,2,0,2,2,1,2,2,2,2,2,3,2,3,0,2,3,2,2,3,3,3,0,0,3,0,1,3,0,2,3,0,3,3,1,0,3,1,1,3,1,2,3,1,3,3,2,0,3,2,1,3,2,2,3,2,3,3,3,0,3,3,1,3,3,2,3,3,3,0,0,0,0,0,1,0,0,2,0,0,3,0,1,0,0,1,1,0,1,2,0,1,3,0,2,0,0,2,1,0,2,2,0,2,3,0,3,0,0,3,1,0,3,2,0,3,3,1,0,0,1,0,1,1,0,2,1,0,3,1,1,0,1,1,1,1,1,2,1,1,3,1,2,0,1,2,1,1,2,2,1,2,3,1,3,0,1,3,1,1,3,2,1,3,3,2,0,0,2,0,1,2,0,2,2,0,3,2,1,0,2,1,1,2,1,2,2,2,0,2,2,1,2,2,2,2,2,3,2,3,0,2,3,1,2,3,2,2,3,3,3,0,0,3,0,1,3,0,2,3,0,3,3,1,0,3,1,1,3,1,2,3,1,3,3,2,0,3,2,1,3,2,2,3,2,3,3,3,0,3,3,1,3,3,2,3,3,3,0,0,0,0,0,1,0,0,2,0,0,3,0,1,0,0,1,1,0,1,2,0,1,3,0,2,0,0,2,1,0,2,2,0,2,3,0,3,0,0,3,1,0,3,2,0,3,3,13,0,0,13,0,1,13,0,2,13,0,3,13,1,0,13,1,1,13,1,2,13,1,3,13,2,0,13,2,2,13,2,3,13,3,0,13,3,1,13,3,2,13,3,3,0,0,0,0,0,1,0,0,2,0,0,3,0,1,0,0,1,1,0,1,2,0,1,3,0,2,0,0,2,1,0,2,2,0,2,3,0,3,0,0,3,1,0,3,2,0,3,3,13,0,0,13,0,1,13,0,2,13,0,3,13,1,0,13,1,1,13,1,2,13,1,3,13,2,0,13,2,2,13,2,3,13,3,0,13,3,1,13,3,2,13,3,3,0,0,0,0,0,1,0,0,2,0,0,3,0,1,0,0,1,1,0,1,2,0,1,3,0,2,0,0,2,1,0,2,2,0,2,3,0,3,0,0,3,1,0,3,2,0,3,3,1,0,0,1,0,1,1,0,2,1,0,3,1,1,0,1,1,1,1,1,2,1,1,3,1,2,0,1,2,1,1,2,2,1,2,3,1,3,0,1,3,1,1,3,2,1,3,3,2,0,0,2,0,1,2,0,2,2,0,3,2,1,0,2,1,1,2,1,2,2,1,3,2,2,0,2,2,1,2,2,2,2,2,3,2,3,0,2,3,2,2,3,3,3,0,0,3,0,1,3,0,2,3,0,3,3,1,0,3,1,1,3,1,2,3,1,3,3,2,0,3,2,1,3,2,2,3,2,3,3,3,0,3,3,1,3,3,2,3,3,3,0,0,0,0,0,1,0,0,2,0,0,3,0,1,0,0,1,1,0,1,2,0,1,3,0,2,0,0,2,1,0,2,2,0,2,3,0,3,0,0,3,1,0,3,2,0,3,3,1,0,0,1,0,1,1,0,2,1,0,3,1,1,0,1,1,1,1,1,2,1,1,3,1,2,0,1,2,1,1,2,2,1,2,3,1,3,0,1,3,1,1,3,2,1,3,3,2,0,0,2,0,1,2,0,2,2,0,3,2,1,0,2,1,1,2,1,2,2,1,3,2,2,0,2,2,1,2,2,2,2,2,3,2,3,0,2,3,1,2,3,2,2,3,3,3,0,0,3,0,1,3,0,2,3,0,3,3,1,0,3,1,1,3,1,3,3,2,0,3,2,1,3,2,2,3,2,3,3,3,0,3,3,1,3,3,2,3,3,3,0,0,0,0,0,1,0,0,2,0,0,3,0,1,0,0,1,1,0,1,2,0,1,3,0,2,0,0,2,1,0,2,2,0,2,3,0,3,0,0,3,1,0,3,2,0,3,3,1,0,0,1,0,1,1,0,2,1,0,3,1,1,0,1,1,1,1,1,2,1,1,3,1,2,0,1,2,1,1,2,2,1,2,3,1,3,0,1,3,1,1,3,2,1,3,3,2,0,0,2,0,1,2,0,2,2,0,3,2,1,0,2,1,1,2,1,2,2,1,3,2,2,0,2,2,1,2,2,2,2,2,3,2,3,0,2,3,2,2,3,3,3,0,0,3,0,1,3,0,2,3,0,3,3,1,0,3,1,1,3,1,2,3,1,3,3,2,0,3,2,1,3,2,2,3,2,3,3,3,0,3,3,1,3,3,2,3,3,3,0,0,0,0,0,1,0,0,2,0,0,3,0,1,0,0,1,1,0,1,2,0,1,3,0,2,0,0,2,1,0,2,2,0,2,3,0,3,0,0,3,1,0,3,2,0,3,3,1,0,0,1,0,1,1,0,2,1,0,3,1,1,0,1,1,1,1,1,2,1,1,3,1,2,0,1,2,1,1,2,2,1,2,3,1,3,0,1,3,1,1,3,2,1,3,3,2,0,0,2,0,1,2,0,2,2,0,3,2,1,0,2,1,1,2,1,2,2,1,3,2,2,0,2,2,1,2,2,2,2,2,3,2,3,0,2,3,2,2,3,3,3,0,0,3,0,1,3,0,2,3,0,3,3,1,0,3,1,1,3,1,2,3,1,3,3,2,0,3,2,1,3,2,2,3,2,3,3,3,0,3,3,1,3,3,2,3,3,3,0,0,0,0,0,1,0,0,2,0,0,3,0,1,0,0,1,1,0,1,2,0,1,3,0,2,0,0,2,1,0,2,2,0,2,3,0,3,0,0,3,1,0,3,2,0,3,3,1,0,0,1,0,1,1,0,2,1,0,3,1,1,0,1,1,1,1,1,2,1,1,3,1,2,0,1,2,1,1,2,2,1,2,3,1,3,0,1,3,1,1,3,2,1,3,3,2,0,0,2,0,1,2,0,2,2,0,3,2,1,0,2,1,1,2,1,2,2,1,3,2,2,0,2,2,1,2,2,2,2,2,3,2,3,0,2,3,2,2,3,3,3,0,0,3,0,1,3,0,2,3,0,3,3,1,0,3,1,1,3,1,2,3,1,3,3,2,0,3,2,1,3,2,2,3,2,3,3,3,0,3,3,1,3,3,2,3,3,3,0,0,0,0,0,1,0,0,2,0,0,3,0,1,0,0,1,1,0,1,2,0,1,3,0,2,0,0,2,1,0,2,2,0,2,3,0,3,0,0,3,1,0,3,2,0,3,3,1,0,0,1,0,1,1,0,2,1,0,3,1,1,0,1,1,1,1,1,2,1,1,3,1,2,0,1,2,1,1,2,2,1,2,3,1,3,0,1,3,1,1,3,2,1,3,3,2,0,0,2,0,1,2,0,2,2,0,3,2,1,0,2,1,1,2,1,2,2,1,3,2,2,0,2,2,1,2,2,2,2,2,3,2,3,0,2,3,2,2,3,3,3,0,0,3,0,1,3,0,2,3,0,3,3,1,0,3,1,1,3,1,2,3,1,3,3,2,0,3,2,1,3,2,2,3,2,3,3,3,0,3,3,1,3,3,2,3,3,3,0,0,0,0,0,1,0,0,2,0,0,3,0,1,0,0,1,1,0,1,2,0,1,3,0,2,0,0,2,1,0,2,2,0,2,3,0,3,0,0,3,1,0,3,2,0,3,3,13,0,0,13,0,1,13,0,2,13,0,3,13,1,0,13,1,1,13,1,2,13,1,3,13,2,0,13,2,2,13,2,3,13,3,0,13,3,1,13,3,2,13,3,3,0,0,0,0,0,1,0,0,2,0,0,3,0,1,0,0,1,1,0,1,2,0,1,3,0,2,0,0,2,1,0,2,2,0,2,3,0,3,0,0,3,1,0,3,2,0,3,3,1,0,0,1,0,1,1,0,2,1,0,3,1,1,0,1,1,1,1,1,2,1,1,3,1,2,0,1,2,1,1,2,2,1,2,3,1,3,0,1,3,1,1,3,2,1,3,3,2,0,0,2,0,1,2,0,2,2,0,3,2,1,0,2,1,1,2,1,2,2,1,3,2,2,0,2,2,1,2,2,2,2,2,3,2,3,0,2,3,1,2,3,2,2,3,3,3,0,0,3,0,1,3,0,2,3,0,3,3,1,0,3,1,1,3,1,3,3,2,0,3,2,1,3,2,2,3,2,3,3,3,0,3,3,1,3,3,2,3,3,3,0,0,0,0,0,1,0,0,2,0,0,3,0,1,0,0,1,1,0,1,2,0,1,3,0,2,0,0,2,1,0,2,2,0,2,3,0,3,0,0,3,1,0,3,2,0,3,3,1,0,0,1,0,1,1,0,2,1,0,3,1,1,0,1,1,1,1,1,2,1,1,3,1,2,0,1,2,1,1,2,2,1,2,3,1,3,0,1,3,1,1,3,2,1,3,3,2,0,0,2,0,1,2,0,2,2,0,3,2,1,0,2,1,1,2,1,2,2,1,3,2,2,0,2,2,1,2,2,2,2,2,3,2,3,0,2,3,1,2,3,2,2,3,3,3,0,0,3,0,1,3,0,2,3,0,3,3,1,0,3,1,1,3,1,3,3,2,0,3,2,1,3,2,2,3,2,3,3,3,0,3,3,1,3,3,2,3,3,3,0,0,0,0,0,1,0,0,2,0,0,3,0,1,0,0,1,1,0,1,2,0,1,3,0,2,0,0,2,1,0,2,2,0,2,3,0,3,0,0,3,1,0,3,2,0,3,3,1,0,0,1,0,1,1,0,2,1,0,3,1,1,0,1,1,1,1,1,2,1,1,3,1,2,0,1,2,1,1,2,2,1,3,0,1,3,1,1,3,2,1,3,3,2,0,0,2,0,1,2,0,2,2,0,3,2,1,0,2,1,1,2,1,2,2,1,3,2,2,0,2,2,1,2,2,2,2,2,3,2,3,0,2,3,1,2,3,2,2,3,3,3,0,0,3,0,1,3,0,2,3,0,3,3,1,0,3,1,1,3,1,2,3,1,3,3,2,0,3,2,1,3,2,2,3,2,3,3,3,0,3,3,1,3,3,2,3,3,3,0,0,0,0,0,1,0,0,2,0,0,3,0,1,0,0,1,1,0,1,2,0,1,3,0,2,0,0,2,1,0,2,2,0,2,3,0,3,0,0,3,1,0,3,2,0,3,3,1,0,0,1,0,1,1,0,2,1,0,3,1,1,0,1,1,1,1,1,2,1,1,3,1,2,0,1,2,1,1,2,2,1,2,3,1,3,0,1,3,1,1,3,2,1,3,3,2,0,0,2,0,1,2,0,2,2,0,3,2,1,0,2,1,1,2,1,2,2,1,3,2,2,0,2,2,1,2,2,2,2,2,3,2,3,0,2,3,2,2,3,3,3,0,0,3,0,1,3,0,2,3,0,3,3,1,0,3,1,1,3,1,2,3,1,3,3,2,0,3,2,1,3,2,2,3,2,3,3,3,0,3,3,1,3,3,2,3,3,3,0,0,0,0,0,1,0,0,2,0,0,3,0,1,0,0,1,1,0,1,2,0,1,3,0,2,0,0,2,1,0,2,2,0,2,3,0,3,0,0,3,1,0,3,2,0,3,3,13,0,0,13,0,1,13,0,2,13,0,3,13,1,0,13,1,1,13,1,2,13,1,3,13,2,0,13,2,2,13,2,3,13,3,0,13,3,1,13,3,2,13,3,3,0,0,0,0,0,1,0,0,2,0,0,3,0,1,0,0,1,1,0,1,2,0,1,3,0,2,0,0,2,1,0,2,2,0,2,3,0,3,0,0,3,1,0,3,2,0,3,3,1,0,0,1,0,1,1,0,2,1,0,3,1,1,0,1,1,1,1,1,2,1,1,3,1,2,0,1,2,1,1,2,2,1,2,3,1,3,0,1,3,1,1,3,2,1,3,3,2,0,0,2,0,1,2,0,2,2,0,3,2,1,0,2,1,1,2,1,2,2,1,3,2,2,0,2,2,1,2,2,2,2,2,3,2,3,0,2,3,2,2,3,3,3,0,0,3,0,1,3,0,2,3,0,3,3,1,0,3,1,1,3,1,2,3,1,3,3,2,0,3,2,1,3,2,2,3,2,3,3,3,0,3,3,1,3,3,2,3,3,3,0,0,0,0,0,1,0,0,2,0,0,3,0,1,0,0,1,1,0,1,2,0,1,3,0,2,0,0,2,1,0,2,2,0,2,3,0,3,0,0,3,1,0,3,2,0,3,3,1,0,0,1,0,1,1,0,2,1,0,3,1,1,0,1,1,1,1,1,2,1,1,3,1,2,0,1,2,1,1,2,2,1,2,3,1,3,0,1,3,1,1,3,2,1,3,3,2,0,0,2,0,1,2,0,2,2,0,3,2,1,0,2,1,1,2,1,2,2,1,3,2,2,0,2,2,1,2,2,2,2,2,3,2,3,0,2,3,2,2,3,3,3,0,0,3,0,1,3,0,2,3,0,3,3,1,0,3,1,1,3,1,2,3,1,3,3,2,0,3,2,1,3,2,2,3,2,3,3,3,0,3,3,1,3,3,2,3,3,3,0,0,0,0,0,1,0,0,2,0,0,3,0,1,0,0,1,1,0,1,2,0,1,3,0,2,0,0,2,1,0,2,2,0,2,3,0,3,0,0,3,1,0,3,2,0,3,3,1,0,0,1,0,1,1,0,2,1,0,3,1,1,0,1,1,1,1,1,2,1,1,3,1,2,0,1,2,1,1,2,2,1,2,3,1,3,0,1,3,1,1,3,2,1,3,3,2,0,0,2,0,1,2,0,2,2,0,3,2,1,0,2,1,1,2,1,2,2,1,3,2,2,0,2,2,1,2,2,2,2,2,3,2,3,0,2,3,2,2,3,3,3,0,0,3,0,1,3,0,2,3,0,3,3,1,0,3,1,1,3,1,2,3,1,3,3,2,0,3,2,1,3,2,2,3,2,3,3,3,0,3,3,1,3,3,2,3,3,3,0,0,0,0,0,1,0,0,2,0,0,3,0,1,0,0,1,1,0,1,2,0,1,3,0,2,0,0,2,1,0,2,2,0,2,3,0,3,0,0,3,1,0,3,2,0,3,3,1,0,0,1,0,1,1,0,2,1,0,3,1,1,0,1,1,1,1,1,2,1,1,3,1,2,0,1,2,1,1,2,2,1,3,0,1,3,1,1,3,2,1,3,3,2,0,0,2,0,1,2,0,2,2,0,3,2,1,0,2,1,1,2,1,2,2,1,3,2,2,0,2,2,1,2,2,2,2,2,3,2,3,0,2,3,1,2,3,2,2,3,3,3,0,0,3,0,1,3,0,2,3,0,3,3,1,0,3,1,1,3,1,2,3,1,3,3,2,0,3,2,1,3,2,2,3,2,3,3,3,0,3,3,1,3,3,2,3,3,3,0,0,0,0,0,1,0,0,2,0,0,3,0,1,0,0,1,1,0,1,2,0,1,3,0,2,0,0,2,1,0,2,2,0,2,3,0,3,0,0,3,1,0,3,2,0,3,3,1,0,0,1,0,1,1,0,2,1,0,3,1,1,0,1,1,1,1,1,2,1,1,3,1,2,0,1,2,1,1,2,2,1,3,0,1,3,1,1,3,2,1,3,3,2,0,0,2,0,1,2,0,2,2,0,3,2,1,0,2,1,1,2,1,2,2,1,3,2,2,0,2,2,1,2,2,2,2,2,3,2,3,0,2,3,1,2,3,2,2,3,3,3,0,0,3,0,1,3,0,2,3,0,3,3,1,0,3,1,1,3,1,2,3,1,3,3,2,0,3,2,1,3,2,2,3,2,3,3,3,0,3,3,1,3,3,2,3,3,3,0,0,0,0,0,1,0,0,2,0,0,3,0,1,0,0,1,1,0,1,2,0,1,3,0,2,0,0,2,1,0,2,2,0,2,3,0,3,0,0,3,1,0,3,2,0,3,3,13,0,0,13,0,1,13,0,2,13,0,3,13,1,0,13,1,1,13,1,2,13,1,3,13,2,0,13,2,2,13,2,3,13,3,0,13,3,1,13,3,2,13,3,3,0,0,0,0,0,1,0,0,2,0,0,3,0,1,0,0,1,1,0,1,2,0,1,3,0,2,0,0,2,1,0,2,2,0,2,3,0,3,0,0,3,1,0,3,2,0,3,3,1,0,0,1,0,1,1,0,2,1,0,3,1,1,0,1,1,1,1,1,2,1,1,3,1,2,0,1,2,1,1,2,2,1,2,3,1,3,0,1,3,1,1,3,2,1,3,3,2,0,0,2,0,1,2,0,2,2,0,3,2,1,0,2,1,1,2,1,2,2,1,3,2,2,0,2,2,1,2,2,2,2,2,3,2,3,0,2,3,2,2,3,3,3,0,0,3,0,1,3,0,2,3,0,3,3,1,0,3,1,1,3,1,2,3,1,3,3,2,0,3,2,1,3,2,2,3,2,3,3,3,0,3,3,1,3,3,2,3,3,3,0,0,0,0,0,1,0,0,2,0,0,3,0,1,0,0,1,1,0,1,2,0,1,3,0,2,0,0,2,1,0,2,2,0,2,3,0,3,0,0,3,1,0,3,2,0,3,3,1,0,0,1,0,1,1,0,2,1,0,3,1,1,0,1,1,1,1,1,2,1,1,3,1,2,0,1,2,1,1,2,2,1,2,3,1,3,0,1,3,1,1,3,3,2,0,0,2,0,1,2,0,2,2,0,3,2,1,0,2,1,1,2,1,2,2,1,3,2,2,0,2,2,1,2,2,2,2,2,3,2,3,0,2,3,1,2,3,2,2,3,3,3,0,0,3,0,1,3,0,2,3,0,3,3,1,0,3,1,1,3,1,2,3,1,3,3,2,0,3,2,1,3,2,2,3,2,3,3,3,0,3,3,1,3,3,2,3,3,3,0,0,0,0,0,1,0,0,2,0,0,3,0,1,0,0,1,1,0,1,2,0,1,3,0,2,0,0,2,1,0,2,2,0,2,3,0,3,0,0,3,1,0,3,2,0,3,3,1,0,0,1,0,1,1,0,2,1,0,3,1,1,0,1,1,1,1,1,2,1,1,3,1,2,0,1,2,1,1,2,2,1,2,3,1,3,0,1,3,1,1,3,2,1,3,3,2,0,0,2,0,1,2,0,2,2,0,3,2,1,0,2,1,1,2,1,2,2,2,0,2,2,1,2,2,2,2,2,3,2,3,0,2,3,1,2,3,2,2,3,3,3,0,0,3,0,1,3,0,2,3,0,3,3,1,0,3,1,1,3,1,2,3,1,3,3,2,0,3,2,1,3,2,2,3,2,3,3,3,0,3,3,1,3,3,2,3,3,3,0,0,0,0,0,1,0,0,2,0,0,3,0,1,0,0,1,1,0,1,2,0,1,3,0,2,0,0,2,1,0,2,2,0,2,3,0,3,0,0,3,1,0,3,2,0,3,3,1,0,0,1,0,1,1,0,2,1,0,3,1,1,0,1,1,1,1,1,2,1,1,3,1,2,0,1,2,1,1,2,2,1,2,3,1,3,0,1,3,1,1,3,2,1,3,3,2,0,0,2,0,1,2,0,2,2,0,3,2,1,0,2,1,1,2,1,2,2,1,3,2,2,0,2,2,1,2,2,2,2,2,3,2,3,0,2,3,2,2,3,3,3,0,0,3,0,1,3,0,2,3,0,3,3,1,0,3,1,1,3,1,2,3,1,3,3,2,0,3,2,1,3,2,2,3,2,3,3,3,0,3,3,1,3,3,2,3,3,3,0,0,0,0,0,1,0,0,2,0,0,3,0,1,0,0,1,1,0,1,2,0,1,3,0,2,0,0,2,1,0,2,2,0,2,3,0,3,0,0,3,1,0,3,2,0,3,3,1,0,0,1,0,1,1,0,2,1,0,3,1,1,0,1,1,1,1,1,2,1,1,3,1,2,0,1,2,1,1,2,2,1,2,3,1,3,0,1,3,1,1,3,3,2,0,0,2,0,1,2,0,2,2,0,3,2,1,0,2,1,1,2,1,2,2,1,3,2,2,0,2,2,1,2,2,2,2,2,3,2,3,0,2,3,1,2,3,2,2,3,3,3,0,0,3,0,1,3,0,2,3,0,3,3,1,0,3,1,1,3,1,2,3,1,3,3,2,0,3,2,1,3,2,2,3,2,3,3,3,0,3,3,1,3,3,2,3,3,3,0,0,0,0,0,1,0,0,2,0,0,3,0,1,0,0,1,1,0,1,2,0,1,3,0,2,0,0,2,1,0,2,2,0,2,3,0,3,0,0,3,1,0,3,2,0,3,3,1,0,0,1,0,1,1,0,2,1,0,3,1,1,0,1,1,1,1,1,2,1,1,3,1,2,0,1,2,1,1,2,2,1,2,3,1,3,0,1,3,1,1,3,3,2,0,0,2,0,1,2,0,2,2,0,3,2,1,0,2,1,1,2,1,2,2,1,3,2,2,0,2,2,1,2,2,2,2,2,3,2,3,0,2,3,1,2,3,2,2,3,3,3,0,0,3,0,1,3,0,2,3,0,3,3,1,0,3,1,1,3,1,2,3,1,3,3,2,0,3,2,1,3,2,2,3,2,3,3,3,0,3,3,1,3,3,2,3,3,3,0,0,0,0,0,1,0,0,2,0,0,3,0,1,0,0,1,1,0,1,2,0,1,3,0,2,0,0,2,1,0,2,2,0,2,3,0,3,0,0,3,1,0,3,2,0,3,3,13,0,0,13,0,1,13,0,2,13,0,3,13,1,0,13,1,1,13,1,2,13,1,3,13,2,0,13,2,2,13,2,3,13,3,0,13,3,1,13,3,2,13,3,3,0,0,0,0,0,1,0,0,2,0,0,3,0,1,0,0,1,1,0,1,2,0,1,3,0,2,0,0,2,1,0,2,2,0,2,3,0,3,0,0,3,1,0,3,2,0,3,3,1,0,0,1,0,1,1,0,2,1,0,3,1,1,0,1,1,1,1,1,2,1,1,3,1,2,0,1,2,1,1,2,2,1,2,3,1,3,0,1,3,1,1,3,2,1,3,3,2,0,0,2,0,1,2,0,2,2,0,3,2,1,0,2,1,1,2,1,2,2,1,3,2,2,0,2,2,1,2,2,2,2,2,3,2,3,0,2,3,2,2,3,3,3,0,0,3,0,1,3,0,2,3,0,3,3,1,0,3,1,1,3,1,2,3,1,3,3,2,0,3,2,1,3,2,2,3,2,3,3,3,0,3,3,1,3,3,2,3,3,3,0,0,0,0,0,1,0,0,2,0,0,3,0,1,0,0,1,1,0,1,2,0,1,3,0,2,0,0,2,1,0,2,2,0,2,3,0,3,0,0,3,1,0,3,2,0,3,3,1,0,0,1,0,1,1,0,2,1,0,3,1,1,0,1,1,1,1,1,2,1,1,3,1,2,0,1,2,1,1,2,2,1,2,3,1,3,0,1,3,1,1,3,2,1,3,3,2,0,0,2,0,1,2,0,2,2,0,3,2,1,0,2,1,1,2,1,2,2,1,3,2,2,0,2,2,1,2,2,2,2,2,3,2,3,0,2,3,2,2,3,3,3,0,0,3,0,1,3,0,2,3,0,3,3,1,0,3,1,1,3,1,2,3,1,3,3,2,0,3,2,1,3,2,2,3,2,3,3,3,0,3,3,1,3,3,2,3,3,3,0,0,0,0,0,1,0,0,2,0,0,3,0,1,0,0,1,1,0,1,2,0,1,3,0,2,0,0,2,1,0,2,2,0,2,3,0,3,0,0,3,1,0,3,2,0,3,3,1,0,0,1,0,1,1,0,2,1,0,3,1,1,0,1,1,1,1,1,2,1,1,3,1,2,0,1,2,1,1,2,2,1,2,3,1,3,0,1,3,1,1,3,2,1,3,3,2,0,0,2,0,1,2,0,2,2,0,3,2,1,0,2,1,1,2,1,2,2,1,3,2,2,0,2,2,1,2,2,2,2,2,3,2,3,0,2,3,2,2,3,3,3,0,0,3,0,1,3,0,2,3,0,3,3,1,0,3,1,1,3,1,2,3,1,3,3,2,0,3,2,1,3,2,2,3,2,3,3,3,0,3,3,1,3,3,2,3,3,3,0,0,0,0,0,1,0,0,2,0,0,3,0,1,0,0,1,1,0,1,2,0,1,3,0,2,0,0,2,1,0,2,2,0,2,3,0,3,0,0,3,1,0,3,2,0,3,3,1,0,0,1,0,1,1,0,2,1,0,3,1,1,0,1,1,1,1,1,2,1,1,3,1,2,0,1,2,1,1,2,2,1,2,3,1,3,0,1,3,1,1,3,2,1,3,3,2,0,0,2,0,1,2,0,2,2,0,3,2,1,0,2,1,1,2,1,2,2,1,3,2,2,0,2,2,1,2,2,2,2,2,3,2,3,0,2,3,2,2,3,3,3,0,0,3,0,1,3,0,2,3,0,3,3,1,0,3,1,1,3,1,2,3,1,3,3,2,0,3,2,1,3,2,2,3,2,3,3,3,0,3,3,1,3,3,2,3,3,3,0,0,0,0,0,1,0,0,2,0,0,3,0,1,0,0,1,1,0,1,2,0,1,3,0,2,0,0,2,1,0,2,2,0,2,3,0,3,0,0,3,1,0,3,2,0,3,3,13,0,0,13,0,1,13,0,2,13,0,3,13,1,0,13,1,1,13,1,2,13,1,3,13,2,0,13,2,2,13,2,3,13,3,0,13,3,1,13,3,2,13,3,3,0,0,0,0,0,1,0,0,2,0,0,3,0,1,0,0,1,1,0,1,2,0,1,3,0,2,0,0,2,1,0,2,2,0,2,3,0,3,0,0,3,1,0,3,2,0,3,3,1,0,0,1,0,1,1,0,2,1,0,3,1,1,0,1,1,1,1,1,2,1,1,3,1,2,0,1,2,1,1,2,2,1,2,3,1,3,0,1,3,1,1,3,2,1,3,3,2,0,0,2,0,1,2,0,2,2,0,3,2,1,0,2,1,1,2,1,2,2,1,3,2,2,0,2,2,1,2,2,2,2,2,3,2,3,0,2,3,2,2,3,3,3,0,0,3,0,1,3,0,2,3,0,3,3,1,0,3,1,1,3,1,2,3,1,3,3,2,0,3,2,1,3,2,2,3,2,3,3,3,0,3,3,1,3,3,2,3,3,3,0,0,0,0,0,1,0,0,2,0,0,3,0,1,0,0,1,1,0,1,2,0,1,3,0,2,0,0,2,1,0,2,2,0,2,3,0,3,0,0,3,1,0,3,2,0,3,3,1,0,0,1,0,1,1,0,2,1,0,3,1,1,0,1,1,1,1,1,2,1,1,3,1,2,0,1,2,1,1,2,2,1,2,3,1,3,0,1,3,1,1,3,2,1,3,3,2,0,0,2,0,1,2,0,2,2,0,3,2,1,0,2,1,1,2,1,2,2,1,3,2,2,0,2,2,1,2,2,2,2,2,3,2,3,0,2,3,2,2,3,3,3,0,0,3,0,1,3,0,2,3,0,3,3,1,0,3,1,1,3,1,2,3,1,3,3,2,0,3,2,1,3,2,2,3,2,3,3,3,0,3,3,1,3,3,2,3,3,3,0,0,0,0,0,1,0,0,2,0,0,3,0,1,0,0,1,1,0,1,2,0,1,3,0,2,0,0,2,1,0,2,2,0,2,3,0,3,0,0,3,1,0,3,2,0,3,3,1,0,0,1,0,1,1,0,2,1,0,3,1,1,0,1,1,1,1,1,2,1,1,3,1,2,0,1,2,1,1,2,2,1,2,3,1,3,0,1,3,1,1,3,2,1,3,3,2,0,0,2,0,1,2,0,2,2,0,3,2,1,0,2,1,1,2,1,2,2,1,3,2,2,0,2,2,1,2,2,2,2,2,3,2,3,0,2,3,2,2,3,3,3,0,0,3,0,1,3,0,2,3,0,3,3,1,0,3,1,1,3,1,2,3,1,3,3,2,0,3,2,1,3,2,2,3,2,3,3,3,0,3,3,1,3,3,2,3,3,3,0,0,0,0,0,1,0,0,2,0,0,3,0,1,0,0,1,1,0,1,2,0,1,3,0,2,0,0,2,1,0,2,2,0,2,3,0,3,0,0,3,1,0,3,2,0,3,3,1,0,0,1,0,1,1,0,2,1,0,3,1,1,0,1,1,1,1,1,2,1,1,3,1,2,0,1,2,1,1,2,2,1,2,3,1,3,0,1,3,1,1,3,2,1,3,3,2,0,0,2,0,1,2,0,2,2,0,3,2,1,0,2,1,1,2,1,2,2,2,0,2,2,1,2,2,2,2,2,3,2,3,0,2,3,1,2,3,2,2,3,3,3,0,0,3,0,1,3,0,2,3,0,3,3,1,0,3,1,1,3,1,2,3,1,3,3,2,0,3,2,1,3,2,2,3,2,3,3,3,0,3,3,1,3,3,2,3,3,3,0,0,0,0,0,1,0,0,2,0,0,3,0,1,0,0,1,1,0,1,2,0,1,3,0,2,0,0,2,1,0,2,2,0,2,3,0,3,0,0,3,1,0,3,2,0,3,3,1,0,0,1,0,1,1,0,2,1,0,3,1,1,0,1,1,1,1,1,2,1,1,3,1,2,0,1,2,1,1,2,2,1,2,3,1,3,0,1,3,1,1,3,2,1,3,3,2,0,0,2,0,1,2,0,2,2,0,3,2,1,0,2,1,1,2,1,2,2,1,3,2,2,0,2,2,1,2,2,2,2,2,3,2,3,0,2,3,2,2,3,3,3,0,0,3,0,1,3,0,2,3,0,3,3,1,0,3,1,1,3,1,2,3,1,3,3,2,0,3,2,1,3,2,2,3,2,3,3,3,0,3,3,1,3,3,2,3,3,3,0,0,0,0,0,1,0,0,2,0,0,3,0,1,0,0,1,1,0,1,2,0,1,3,0,2,0,0,2,1,0,2,2,0,2,3,0,3,0,0,3,1,0,3,2,0,3,3,1,0,0,1,0,1,1,0,2,1,0,3,1,1,0,1,1,1,1,1,2,1,1,3,1,2,0,1,2,1,1,2,2,1,2,3,1,3,0,1,3,1,1,3,2,1,3,3,2,0,0,2,0,1,2,0,2,2,0,3,2,1,0,2,1,1,2,1,2,2,1,3,2,2,0,2,2,1,2,2,2,2,2,3,2,3,0,2,3,2,2,3,3,3,0,0,3,0,1,3,0,2,3,0,3,3,1,0,3,1,1,3,1,2,3,1,3,3,2,0,3,2,1,3,2,2,3,2,3,3,3,0,3,3,1,3,3,2,3,3,3,0,0,0,0,0,1,0,0,2,0,0,3,0,1,0,0,1,1,0,1,2,0,1,3,0,2,0,0,2,1,0,2,2,0,2,3,0,3,0,0,3,1,0,3,2,0,3,3,1,0,0,1,0,1,1,0,2,1,0,3,1,1,0,1,1,1,1,1,2,1,1,3,1,2,0,1,2,1,1,2,2,1,2,3,1,3,0,1,3,1,1,3,2,1,3,3,2,0,0,2,0,1,2,0,2,2,0,3,2,1,0,2,1,1,2,1,2,2,1,3,2,2,0,2,2,1,2,2,2,2,2,3,2,3,0,2,3,2,2,3,3,3,0,0,3,0,1,3,0,2,3,0,3,3,1,0,3,1,1,3,1,2,3,1,3,3,2,0,3,2,1,3,2,2,3,2,3,3,3,0,3,3,1,3,3,2,3,3,3,0,0,0,0,0,1,0,0,2,0,0,3,0,1,0,0,1,1,0,1,2,0,1,3,0,2,0,0,2,1,0,2,2,0,2,3,0,3,0,0,3,1,0,3,2,0,3,3,1,0,0,1,0,1,1,0,2,1,0,3,1,1,0,1,1,1,1,1,2,1,1,3,1,2,0,1,2,1,1,2,2,1,2,3,1,3,0,1,3,1,1,3,3,2,0,0,2,0,1,2,0,2,2,0,3,2,1,0,2,1,1,2,1,2,2,1,3,2,2,0,2,2,1,2,2,2,2,2,3,2,3,0,2,3,1,2,3,2,2,3,3,3,0,0,3,0,1,3,0,2,3,0,3,3,1,0,3,1,1,3,1,2,3,1,3,3,2,0,3,2,1,3,2,2,3,2,3,3,3,0,3,3,1,3,3,2,3,3,3,0,0,0,0,0,1,0,0,2,0,0,3,0,1,0,0,1,1,0,1,2,0,1,3,0,2,0,0,2,1,0,2,2,0,2,3,0,3,0,0,3,1,0,3,2,0,3,3,13,0,0,13,0,1,13,0,2,13,0,3,13,1,0,13,1,1,13,1,2,13,1,3,13,2,0,13,2,2,13,2,3,13,3,0,13,3,1,13,3,2,13,3,3,0,0,0,0,0,1,0,0,2,0,0,3,0,1,0,0,1,1,0,1,2,0,1,3,0,2,0,0,2,1,0,2,2,0,2,3,0,3,0,0,3,1,0,3,2,0,3,3,1,0,0,1,0,1,1,0,2,1,0,3,1,1,0,1,1,1,1,1,2,1,1,3,1,2,0,1,2,1,1,2,2,1,3,0,1,3,1,1,3,2,1,3,3,2,0,0,2,0,1,2,0,2,2,0,3,2,1,0,2,1,1,2,1,2,2,1,3,2,2,0,2,2,1,2,2,2,2,2,3,2,3,0,2,3,1,2,3,2,2,3,3,3,0,0,3,0,1,3,0,2,3,0,3,3,1,0,3,1,1,3,1,2,3,1,3,3,2,0,3,2,1,3,2,2,3,2,3,3,3,0,3,3,1,3,3,2,3,3,3,0,0,0,0,0,1,0,0,2,0,0,3,0,1,0,0,1,1,0,1,2,0,1,3,0,2,0,0,2,1,0,2,2,0,2,3,0,3,0,0,3,1,0,3,2,0,3,3,13,0,0,13,0,1,13,0,2,13,0,3,13,1,0,13,1,1,13,1,2,13,1,3,13,2,0,13,2,2,13,2,3,13,3,0,13,3,1,13,3,2,13,3,3,0,0,0,0,0,1,0,0,2,0,0,3,0,1,0,0,1,1,0,1,2,0,1,3,0,2,0,0,2,1,0,2,2,0,2,3,0,3,0,0,3,1,0,3,2,0,3,3,1,0,0,1,0,1,1,0,2,1,0,3,1,1,0,1,1,1,1,1,2,1,1,3,1,2,0,1,2,1,1,2,2,1,2,3,1,3,0,1,3,1,1,3,3,2,0,0,2,0,1,2,0,2,2,0,3,2,1,0,2,1,1,2,1,2,2,1,3,2,2,0,2,2,1,2,2,2,2,2,3,2,3,0,2,3,1,2,3,2,2,3,3,3,0,0,3,0,1,3,0,2,3,0,3,3,1,0,3,1,1,3,1,2,3,1,3,3,2,0,3,2,1,3,2,2,3,2,3,3,3,0,3,3,1,3,3,2,3,3,3,0,0,0,0,0,1,0,0,2,0,0,3,0,2,0,0,2,1,0,2,2,0,2,3,1,0,0,1,0,1,1,0,2,1,0,3,1,2,0,1,2,1,1,2,2,1,2,3,2,0,0,2,0,1,2,0,2,2,0,3,2,2,0,2,2,1,2,2,2,2,2,3,3,0,0,3,0,1,3,0,2,3,0,3,3,2,0,3,2,2,3,2,3,0,0,0,0,0,1,0,0,2,0,0,3,0,1,0,0,1,1,0,1,2,0,1,3,0,2,0,0,2,1,0,2,2,0,2,3,0,3,0,0,3,1,0,3,2,0,3,3,1,0,0,1,0,1,1,0,2,1,0,3,1,1,0,1,1,1,1,1,2,1,1,3,1,2,0,1,2,1,1,2,2,1,2,3,1,3,0,1,3,1,1,3,2,1,3,3,2,0,0,2,0,1,2,0,2,2,0,3,2,1,0,2,1,1,2,1,2,2,1,3,2,2,0,2,2,1,2,2,2,2,2,3,2,3,0,2,3,2,2,3,3,3,0,0,3,0,1,3,0,2,3,0,3,3,1,0,3,1,1,3,1,2,3,1,3,3,2,0,3,2,1,3,2,2,3,2,3,3,3,0,3,3,1,3,3,2,3,3,3,0,0,0,0,0,1,0,0,2,0,0,3,0,1,0,0,1,1,0,1,2,0,1,3,0,2,0,0,2,1,0,2,2,0,2,3,0,3,0,0,3,1,0,3,2,0,3,3,1,0,0,1,0,1,1,0,2,1,0,3,1,1,0,1,1,1,1,1,2,1,1,3,1,2,0,1,2,1,1,2,2,1,2,3,1,3,0,1,3,1,1,3,2,1,3,3,2,0,0,2,0,1,2,0,2,2,0,3,2,1,0,2,1,1,2,1,2,2,1,3,2,2,0,2,2,1,2,2,2,2,2,3,2,3,0,2,3,2,2,3,3,3,0,0,3,0,1,3,0,2,3,0,3,3,1,0,3,1,1,3,1,2,3,1,3,3,2,0,3,2,1,3,2,2,3,2,3,3,3,0,3,3,1,3,3,2,3,3,3,0,0,0,0,0,1,0,0,2,0,0,3,0,2,0,0,2,1,0,2,2,0,2,3,1,0,0,1,0,1,1,0,2,1,0,3,1,2,0,1,2,1,1,2,2,1,2,3,2,0,0,2,0,1,2,0,2,2,0,3,2,2,0,2,2,1,2,2,2,2,2,3,3,0,0,3,0,1,3,0,2,3,0,3,3,2,0,3,2,2,3,2,3,0,0,0,0,0,1,0,0,2,0,0,3,0,1,0,0,1,1,0,1,2,0,1,3,0,2,0,0,2,1,0,2,2,0,2,3,0,3,0,0,3,1,0,3,2,0,3,3,1,0,0,1,0,1,1,0,2,1,0,3,1,1,0,1,1,1,1,1,2,1,1,3,1,2,0,1,2,1,1,2,2,1,2,3,1,3,0,1,3,1,1,3,2,1,3,3,2,0,0,2,0,1,2,0,2,2,0,3,2,1,0,2,1,1,2,1,2,2,1,3,2,2,0,2,2,1,2,2,2,2,2,3,2,3,0,2,3,2,2,3,3,3,0,0,3,0,1,3,0,2,3,0,3,3,1,0,3,1,1,3,1,2,3,1,3,3,2,0,3,2,1,3,2,2,3,2,3,3,3,0,3,3,1,3,3,2,3,3,3,0,0,0,0,0,1,0,0,2,0,0,3,0,1,0,0,1,1,0,1,2,0,1,3,0,2,0,0,2,1,0,2,2,0,2,3,0,3,0,0,3,1,0,3,2,0,3,3,13,0,0,13,0,1,13,0,2,13,0,3,13,1,0,13,1,1,13,1,2,13,1,3,13,2,0,13,2,1,13,2,2,13,2,3,13,3,0,13,3,1,13,3,3,0,0,0,0,0,1,0,0,2,0,0,3,0,1,0,0,1,1,0,1,2,0,1,3,0,2,0,0,2,1,0,2,2,0,2,3,0,3,0,0,3,1,0,3,2,0,3,3,13,0,0,13,0,1,13,0,2,13,0,3,13,1,0,13,1,1,13,1,2,13,1,3,13,2,0,13,2,2,13,2,3,13,3,0,13,3,1,13,3,2,13,3,3,0,0,0,0,0,1,0,0,2,0,0,3,0,1,0,0,1,1,0,1,2,0,1,3,0,2,0,0,2,1,0,2,2,0,2,3,0,3,0,0,3,1,0,3,2,0,3,3,13,0,0,13,0,1,13,0,2,13,0,3,13,1,0,13,1,1,13,1,2,13,1,3,13,2,0,13,2,2,13,2,3,13,3,0,13,3,1,13,3,2,13,3,3,0,0,0,0,0,1,0,0,2,0,0,3,0,1,0,0,1,1,0,1,2,0,1,3,0,2,0,0,2,1,0,2,2,0,2,3,0,3,0,0,3,1,0,3,2,0,3,3,1,0,0,1,0,1,1,0,2,1,0,3,1,1,0,1,1,1,1,1,2,1,1,3,1,2,0,1,2,1,1,2,2,1,2,3,1,3,0,1,3,1,1,3,3,2,0,0,2,0,1,2,0,2,2,0,3,2,1,0,2,1,1,2,1,2,2,1,3,2,2,0,2,2,1,2,2,2,2,2,3,2,3,0,2,3,1,2,3,2,2,3,3,3,0,0,3,0,1,3,0,2,3,0,3,3,1,0,3,1,1,3,1,2,3,1,3,3,2,0,3,2,1,3,2,2,3,2,3,3,3,0,3,3,1,3,3,2,3,3,3,0,0,0,0,0,1,0,0,2,0,0,3,0,1,0,0,1,1,0,1,2,0,1,3,0,2,0,0,2,1,0,2,2,0,2,3,0,3,0,0,3,1,0,3,2,0,3,3,1,0,0,1,0,1,1,0,2,1,0,3,1,1,0,1,1,1,1,1,2,1,1,3,1,2,0,1,2,1,1,2,2,1,2,3,1,3,0,1,3,1,1,3,2,1,3,3,2,0,0,2,0,1,2,0,2,2,0,3,2,1,0,2,1,1,2,1,2,2,2,0,2,2,1,2,2,2,2,2,3,2,3,0,2,3,1,2,3,2,2,3,3,3,0,0,3,0,1,3,0,2,3,0,3,3,1,0,3,1,1,3,1,2,3,1,3,3,2,0,3,2,1,3,2,2,3,2,3,3,3,0,3,3,1,3,3,2,3,3,3,0,0,0,0,0,1,0,0,2,0,0,3,0,1,0,0,1,1,0,1,2,0,1,3,0,2,0,0,2,1,0,2,2,0,2,3,0,3,0,0,3,1,0,3,2,0,3,3,1,0,0,1,0,1,1,0,2,1,0,3,1,1,0,1,1,1,1,1,2,1,1,3,1,2,0,1,2,1,1,2,2,1,2,3,1,3,0,1,3,1,1,3,2,1,3,3,2,0,0,2,0,1,2,0,2,2,0,3,2,1,0,2,1,1,2,1,2,2,2,0,2,2,1,2,2,2,2,2,3,2,3,0,2,3,1,2,3,2,2,3,3,3,0,0,3,0,1,3,0,2,3,0,3,3,1,0,3,1,1,3,1,2,3,1,3,3,2,0,3,2,1,3,2,2,3,2,3,3,3,0,3,3,1,3,3,2,3,3,3,0,0,0,0,0,1,0,0,2,0,0,3,0,2,0,0,2,1,0,2,2,0,2,3,1,0,0,1,0,1,1,0,2,1,0,3,1,2,0,1,2,1,1,2,2,1,2,3,2,0,0,2,0,1,2,0,2,2,0,3,2,2,0,2,2,1,2,2,2,2,2,3,3,0,0,3,0,1,3,0,2,3,0,3,3,2,0,3,2,2,3,2,3,0,0,0,0,0,1,0,0,2,0,0,3,0,1,0,0,1,1,0,1,2,0,1,3,0,2,0,0,2,1,0,2,2,0,2,3,0,3,0,0,3,1,0,3,2,0,3,3,1,0,0,1,0,1,1,0,2,1,0,3,1,1,0,1,1,1,1,1,2,1,1,3,1,2,0,1,2,1,1,2,2,1,2,3,1,3,0,1,3,1,1,3,2,1,3,3,2,0,0,2,0,1,2,0,2,2,0,3,2,1,0,2,1,1,2,1,2,2,1,3,2,2,0,2,2,1,2,2,2,2,2,3,2,3,0,2,3,2,2,3,3,3,0,0,3,0,1,3,0,2,3,0,3,3,1,0,3,1,1,3,1,2,3,1,3,3,2,0,3,2,1,3,2,2,3,2,3,3,3,0,3,3,1,3,3,2,3,3,3,0,0,0,0,0,1,0,0,2,0,0,3,0,1,0,0,1,1,0,1,2,0,1,3,0,2,0,0,2,1,0,2,2,0,2,3,0,3,0,0,3,1,0,3,2,0,3,3,1,0,0,1,0,1,1,0,2,1,0,3,1,1,0,1,1,1,1,1,2,1,1,3,1,2,0,1,2,1,1,2,2,1,2,3,1,3,0,1,3,1,1,3,2,1,3,3,2,0,0,2,0,1,2,0,2,2,0,3,2,1,0,2,1,1,2,1,2,2,1,3,2,2,0,2,2,1,2,2,2,2,2,3,2,3,0,2,3,2,2,3,3,3,0,0,3,0,1,3,0,2,3,0,3,3,1,0,3,1,1,3,1,2,3,1,3,3,2,0,3,2,1,3,2,2,3,2,3,3,3,0,3,3,1,3,3,2,3,3,3,0,0,0,0,0,1,0,0,2,0,0,3,0,1,0,0,1,1,0,1,2,0,1,3,0,2,0,0,2,1,0,2,2,0,2,3,0,3,0,0,3,1,0,3,2,0,3,3,1,0,0,1,0,1,1,0,2,1,0,3,1,1,0,1,1,1,1,1,2,1,1,3,1,2,0,1,2,1,1,2,2,1,2,3,1,3,0,1,3,1,1,3,2,1,3,3,2,0,0,2,0,1,2,0,2,2,0,3,2,1,0,2,1,1,2,1,2,2,1,3,2,2,0,2,2,1,2,2,2,2,2,3,2,3,0,2,3,1,2,3,2,2,3,3,3,0,0,3,0,1,3,0,2,3,0,3,3,1,0,3,1,1,3,1,3,3,2,0,3,2,1,3,2,2,3,2,3,3,3,0,3,3,1,3,3,2,3,3,3,0,0,0,0,0,1,0,0,2,0,0,3,0,1,0,0,1,1,0,1,2,0,1,3,0,2,0,0,2,1,0,2,2,0,2,3,0,3,0,0,3,1,0,3,2,0,3,3,1,0,0,1,0,1,1,0,2,1,0,3,1,1,0,1,1,1,1,1,2,1,1,3,1,2,0,1,2,1,1,2,2,1,2,3,1,3,0,1,3,1,1,3,2,1,3,3,2,0,0,2,0,1,2,0,2,2,0,3,2,1,0,2,1,1,2,1,2,2,1,3,2,2,0,2,2,1,2,2,2,2,2,3,2,3,0,2,3,2,2,3,3,3,0,0,3,0,1,3,0,2,3,0,3,3,1,0,3,1,1,3,1,2,3,1,3,3,2,0,3,2,1,3,2,2,3,2,3,3,3,0,3,3,1,3,3,2,3,3,3,0,0,0,0,0,1,0,0,2,0,0,3,0,1,0,0,1,1,0,1,2,0,1,3,0,2,0,0,2,1,0,2,2,0,2,3,0,3,0,0,3,1,0,3,2,0,3,3,1,0,0,1,0,1,1,0,2,1,0,3,1,1,0,1,1,1,1,1,2,1,1,3,1,2,0,1,2,1,1,2,2,1,2,3,1,3,0,1,3,1,1,3,2,1,3,3,2,0,0,2,0,1,2,0,2,2,0,3,2,1,0,2,1,1,2,1,2,2,1,3,2,2,0,2,2,1,2,2,2,2,2,3,2,3,0,2,3,2,2,3,3,3,0,0,3,0,1,3,0,2,3,0,3,3,1,0,3,1,1,3,1,2,3,1,3,3,2,0,3,2,1,3,2,2,3,2,3,3,3,0,3,3,1,3,3,2,3,3,3,0,0,0,0,0,1,0,0,2,0,0,3,0,1,0,0,1,1,0,1,2,0,1,3,0,2,0,0,2,1,0,2,2,0,2,3,0,3,0,0,3,1,0,3,2,0,3,3,1,0,0,1,0,1,1,0,2,1,0,3,1,1,0,1,1,1,1,1,2,1,1,3,1,2,0,1,2,1,1,2,2,1,2,3,1,3,0,1,3,1,1,3,2,1,3,3,2,0,0,2,0,1,2,0,2,2,0,3,2,1,0,2,1,1,2,1,2,2,1,3,2,2,0,2,2,1,2,2,2,2,2,3,2,3,0,2,3,2,2,3,3,3,0,0,3,0,1,3,0,2,3,0,3,3,1,0,3,1,1,3,1,2,3,1,3,3,2,0,3,2,1,3,2,2,3,2,3,3,3,0,3,3,1,3,3,2,3,3,3,0,0,0,0,0,1,0,0,2,0,0,3,0,1,0,0,1,1,0,1,2,0,1,3,0,2,0,0,2,1,0,2,2,0,2,3,0,3,0,0,3,1,0,3,2,0,3,3,1,0,0,1,0,1,1,0,2,1,0,3,1,1,0,1,1,1,1,1,2,1,1,3,1,2,0,1,2,1,1,2,2,1,2,3,1,3,0,1,3,1,1,3,2,1,3,3,2,0,0,2,0,1,2,0,2,2,0,3,2,1,0,2,1,1,2,1,2,2,1,3,2,2,0,2,2,1,2,2,2,2,2,3,2,3,0,2,3,2,2,3,3,3,0,0,3,0,1,3,0,2,3,0,3,3,1,0,3,1,1,3,1,2,3,1,3,3,2,0,3,2,1,3,2,2,3,2,3,3,3,0,3,3,1,3,3,2,3,3,3,0,0,0,0,0,1,0,0,2,0,0,3,0,1,0,0,1,1,0,1,2,0,1,3,0,2,0,0,2,1,0,2,2,0,2,3,0,3,0,0,3,1,0,3,2,0,3,3,1,0,0,1,0,1,1,0,2,1,0,3,1,1,0,1,1,1,1,1,2,1,1,3,1,2,0,1,2,1,1,2,2,1,2,3,1,3,0,1,3,1,1,3,2,1,3,3,2,0,0,2,0,1,2,0,2,2,0,3,2,1,0,2,1,1,2,1,2,2,1,3,2,2,0,2,2,1,2,2,2,2,2,3,2,3,0,2,3,1,2,3,2,2,3,3,3,0,0,3,0,1,3,0,2,3,0,3,3,1,0,3,1,1,3,1,2,3,1,3,3,2,0,3,2,2,3,2,3,3,3,0,3,3,1,3,3,2,3,3,3,0,0,0,0,0,1,0,0,2,0,0,3,0,1,0,0,1,1,0,1,2,0,1,3,0,2,0,0,2,1,0,2,2,0,2,3,0,3,0,0,3,1,0,3,2,0,3,3,13,0,0,13,0,1,13,0,2,13,0,3,13,1,0,13,1,1,13,1,2,13,1,3,13,2,0,13,2,2,13,2,3,13,3,0,13,3,1,13,3,2,13,3,3,0,0,0,0,0,1,0,0,2,0,0,3,0,2,0,0,2,1,0,2,2,0,2,3,1,0,0,1,0,1,1,0,2,1,0,3,1,2,0,1,2,1,1,2,2,1,2,3,2,0,0,2,0,1,2,0,2,2,0,3,2,2,0,2,2,1,2,2,2,2,2,3,3,0,0,3,0,1,3,0,2,3,0,3,3,2,0,3,2,2,3,2,3,0,0,0,0,0,1,0,0,2,0,0,3,0,1,0,0,1,1,0,1,2,0,1,3,0,2,0,0,2,1,0,2,2,0,2,3,0,3,0,0,3,1,0,3,2,0,3,3,1,0,0,1,0,1,1,0,2,1,0,3,1,1,0,1,1,1,1,1,2,1,1,3,1,2,0,1,2,1,1,2,2,1,2,3,1,3,0,1,3,1,1,3,3,2,0,0,2,0,1,2,0,2,2,0,3,2,1,0,2,1,1,2,1,2,2,1,3,2,2,0,2,2,1,2,2,2,2,2,3,2,3,0,2,3,1,2,3,2,2,3,3,3,0,0,3,0,1,3,0,2,3,0,3,3,1,0,3,1,1,3,1,2,3,1,3,3,2,0,3,2,1,3,2,2,3,2,3,3,3,0,3,3,1,3,3,2,3,3,3,0,0,0,0,0,1,0,0,2,0,0,3,0,1,0,0,1,1,0,1,2,0,1,3,0,2,0,0,2,1,0,2,2,0,2,3,0,3,0,0,3,1,0,3,2,0,3,3,1,0,0,1,0,1,1,0,2,1,0,3,1,1,0,1,1,1,1,1,2,1,1,3,1,2,0,1,2,1,1,2,2,1,3,0,1,3,1,1,3,2,1,3,3,2,0,0,2,0,1,2,0,2,2,0,3,2,1,0,2,1,1,2,1,2,2,1,3,2,2,0,2,2,1,2,2,2,2,2,3,2,3,0,2,3,1,2,3,2,2,3,3,3,0,0,3,0,1,3,0,2,3,0,3,3,1,0,3,1,1,3,1,2,3,1,3,3,2,0,3,2,1,3,2,2,3,2,3,3,3,0,3,3,1,3,3,2,3,3,3,0,0,0,0,0,1,0,0,2,0,0,3,0,1,0,0,1,1,0,1,2,0,1,3,0,2,0,0,2,1,0,2,2,0,2,3,0,3,0,0,3,1,0,3,2,0,3,3,1,0,0,1,0,1,1,0,2,1,0,3,1,1,0,1,1,1,1,1,2,1,1,3,1,2,0,1,2,1,1,2,2,1,2,3,1,3,0,1,3,1,1,3,2,1,3,3,2,0,0,2,0,1,2,0,2,2,0,3,2,1,0,2,1,1,2,1,2,2,1,3,2,2,0,2,2,1,2,2,2,2,2,3,2,3,0,2,3,1,2,3,2,2,3,3,3,0,0,3,0,1,3,0,2,3,0,3,3,1,0,3,1,1,3,1,2,3,1,3,3,2,0,3,2,2,3,2,3,3,3,0,3,3,1,3,3,2,3,3,3,0,0,0,0,0,1,0,0,2,0,0,3,0,1,0,0,1,1,0,1,2,0,1,3,0,2,0,0,2,1,0,2,2,0,2,3,0,3,0,0,3,1,0,3,2,0,3,3,1,0,0,1,0,1,1,0,2,1,0,3,1,1,0,1,1,1,1,1,2,1,1,3,1,2,0,1,2,1,1,2,2,1,2,3,1,3,0,1,3,1,1,3,2,1,3,3,2,0,0,2,0,1,2,0,2,2,0,3,2,1,0,2,1,1,2,1,2,2,1,3,2,2,0,2,2,1,2,2,2,2,2,3,2,3,0,2,3,1,2,3,2,2,3,3,3,0,0,3,0,1,3,0,2,3,0,3,3,1,0,3,1,1,3,1,2,3,1,3,3,2,0,3,2,2,3,2,3,3,3,0,3,3,1,3,3,2,3,3,3,0,0,0,0,0,1,0,0,2,0,0,3,0,1,0,0,1,1,0,1,2,0,1,3,0,2,0,0,2,1,0,2,2,0,2,3,0,3,0,0,3,1,0,3,2,0,3,3,1,0,0,1,0,1,1,0,2,1,0,3,1,1,0,1,1,1,1,1,2,1,1,3,1,2,0,1,2,1,1,2,2,1,2,3,1,3,0,1,3,1,1,3,2,1,3,3,2,0,0,2,0,1,2,0,2,2,0,3,2,1,0,2,1,1,2,1,2,2,1,3,2,2,0,2,2,1,2,2,2,2,2,3,2,3,0,2,3,1,2,3,2,2,3,3,3,0,0,3,0,1,3,0,2,3,0,3,3,1,0,3,1,1,3,1,3,3,2,0,3,2,1,3,2,2,3,2,3,3,3,0,3,3,1,3,3,2,3,3,3,0,0,0,0,0,1,0,0,2,0,0,3,0,1,0,0,1,1,0,1,2,0,1,3,0,2,0,0,2,1,0,2,2,0,2,3,0,3,0,0,3,1,0,3,2,0,3,3,1,0,0,1,0,1,1,0,2,1,0,3,1,1,0,1,1,1,1,1,2,1,1,3,1,2,0,1,2,1,1,2,2,1,2,3,1,3,0,1,3,1,1,3,3,2,0,0,2,0,1,2,0,2,2,0,3,2,1,0,2,1,1,2,1,2,2,1,3,2,2,0,2,2,1,2,2,2,2,2,3,2,3,0,2,3,1,2,3,2,2,3,3,3,0,0,3,0,1,3,0,2,3,0,3,3,1,0,3,1,1,3,1,2,3,1,3,3,2,0,3,2,1,3,2,2,3,2,3,3,3,0,3,3,1,3,3,2,3,3,3,0,0,0,0,0,1,0,0,2,0,0,3,0,1,0,0,1,1,0,1,2,0,1,3,0,2,0,0,2,1,0,2,2,0,2,3,0,3,0,0,3,1,0,3,2,0,3,3,1,0,0,1,0,1,1,0,2,1,0,3,1,1,0,1,1,1,1,1,2,1,1,3,1,2,0,1,2,1,1,2,2,1,2,3,1,3,0,1,3,1,1,3,2,1,3,3,2,0,0,2,0,1,2,0,2,2,0,3,2,1,0,2,1,1,2,1,2,2,1,3,2,2,0,2,2,1,2,2,2,2,2,3,2,3,0,2,3,2,2,3,3,3,0,0,3,0,1,3,0,2,3,0,3,3,1,0,3,1,1,3,1,2,3,1,3,3,2,0,3,2,1,3,2,2,3,2,3,3,3,0,3,3,1,3,3,2,3,3,3,0,0,0,0,0,1,0,0,2,0,0,3,0,1,0,0,1,1,0,1,2,0,1,3,0,2,0,0,2,1,0,2,2,0,2,3,0,3,0,0,3,1,0,3,2,0,3,3,1,0,0,1,0,1,1,0,2,1,0,3,1,1,0,1,1,1,1,1,2,1,1,3,1,2,0,1,2,1,1,2,2,1,3,0,1,3,1,1,3,2,1,3,3,2,0,0,2,0,1,2,0,2,2,0,3,2,1,0,2,1,1,2,1,2,2,1,3,2,2,0,2,2,1,2,2,2,2,2,3,2,3,0,2,3,1,2,3,2,2,3,3,3,0,0,3,0,1,3,0,2,3,0,3,3,1,0,3,1,1,3,1,2,3,1,3,3,2,0,3,2,1,3,2,2,3,2,3,3,3,0,3,3,1,3,3,2,3,3,3,0,0,0,0,0,1,0,0,2,0,0,3,0,1,0,0,1,1,0,1,2,0,1,3,0,2,0,0,2,1,0,2,2,0,2,3,0,3,0,0,3,1,0,3,2,0,3,3,1,0,0,1,0,1,1,0,2,1,0,3,1,1,0,1,1,1,1,1,2,1,1,3,1,2,0,1,2,1,1,2,2,1,2,3,1,3,0,1,3,1,1,3,2,1,3,3,2,0,0,2,0,1,2,0,2,2,0,3,2,1,0,2,1,1,2,1,2,2,1,3,2,2,0,2,2,1,2,2,2,2,2,3,2,3,0,2,3,2,2,3,3,3,0,0,3,0,1,3,0,2,3,0,3,3,1,0,3,1,1,3,1,2,3,1,3,3,2,0,3,2,1,3,2,2,3,2,3,3,3,0,3,3,1,3,3,2,3,3,3,0,0,0,0,0,1,0,0,2,0,0,3,0,1,0,0,1,1,0,1,2,0,1,3,0,2,0,0,2,1,0,2,2,0,2,3,0,3,0,0,3,1,0,3,2,0,3,3,1,0,0,1,0,1,1,0,2,1,0,3,1,1,0,1,1,1,1,1,2,1,1,3,1,2,0,1,2,1,1,2,2,1,2,3,1,3,0,1,3,1,1,3,2,1,3,3,2,0,0,2,0,1,2,0,2,2,0,3,2,1,0,2,1,1,2,1,2,2,1,3,2,2,0,2,2,1,2,2,2,2,2,3,2,3,0,2,3,2,2,3,3,3,0,0,3,0,1,3,0,2,3,0,3,3,1,0,3,1,1,3,1,2,3,1,3,3,2,0,3,2,1,3,2,2,3,2,3,3,3,0,3,3,1,3,3,2,3,3,3,0,0,0,0,0,1,0,0,2,0,0,3,0,1,0,0,1,1,0,1,2,0,1,3,0,2,0,0,2,1,0,2,2,0,2,3,0,3,0,0,3,1,0,3,2,0,3,3,1,0,0,1,0,1,1,0,2,1,0,3,1,1,0,1,1,1,1,1,2,1,1,3,1,2,0,1,2,1,1,2,2,1,2,3,1,3,0,1,3,1,1,3,2,1,3,3,2,0,0,2,0,1,2,0,2,2,0,3,2,1,0,2,1,1,2,1,2,2,1,3,2,2,0,2,2,1,2,2,2,2,2,3,2,3,0,2,3,1,2,3,2,2,3,3,3,0,0,3,0,1,3,0,2,3,0,3,3,1,0,3,1,1,3,1,2,3,1,3,3,2,0,3,2,2,3,2,3,3,3,0,3,3,1,3,3,2,3,3,3,0,0,0,0,0,1,0,0,2,0,0,3,0,1,0,0,1,1,0,1,2,0,1,3,0,2,0,0,2,1,0,2,2,0,2,3,0,3,0,0,3,1,0,3,2,0,3,3,1,0,0,1,0,1,1,0,2,1,0,3,1,1,0,1,1,1,1,1,2,1,1,3,1,2,0,1,2,1,1,2,2,1,2,3,1,3,0,1,3,1,1,3,2,1,3,3,2,0,0,2,0,1,2,0,2,2,0,3,2,1,0,2,1,1,2,1,2,2,1,3,2,2,0,2,2,1,2,2,2,2,2,3,2,3,0,2,3,2,2,3,3,3,0,0,3,0,1,3,0,2,3,0,3,3,1,0,3,1,1,3,1,2,3,1,3,3,2,0,3,2,1,3,2,2,3,2,3,3,3,0,3,3,1,3,3,2,3,3,3,0,0,0,0,0,1,0,0,2,0,0,3,0,1,0,0,1,1,0,1,2,0,1,3,0,2,0,0,2,1,0,2,2,0,2,3,0,3,0,0,3,1,0,3,2,0,3,3,1,0,0,1,0,1,1,0,2,1,0,3,1,1,0,1,1,1,1,1,2,1,1,3,1,2,0,1,2,1,1,2,2,1,2,3,1,3,0,1,3,1,1,3,2,1,3,3,2,0,0,2,0,1,2,0,2,2,0,3,2,1,0,2,1,1,2,1,2,2,1,3,2,2,0,2,2,1,2,2,2,2,2,3,2,3,0,2,3,1,2,3,2,2,3,3,3,0,0,3,0,1,3,0,2,3,0,3,3,1,0,3,1,1,3,1,2,3,1,3,3,2,0,3,2,2,3,2,3,3,3,0,3,3,1,3,3,2,3,3,3,0,0,0,0,0,1,0,0,2,0,0,3,0,1,0,0,1,1,0,1,2,0,1,3,0,2,0,0,2,1,0,2,2,0,2,3,0,3,0,0,3,1,0,3,2,0,3,3,1,0,0,1,0,1,1,0,2,1,0,3,1,1,0,1,1,1,1,1,2,1,1,3,1,2,0,1,2,1,1,2,2,1,2,3,1,3,0,1,3,1,1,3,2,1,3,3,2,0,0,2,0,1,2,0,2,2,0,3,2,1,0,2,1,1,2,1,2,2,1,3,2,2,0,2,2,1,2,2,2,2,2,3,2,3,0,2,3,2,2,3,3,3,0,0,3,0,1,3,0,2,3,0,3,3,1,0,3,1,1,3,1,2,3,1,3,3,2,0,3,2,1,3,2,2,3,2,3,3,3,0,3,3,1,3,3,2,3,3,3,0,0,0,0,0,1,0,0,2,0,0,3,0,1,0,0,1,1,0,1,2,0,1,3,0,2,0,0,2,1,0,2,2,0,2,3,0,3,0,0,3,1,0,3,2,0,3,3,1,0,0,1,0,1,1,0,2,1,0,3,1,1,0,1,1,1,1,1,2,1,1,3,1,2,0,1,2,1,1,2,2,1,2,3,1,3,0,1,3,1,1,3,2,1,3,3,2,0,0,2,0,1,2,0,2,2,0,3,2,1,0,2,1,1,2,1,2,2,1,3,2,2,0,2,2,1,2,2,2,2,2,3,2,3,0,2,3,2,2,3,3,3,0,0,3,0,1,3,0,2,3,0,3,3,1,0,3,1,1,3,1,2,3,1,3,3,2,0,3,2,1,3,2,2,3,2,3,3,3,0,3,3,1,3,3,2,3,3,3,0,0,0,0,0,1,0,0,2,0,0,3,0,1,0,0,1,1,0,1,2,0,1,3,0,2,0,0,2,1,0,2,2,0,2,3,0,3,0,0,3,1,0,3,2,0,3,3,1,0,0,1,0,1,1,0,2,1,0,3,1,1,0,1,1,1,1,1,2,1,1,3,1,2,0,1,2,1,1,2,2,1,2,3,1,3,0,1,3,1,1,3,2,1,3,3,2,0,0,2,0,1,2,0,2,2,0,3,2,1,0,2,1,1,2,1,2,2,1,3,2,2,0,2,2,1,2,2,2,2,2,3,2,3,0,2,3,2,2,3,3,3,0,0,3,0,1,3,0,2,3,0,3,3,1,0,3,1,1,3,1,2,3,1,3,3,2,0,3,2,1,3,2,2,3,2,3,3,3,0,3,3,1,3,3,2,3,3,3,0,0,0,0,0,1,0,0,2,0,0,3,0,2,0,0,2,1,0,2,2,0,2,3,1,0,0,1,0,1,1,0,2,1,0,3,1,2,0,1,2,1,1,2,2,1,2,3,2,0,0,2,0,1,2,0,2,2,0,3,2,2,0,2,2,1,2,2,2,2,2,3,3,0,0,3,0,1,3,0,2,3,0,3,3,2,0,3,2,2,3,2,3,0,0,0,0,0,1,0,0,2,0,0,3,0,1,0,0,1,1,0,1,2,0,1,3,0,2,0,0,2,1,0,2,2,0,2,3,0,3,0,0,3,1,0,3,2,0,3,3,13,0,0,13,0,1,13,0,2,13,0,3,13,1,0,13,1,1,13,1,2,13,1,3,13,2,0,13,2,1,13,2,2,13,2,3,13,3,0,13,3,1,13,3,3,0,0,0,0,0,1,0,0,2,0,0,3,0,1,0,0,1,1,0,1,2,0,1,3,0,2,0,0,2,1,0,2,2,0,2,3,0,3,0,0,3,1,0,3,2,0,3,3,1,0,0,1,0,1,1,0,2,1,0,3,1,1,0,1,1,1,1,1,2,1,1,3,1,2,0,1,2,1,1,2,2,1,2,3,1,3,0,1,3,1,1,3,2,1,3,3,2,0,0,2,0,1,2,0,2,2,0,3,2,1,0,2,1,1,2,1,2,2,1,3,2,2,0,2,2,1,2,2,2,2,2,3,2,3,0,2,3,2,2,3,3,3,0,0,3,0,1,3,0,2,3,0,3,3,1,0,3,1,1,3,1,2,3,1,3,3,2,0,3,2,1,3,2,2,3,2,3,3,3,0,3,3,1,3,3,2,3,3,3,0,0,0,0,0,1,0,0,2,0,0,3,0,1,0,0,1,1,0,1,2,0,1,3,0,2,0,0,2,1,0,2,2,0,2,3,0,3,0,0,3,1,0,3,2,0,3,3,1,0,0,1,0,1,1,0,2,1,0,3,1,1,0,1,1,1,1,1,2,1,1,3,1,2,0,1,2,1,1,2,2,1,2,3,1,3,0,1,3,1,1,3,2,1,3,3,2,0,0,2,0,1,2,0,2,2,0,3,2,1,0,2,1,1,2,1,2,2,1,3,2,2,0,2,2,1,2,2,2,2,2,3,2,3,0,2,3,2,2,3,3,3,0,0,3,0,1,3,0,2,3,0,3,3,1,0,3,1,1,3,1,2,3,1,3,3,2,0,3,2,1,3,2,2,3,2,3,3,3,0,3,3,1,3,3,2,3,3,3,0,0,0,0,0,1,0,0,2,0,0,3,0,1,0,0,1,1,0,1,2,0,1,3,0,2,0,0,2,1,0,2,2,0,2,3,0,3,0,0,3,1,0,3,2,0,3,3,1,0,0,1,0,1,1,0,2,1,0,3,1,1,0,1,1,1,1,1,2,1,1,3,1,2,0,1,2,1,1,2,2,1,2,3,1,3,0,1,3,1,1,3,2,1,3,3,2,0,0,2,0,1,2,0,2,2,0,3,2,1,0,2,1,1,2,1,2,2,1,3,2,2,0,2,2,1,2,2,2,2,2,3,2,3,0,2,3,2,2,3,3,3,0,0,3,0,1,3,0,2,3,0,3,3,1,0,3,1,1,3,1,2,3,1,3,3,2,0,3,2,1,3,2,2,3,2,3,3,3,0,3,3,1,3,3,2,3,3,3,0,0,0,0,0,1,0,0,2,0,0,3,0,1,0,0,1,1,0,1,2,0,1,3,0,2,0,0,2,1,0,2,2,0,2,3,0,3,0,0,3,1,0,3,2,0,3,3,1,0,0,1,0,1,1,0,2,1,0,3,1,1,0,1,1,1,1,1,2,1,1,3,1,2,0,1,2,1,1,2,2,1,2,3,1,3,0,1,3,1,1,3,2,1,3,3,2,0,0,2,0,1,2,0,2,2,0,3,2,1,0,2,1,1,2,1,2,2,1,3,2,2,0,2,2,1,2,2,2,2,2,3,2,3,0,2,3,1,2,3,2,2,3,3,3,0,0,3,0,1,3,0,2,3,0,3,3,1,0,3,1,1,3,1,3,3,2,0,3,2,1,3,2,2,3,2,3,3,3,0,3,3,1,3,3,2,3,3,3,0,0,0,0,0,1,0,0,2,0,0,3,0,1,0,0,1,1,0,1,2,0,1,3,0,2,0,0,2,1,0,2,2,0,2,3,0,3,0,0,3,1,0,3,2,0,3,3,1,0,0,1,0,1,1,0,2,1,0,3,1,1,0,1,1,1,1,1,2,1,1,3,1,2,0,1,2,1,1,2,2,1,2,3,1,3,0,1,3,1,1,3,2,1,3,3,2,0,0,2,0,1,2,0,2,2,0,3,2,1,0,2,1,1,2,1,2,2,1,3,2,2,0,2,2,1,2,2,2,2,2,3,2,3,0,2,3,2,2,3,3,3,0,0,3,0,1,3,0,2,3,0,3,3,1,0,3,1,1,3,1,2,3,1,3,3,2,0,3,2,1,3,2,2,3,2,3,3,3,0,3,3,1,3,3,2,3,3,3,0,0,0,0,0,1,0,0,2,0,0,3,0,1,0,0,1,1,0,1,2,0,1,3,0,2,0,0,2,1,0,2,2,0,2,3,0,3,0,0,3,1,0,3,2,0,3,3,1,0,0,1,0,1,1,0,2,1,0,3,1,1,0,1,1,1,1,1,2,1,1,3,1,2,0,1,2,1,1,2,2,1,2,3,1,3,0,1,3,1,1,3,2,1,3,3,2,0,0,2,0,1,2,0,2,2,0,3,2,1,0,2,1,1,2,1,2,2,1,3,2,2,0,2,2,1,2,2,2,2,2,3,2,3,0,2,3,1,2,3,2,2,3,3,3,0,0,3,0,1,3,0,2,3,0,3,3,1,0,3,1,1,3,1,3,3,2,0,3,2,1,3,2,2,3,2,3,3,3,0,3,3,1,3,3,2,3,3,3,0,0,0,0,0,1,0,0,2,0,0,3,0,2,0,0,2,1,0,2,2,0,2,3,1,0,0,1,0,1,1,0,2,1,0,3,1,2,0,1,2,1,1,2,2,1,2,3,2,0,0,2,0,1,2,0,2,2,0,3,2,2,0,2,2,1,2,2,2,2,2,3,3,0,0,3,0,1,3,0,2,3,0,3,3,2,0,3,2,2,3,2,3,0,0,0,0,0,1,0,0,2,0,0,3,0,1,0,0,1,1,0,1,2,0,1,3,0,2,0,0,2,1,0,2,2,0,2,3,0,3,0,0,3,1,0,3,2,0,3,3,1,0,0,1,0,1,1,0,2,1,0,3,1,1,0,1,1,1,1,1,2,1,1,3,1,2,0,1,2,1,1,2,2,1,2,3,1,3,0,1,3,1,1,3,2,1,3,3,2,0,0,2,0,1,2,0,2,2,0,3,2,1,0,2,1,1,2,1,2,2,1,3,2,2,0,2,2,1,2,2,2,2,2,3,2,3,0,2,3,2,2,3,3,3,0,0,3,0,1,3,0,2,3,0,3,3,1,0,3,1,1,3,1,2,3,1,3,3,2,0,3,2,1,3,2,2,3,2,3,3,3,0,3,3,1,3,3,2,3,3,3,0,0,0,0,0,1,0,0,2,0,0,3,0,1,0,0,1,1,0,1,2,0,1,3,0,2,0,0,2,1,0,2,2,0,2,3,0,3,0,0,3,1,0,3,2,0,3,3,1,0,0,1,0,1,1,0,2,1,0,3,1,1,0,1,1,1,1,1,2,1,1,3,1,2,0,1,2,1,1,2,2,1,2,3,1,3,0,1,3,1,1,3,2,1,3,3,2,0,0,2,0,1,2,0,2,2,0,3,2,1,0,2,1,1,2,1,2,2,1,3,2,2,0,2,2,1,2,2,2,2,2,3,2,3,0,2,3,2,2,3,3,3,0,0,3,0,1,3,0,2,3,0,3,3,1,0,3,1,1,3,1,2,3,1,3,3,2,0,3,2,1,3,2,2,3,2,3,3,3,0,3,3,1,3,3,2,3,3,3,0,0,0,0,0,1,0,0,2,0,0,3,0,1,0,0,1,1,0,1,2,0,1,3,0,2,0,0,2,1,0,2,2,0,2,3,0,3,0,0,3,1,0,3,2,0,3,3,1,0,0,1,0,1,1,0,2,1,0,3,1,1,0,1,1,1,1,1,2,1,1,3,1,2,0,1,2,1,1,2,2,1,3,0,1,3,1,1,3,2,1,3,3,2,0,0,2,0,1,2,0,2,2,0,3,2,1,0,2,1,1,2,1,2,2,1,3,2,2,0,2,2,1,2,2,2,2,2,3,2,3,0,2,3,1,2,3,2,2,3,3,3,0,0,3,0,1,3,0,2,3,0,3,3,1,0,3,1,1,3,1,2,3,1,3,3,2,0,3,2,1,3,2,2,3,2,3,3,3,0,3,3,1,3,3,2,3,3,3,0,0,0,0,0,1,0,0,2,0,0,3,0,2,0,0,2,1,0,2,2,0,2,3,1,0,0,1,0,1,1,0,2,1,0,3,1,2,0,1,2,1,1,2,2,1,2,3,2,0,0,2,0,1,2,0,2,2,0,3,2,2,0,2,2,1,2,2,2,2,2,3,3,0,0,3,0,1,3,0,2,3,0,3,3,2,0,3,2,2,3,2,3,0,0,0,0,0,1,0,0,2,0,0,3,0,1,0,0,1,1,0,1,2,0,1,3,0,2,0,0,2,1,0,2,2,0,2,3,0,3,0,0,3,1,0,3,2,0,3,3,13,0,0,13,0,1,13,0,2,13,0,3,13,1,0,13,1,1,13,1,2,13,1,3,13,2,0,13,2,2,13,2,3,13,3,0,13,3,1,13,3,2,13,3,3,0,0,0,0,0,1,0,0,2,0,0,3,0,1,0,0,1,1,0,1,2,0,1,3,0,2,0,0,2,1,0,2,2,0,2,3,0,3,0,0,3,1,0,3,2,0,3,3,1,0,0,1,0,1,1,0,2,1,0,3,1,1,0,1,1,1,1,1,2,1,1,3,1,2,0,1,2,1,1,2,2,1,2,3,1,3,0,1,3,1,1,3,2,1,3,3,2,0,0,2,0,1,2,0,2,2,0,3,2,1,0,2,1,1,2,1,2,2,1,3,2,2,0,2,2,1,2,2,2,2,2,3,2,3,0,2,3,2,2,3,3,3,0,0,3,0,1,3,0,2,3,0,3,3,1,0,3,1,1,3,1,2,3,1,3,3,2,0,3,2,1,3,2,2,3,2,3,3,3,0,3,3,1,3,3,2,3,3,3,0,0,0,0,0,1,0,0,2,0,0,3,0,1,0,0,1,1,0,1,2,0,1,3,0,2,0,0,2,1,0,2,2,0,2,3,0,3,0,0,3,1,0,3,2,0,3,3,1,0,0,1,0,1,1,0,2,1,0,3,1,1,0,1,1,1,1,1,2,1,1,3,1,2,0,1,2,1,1,2,2,1,2,3,1,3,0,1,3,1,1,3,2,1,3,3,2,0,0,2,0,1,2,0,2,2,0,3,2,1,0,2,1,1,2,1,2,2,1,3,2,2,0,2,2,1,2,2,2,2,2,3,2,3,0,2,3,1,2,3,2,2,3,3,3,0,0,3,0,1,3,0,2,3,0,3,3,1,0,3,1,1,3,1,2,3,1,3,3,2,0,3,2,2,3,2,3,3,3,0,3,3,1,3,3,2,3,3,3,0,0,0,0,0,1,0,0,2,0,0,3,0,1,0,0,1,1,0,1,2,0,1,3,0,2,0,0,2,1,0,2,2,0,2,3,0,3,0,0,3,1,0,3,2,0,3,3,1,0,0,1,0,1,1,0,2,1,0,3,1,1,0,1,1,1,1,1,2,1,1,3,1,2,0,1,2,1,1,2,2,1,2,3,1,3,0,1,3,1,1,3,2,1,3,3,2,0,0,2,0,1,2,0,2,2,0,3,2,1,0,2,1,1,2,1,2,2,2,0,2,2,1,2,2,2,2,2,3,2,3,0,2,3,1,2,3,2,2,3,3,3,0,0,3,0,1,3,0,2,3,0,3,3,1,0,3,1,1,3,1,2,3,1,3,3,2,0,3,2,1,3,2,2,3,2,3,3,3,0,3,3,1,3,3,2,3,3,3,0,0,0,0,0,2,0,1,0,0,1,2,0,2,0,0,2,2,0,3,0,0,3,2,1,0,0,1,0,2,1,1,0,1,1,2,1,2,0,1,2,2,1,3,0,2,0,0,2,0,2,2,1,0,2,1,2,2,2,0,2,2,2,2,3,0,2,3,2,3,0,0,3,0,2,3,1,0,3,1,2,3,2,0,3,2,2,3,3,0,3,3,2,0,0,0,0,0,1,0,0,2,0,0,3,0,1,0,0,1,1,0,1,2,0,1,3,0,2,0,0,2,1,0,2,2,0,2,3,0,3,0,0,3,1,0,3,2,0,3,3,1,0,0,1,0,1,1,0,2,1,0,3,1,1,0,1,1,1,1,1,2,1,1,3,1,2,0,1,2,1,1,2,2,1,2,3,1,3,0,1,3,1,1,3,2,1,3,3,2,0,0,2,0,1,2,0,2,2,0,3,2,1,0,2,1,1,2,1,2,2,1,3,2,2,0,2,2,1,2,2,2,2,2,3,2,3,0,2,3,2,2,3,3,3,0,0,3,0,1,3,0,2,3,0,3,3,1,0,3,1,1,3,1,2,3,1,3,3,2,0,3,2,1,3,2,2,3,2,3,3,3,0,3,3,1,3,3,2,3,3,3,0,0,0,0,0,1,0,0,2,0,0,3,0,1,0,0,1,1,0,1,2,0,1,3,0,2,0,0,2,1,0,2,2,0,2,3,0,3,0,0,3,1,0,3,2,0,3,3,13,0,0,13,0,1,13,0,2,13,0,3,13,1,0,13,1,1,13,1,2,13,1,3,13,2,0,13,2,2,13,2,3,13,3,0,13,3,1,13,3,2,13,3,3,0,0,0,0,0,13,0,1,0,0,1,13,0,2,0,0,2,13,0,3,0,0,3,13,1,0,0,1,0,13,1,1,0,1,1,13,1,2,0,1,2,13,1,3,0,1,3,13,2,0,0,2,0,13,2,1,0,2,2,0,2,2,13,2,3,0,2,3,13,3,0,0,3,0,13,3,1,0,3,1,13,3,2,0,3,2,13,3,3,0,3,3,13,0,0,0,0,0,1,0,0,2,0,0,3,0,1,0,0,1,1,0,1,2,0,1,3,0,2,0,0,2,1,0,2,2,0,2,3,0,3,0,0,3,1,0,3,2,0,3,3,1,0,0,1,0,1,1,0,2,1,0,3,1,1,0,1,1,1,1,1,2,1,1,3,1,2,0,1,2,1,1,2,2,1,2,3,1,3,0,1,3,1,1,3,2,1,3,3,2,0,0,2,0,1,2,0,2,2,0,3,2,1,0,2,1,1,2,1,2,2,2,0,2,2,1,2,2,2,2,2,3,2,3,0,2,3,1,2,3,2,2,3,3,3,0,0,3,0,1,3,0,2,3,0,3,3,1,0,3,1,1,3,1,2,3,1,3,3,2,0,3,2,1,3,2,2,3,2,3,3,3,0,3,3,1,3,3,2,3,3,3,0,0,0,0,0,1,0,0,2,0,0,3,0,1,0,0,1,1,0,1,2,0,1,3,0,2,0,0,2,1,0,2,2,0,2,3,0,3,0,0,3,1,0,3,2,0,3,3,1,0,0,1,0,1,1,0,2,1,0,3,1,1,0,1,1,1,1,1,2,1,1,3,1,2,0,1,2,1,1,2,2,1,2,3,1,3,0,1,3,1,1,3,2,1,3,3,2,0,0,2,0,1,2,0,2,2,0,3,2,1,0,2,1,1,2,1,2,2,2,0,2,2,1,2,2,2,2,2,3,2,3,0,2,3,1,2,3,2,2,3,3,3,0,0,3,0,1,3,0,2,3,0,3,3,1,0,3,1,1,3,1,2,3,1,3,3,2,0,3,2,1,3,2,2,3,2,3,3,3,0,3,3,1,3,3,2,3,3,3,0,0,0,0,0,1,0,0,2,0,0,3,0,1,0,0,1,1,0,1,2,0,1,3,0,2,0,0,2,1,0,2,2,0,2,3,0,3,0,0,3,1,0,3,2,0,3,3,1,0,0,1,0,1,1,0,2,1,0,3,1,1,0,1,1,1,1,1,2,1,1,3,1,2,0,1,2,1,1,2,2,1,2,3,1,3,0,1,3,1,1,3,2,1,3,3,2,0,0,2,0,1,2,0,2,2,0,3,2,1,0,2,1,1,2,1,2,2,2,0,2,2,1,2,2,2,2,2,3,2,3,0,2,3,1,2,3,2,2,3,3,3,0,0,3,0,1,3,0,2,3,0,3,3,1,0,3,1,1,3,1,2,3,1,3,3,2,0,3,2,1,3,2,2,3,2,3,3,3,0,3,3,1,3,3,2,3,3,3,0,0,0,0,0,1,0,0,2,0,0,3,0,2,0,0,2,1,0,2,2,0,2,3,1,0,0,1,0,1,1,0,2,1,0,3,1,2,0,1,2,1,1,2,2,1,2,3,2,0,0,2,0,1,2,0,2,2,0,3,2,2,0,2,2,1,2,2,2,2,2,3,3,0,0,3,0,1,3,0,2,3,0,3,3,2,0,3,2,2,3,2,3,0,0,0,0,0,1,0,0,2,0,0,3,0,1,0,0,1,1,0,1,2,0,1,3,0,2,0,0,2,1,0,2,2,0,2,3,0,3,0,0,3,1,0,3,2,0,3,3,1,0,0,1,0,1,1,0,2,1,0,3,1,1,0,1,1,1,1,1,2,1,1,3,1,2,0,1,2,1,1,2,2,1,2,3,1,3,0,1,3,1,1,3,2,1,3,3,2,0,0,2,0,1,2,0,2,2,0,3,2,1,0,2,1,1,2,1,2,2,1,3,2,2,0,2,2,1,2,2,2,2,2,3,2,3,0,2,3,1,2,3,2,2,3,3,3,0,0,3,0,1,3,0,2,3,0,3,3,1,0,3,1,1,3,1,2,3,1,3,3,2,0,3,2,2,3,2,3,3,3,0,3,3,1,3,3,2,3,3,3,0,0,0,0,0,1,0,0,2,0,0,3,0,1,0,0,1,1,0,1,2,0,1,3,0,2,0,0,2,1,0,2,2,0,2,3,0,3,0,0,3,1,0,3,2,0,3,3,1,0,0,1,0,1,1,0,2,1,0,3,1,1,0,1,1,1,1,1,2,1,1,3,1,2,0,1,2,1,1,2,2,1,2,3,1,3,0,1,3,1,1,3,2,1,3,3,2,0,0,2,0,1,2,0,2,2,0,3,2,1,0,2,1,1,2,1,2,2,1,3,2,2,0,2,2,1,2,2,2,2,2,3,2,3,0,2,3,2,2,3,3,3,0,0,3,0,1,3,0,2,3,0,3,3,1,0,3,1,1,3,1,2,3,1,3,3,2,0,3,2,1,3,2,2,3,2,3,3,3,0,3,3,1,3,3,2,3,3,3,0,0,0,0,0,1,0,0,2,0,0,3,0,1,0,0,1,1,0,1,2,0,1,3,0,2,0,0,2,1,0,2,2,0,2,3,0,3,0,0,3,1,0,3,2,0,3,3,13,0,0,13,0,1,13,0,2,13,0,3,13,1,0,13,1,1,13,1,2,13,1,3,13,2,0,13,2,2,13,2,3,13,3,0,13,3,1,13,3,2,13,3,3,0,0,0,0,0,1,0,0,2,0,0,3,0,1,0,0,1,1,0,1,2,0,1,3,0,2,0,0,2,1,0,2,2,0,2,3,0,3,0,0,3,1,0,3,2,0,3,3,1,0,0,1,0,1,1,0,2,1,0,3,1,1,0,1,1,1,1,1,2,1,1,3,1,2,0,1,2,1,1,2,2,1,2,3,1,3,0,1,3,1,1,3,2,1,3,3,2,0,0,2,0,1,2,0,2,2,0,3,2,1,0,2,1,1,2,1,2,2,1,3,2,2,0,2,2,1,2,2,2,2,2,3,2,3,0,2,3,2,2,3,3,3,0,0,3,0,1,3,0,2,3,0,3,3,1,0,3,1,1,3,1,2,3,1,3,3,2,0,3,2,1,3,2,2,3,2,3,3,3,0,3,3,1,3,3,2,3,3,3,0,0,0,0,0,1,0,0,2,0,0,3,0,1,0,0,1,1,0,1,2,0,1,3,0,2,0,0,2,1,0,2,2,0,2,3,0,3,0,0,3,1,0,3,2,0,3,3,1,0,0,1,0,1,1,0,2,1,0,3,1,1,0,1,1,1,1,1,2,1,1,3,1,2,0,1,2,1,1,2,2,1,3,0,1,3,1,1,3,2,1,3,3,2,0,0,2,0,1,2,0,2,2,0,3,2,1,0,2,1,1,2,1,2,2,1,3,2,2,0,2,2,1,2,2,2,2,2,3,2,3,0,2,3,1,2,3,2,2,3,3,3,0,0,3,0,1,3,0,2,3,0,3,3,1,0,3,1,1,3,1,2,3,1,3,3,2,0,3,2,1,3,2,2,3,2,3,3,3,0,3,3,1,3,3,2,3,3,3,0,0,0,0,0,1,0,0,2,0,0,3,0,1,0,0,1,1,0,1,2,0,1,3,0,2,0,0,2,1,0,2,2,0,2,3,0,3,0,0,3,1,0,3,2,0,3,3,1,0,0,1,0,1,1,0,2,1,0,3,1,1,0,1,1,1,1,1,2,1,1,3,1,2,0,1,2,1,1,2,2,1,2,3,1,3,0,1,3,1,1,3,2,1,3,3,2,0,0,2,0,1,2,0,2,2,0,3,2,1,0,2,1,1,2,1,2,2,1,3,2,2,0,2,2,1,2,2,2,2,2,3,2,3,0,2,3,2,2,3,3,3,0,0,3,0,1,3,0,2,3,0,3,3,1,0,3,1,1,3,1,2,3,1,3,3,2,0,3,2,1,3,2,2,3,2,3,3,3,0,3,3,1,3,3,2,3,3,3,0,0,0,0,0,1,0,0,2,0,0,3,0,1,0,0,1,1,0,1,2,0,1,3,0,2,0,0,2,1,0,2,2,0,2,3,0,3,0,0,3,1,0,3,2,0,3,3,13,0,0,13,0,1,13,0,2,13,0,3,13,1,0,13,1,1,13,1,2,13,1,3,13,2,0,13,2,2,13,2,3,13,3,0,13,3,1,13,3,2,13,3,3,0,0,0,0,0,1,0,0,2,0,0,3,0,1,0,0,1,1,0,1,2,0,1,3,0,2,0,0,2,1,0,2,2,0,2,3,0,3,0,0,3,1,0,3,2,0,3,3,1,0,0,1,0,1,1,0,2,1,0,3,1,1,0,1,1,1,1,1,2,1,1,3,1,2,0,1,2,1,1,2,2,1,2,3,1,3,0,1,3,1,1,3,2,1,3,3,2,0,0,2,0,1,2,0,2,2,0,3,2,1,0,2,1,1,2,1,2,2,1,3,2,2,0,2,2,1,2,2,2,2,2,3,2,3,0,2,3,2,2,3,3,3,0,0,3,0,1,3,0,2,3,0,3,3,1,0,3,1,1,3,1,2,3,1,3,3,2,0,3,2,1,3,2,2,3,2,3,3,3,0,3,3,1,3,3,2,3,3,3,0,0,0,0,0,1,0,0,2,0,0,3,0,1,0,0,1,1,0,1,2,0,1,3,0,2,0,0,2,1,0,2,2,0,2,3,0,3,0,0,3,1,0,3,2,0,3,3,1,0,0,1,0,1,1,0,2,1,0,3,1,1,0,1,1,1,1,1,2,1,1,3,1,2,0,1,2,1,1,2,2,1,2,3,1,3,0,1,3,1,1,3,2,1,3,3,2,0,0,2,0,1,2,0,2,2,0,3,2,1,0,2,1,1,2,1,2,2,2,0,2,2,1,2,2,2,2,2,3,2,3,0,2,3,1,2,3,2,2,3,3,3,0,0,3,0,1,3,0,2,3,0,3,3,1,0,3,1,1,3,1,2,3,1,3,3,2,0,3,2,1,3,2,2,3,2,3,3,3,0,3,3,1,3,3,2,3,3,3,0,0,0,0,0,1,0,0,2,0,0,3,0,1,0,0,1,1,0,1,2,0,1,3,0,2,0,0,2,1,0,2,2,0,2,3,0,3,0,0,3,1,0,3,2,0,3,3,1,0,0,1,0,1,1,0,2,1,0,3,1,1,0,1,1,1,1,1,2,1,1,3,1,2,0,1,2,1,1,2,2,1,2,3,1,3,0,1,3,1,1,3,2,1,3,3,2,0,0,2,0,1,2,0,2,2,0,3,2,1,0,2,1,1,2,1,2,2,1,3,2,2,0,2,2,1,2,2,2,2,2,3,2,3,0,2,3,2,2,3,3,3,0,0,3,0,1,3,0,2,3,0,3,3,1,0,3,1,1,3,1,2,3,1,3,3,2,0,3,2,1,3,2,2,3,2,3,3,3,0,3,3,1,3,3,2,3,3,3,0,0,0,0,0,1,0,0,2,0,0,3,0,1,0,0,1,1,0,1,2,0,1,3,0,2,0,0,2,1,0,2,2,0,2,3,0,3,0,0,3,1,0,3,2,0,3,3,1,0,0,1,0,1,1,0,2,1,0,3,1,1,0,1,1,1,1,1,2,1,1,3,1,2,0,1,2,1,1,2,2,1,2,3,1,3,0,1,3,1,1,3,2,1,3,3,2,0,0,2,0,1,2,0,2,2,0,3,2,1,0,2,1,1,2,1,2,2,1,3,2,2,0,2,2,1,2,2,2,2,2,3,2,3,0,2,3,2,2,3,3,3,0,0,3,0,1,3,0,2,3,0,3,3,1,0,3,1,1,3,1,2,3,1,3,3,2,0,3,2,1,3,2,2,3,2,3,3,3,0,3,3,1,3,3,2,3,3,3,0,0,0,0,0,1,0,0,2,0,0,3,0,1,0,0,1,1,0,1,2,0,1,3,0,2,0,0,2,1,0,2,2,0,2,3,0,3,0,0,3,1,0,3,2,0,3,3,1,0,0,1,0,1,1,0,2,1,0,3,1,1,0,1,1,1,1,1,2,1,1,3,1,2,0,1,2,1,1,2,2,1,2,3,1,3,0,1,3,1,1,3,2,1,3,3,2,0,0,2,0,1,2,0,2,2,0,3,2,1,0,2,1,1,2,1,2,2,1,3,2,2,0,2,2,1,2,2,2,2,2,3,2,3,0,2,3,2,2,3,3,3,0,0,3,0,1,3,0,2,3,0,3,3,1,0,3,1,1,3,1,2,3,1,3,3,2,0,3,2,1,3,2,2,3,2,3,3,3,0,3,3,1,3,3,2,3,3,3,0,0,0,0,0,1,0,0,2,0,0,3,0,1,0,0,1,1,0,1,2,0,1,3,0,2,0,0,2,1,0,2,2,0,2,3,0,3,0,0,3,1,0,3,2,0,3,3,1,0,0,1,0,1,1,0,2,1,0,3,1,1,0,1,1,1,1,1,2,1,1,3,1,2,0,1,2,1,1,2,2,1,2,3,1,3,0,1,3,1,1,3,2,1,3,3,2,0,0,2,0,1,2,0,2,2,0,3,2,1,0,2,1,1,2,1,2,2,1,3,2,2,0,2,2,1,2,2,2,2,2,3,2,3,0,2,3,2,2,3,3,3,0,0,3,0,1,3,0,2,3,0,3,3,1,0,3,1,1,3,1,2,3,1,3,3,2,0,3,2,1,3,2,2,3,2,3,3,3,0,3,3,1,3,3,2,3,3,3,0,0,0,0,0,1,0,0,2,0,0,3,0,1,0,0,1,1,0,1,2,0,1,3,0,2,0,0,2,1,0,2,2,0,2,3,0,3,0,0,3,1,0,3,2,0,3,3,1,0,0,1,0,1,1,0,2,1,0,3,1,1,0,1,1,1,1,1,2,1,1,3,1,2,0,1,2,1,1,2,2,1,2,3,1,3,0,1,3,1,1,3,2,1,3,3,2,0,0,2,0,1,2,0,2,2,0,3,2,1,0,2,1,1,2,1,2,2,1,3,2,2,0,2,2,1,2,2,2,2,2,3,2,3,0,2,3,2,2,3,3,3,0,0,3,0,1,3,0,2,3,0,3,3,1,0,3,1,1,3,1,2,3,1,3,3,2,0,3,2,1,3,2,2,3,2,3,3,3,0,3,3,1,3,3,2,3,3,3,0,0,0,0,0,1,0,0,2,0,0,3,0,1,0,0,1,1,0,1,2,0,1,3,0,2,0,0,2,1,0,2,2,0,2,3,0,3,0,0,3,1,0,3,2,0,3,3,1,0,0,1,0,1,1,0,2,1,0,3,1,1,0,1,1,1,1,1,2,1,1,3,1,2,0,1,2,1,1,2,2,1,2,3,1,3,0,1,3,1,1,3,2,1,3,3,2,0,0,2,0,1,2,0,2,2,0,3,2,1,0,2,1,1,2,1,2,2,1,3,2,2,0,2,2,1,2,2,2,2,2,3,2,3,0,2,3,2,2,3,3,3,0,0,3,0,1,3,0,2,3,0,3,3,1,0,3,1,1,3,1,2,3,1,3,3,2,0,3,2,1,3,2,2,3,2,3,3,3,0,3,3,1,3,3,2,3,3,3,0,0,0,0,0,1,0,0,2,0,0,3,0,1,0,0,1,1,0,1,2,0,1,3,0,2,0,0,2,1,0,2,2,0,2,3,0,3,0,0,3,1,0,3,2,0,3,3,1,0,0,1,0,1,1,0,2,1,0,3,1,1,0,1,1,1,1,1,2,1,1,3,1,2,0,1,2,1,1,2,2,1,2,3,1,3,0,1,3,1,1,3,2,1,3,3,2,0,0,2,0,1,2,0,2,2,0,3,2,1,0,2,1,1,2,1,2,2,1,3,2,2,0,2,2,1,2,2,2,2,2,3,2,3,0,2,3,2,2,3,3,3,0,0,3,0,1,3,0,2,3,0,3,3,1,0,3,1,1,3,1,2,3,1,3,3,2,0,3,2,1,3,2,2,3,2,3,3,3,0,3,3,1,3,3,2,3,3,3,0,0,0,0,0,1,0,0,2,0,0,3,0,1,0,0,1,1,0,1,2,0,1,3,0,2,0,0,2,1,0,2,2,0,2,3,0,3,0,0,3,1,0,3,2,0,3,3,1,0,0,1,0,1,1,0,2,1,0,3,1,1,0,1,1,1,1,1,2,1,1,3,1,2,0,1,2,1,1,2,2,1,2,3,1,3,0,1,3,1,1,3,2,1,3,3,2,0,0,2,0,1,2,0,2,2,0,3,2,1,0,2,1,1,2,1,2,2,1,3,2,2,0,2,2,1,2,2,2,2,2,3,2,3,0,2,3,1,2,3,2,2,3,3,3,0,0,3,0,1,3,0,2,3,0,3,3,1,0,3,1,1,3,1,2,3,1,3,3,2,0,3,2,2,3,2,3,3,3,0,3,3,1,3,3,2,3,3,3,0,0,0,0,0,1,0,0,2,0,0,3,0,1,0,0,1,1,0,1,2,0,1,3,0,2,0,0,2,1,0,2,2,0,2,3,0,3,0,0,3,1,0,3,2,0,3,3,1,0,0,1,0,1,1,0,2,1,0,3,1,1,0,1,1,1,1,1,2,1,1,3,1,2,0,1,2,1,1,2,2,1,2,3,1,3,0,1,3,1,1,3,2,1,3,3,2,0,0,2,0,1,2,0,2,2,0,3,2,1,0,2,1,1,2,1,2,2,1,3,2,2,0,2,2,1,2,2,2,2,2,3,2,3,0,2,3,1,2,3,2,2,3,3,3,0,0,3,0,1,3,0,2,3,0,3,3,1,0,3,1,1,3,1,3,3,2,0,3,2,1,3,2,2,3,2,3,3,3,0,3,3,1,3,3,2,3,3,3,0,0,0,0,0,1,0,0,2,0,0,3,0,1,0,0,1,1,0,1,2,0,1,3,0,2,0,0,2,1,0,2,2,0,2,3,0,3,0,0,3,1,0,3,2,0,3,3,13,0,0,13,0,1,13,0,2,13,0,3,13,1,0,13,1,1,13,1,2,13,1,3,13,2,0,13,2,2,13,2,3,13,3,0,13,3,1,13,3,2,13,3,3,0,0,0,0,0,2,0,1,0,0,1,2,0,2,0,0,2,2,0,3,0,0,3,2,1,0,0,1,0,2,1,1,0,1,1,2,1,2,0,1,2,2,1,3,0,1,3,2,2,0,0,2,0,2,2,1,0,2,1,2,2,2,0,2,2,2,2,3,0,2,3,2,3,0,0,3,0,2,3,1,0,3,2,0,3,2,2,3,3,0,3,3,2,0,0,0,0,0,1,0,0,2,0,0,3,0,1,0,0,1,1,0,1,2,0,1,3,0,2,0,0,2,1,0,2,2,0,2,3,0,3,0,0,3,1,0,3,2,0,3,3,1,0,0,1,0,1,1,0,2,1,0,3,1,1,0,1,1,1,1,1,2,1,1,3,1,2,0,1,2,1,1,2,2,1,2,3,1,3,0,1,3,1,1,3,2,1,3,3,2,0,0,2,0,1,2,0,2,2,0,3,2,1,0,2,1,1,2,1,2,2,1,3,2,2,0,2,2,1,2,2,2,2,2,3,2,3,0,2,3,2,2,3,3,3,0,0,3,0,1,3,0,2,3,0,3,3,1,0,3,1,1,3,1,2,3,1,3,3,2,0,3,2,1,3,2,2,3,2,3,3,3,0,3,3,1,3,3,2,3,3,3,0,0,0,0,0,1,0,0,2,0,0,3,0,1,0,0,1,1,0,1,2,0,1,3,0,2,0,0,2,1,0,2,2,0,2,3,0,3,0,0,3,1,0,3,2,0,3,3,1,0,0,1,0,1,1,0,2,1,0,3,1,1,0,1,1,1,1,1,2,1,1,3,1,2,0,1,2,1,1,2,2,1,2,3,1,3,0,1,3,1,1,3,2,1,3,3,2,0,0,2,0,1,2,0,2,2,0,3,2,1,0,2,1,1,2,1,2,2,1,3,2,2,0,2,2,1,2,2,2,2,2,3,2,3,0,2,3,1,2,3,2,2,3,3,3,0,0,3,0,1,3,0,2,3,0,3,3,1,0,3,1,1,3,1,2,3,1,3,3,2,0,3,2,2,3,2,3,3,3,0,3,3,1,3,3,2,3,3,3,0,0,0,0,0,1,0,0,2,0,0,3,0,1,0,0,1,1,0,1,2,0,1,3,0,2,0,0,2,1,0,2,2,0,2,3,0,3,0,0,3,1,0,3,2,0,3,3,1,0,0,1,0,1,1,0,2,1,0,3,1,1,0,1,1,1,1,1,2,1,1,3,1,2,0,1,2,1,1,2,2,1,2,3,1,3,0,1,3,1,1,3,2,1,3,3,2,0,0,2,0,1,2,0,2,2,0,3,2,1,0,2,1,1,2,1,2,2,1,3,2,2,0,2,2,1,2,2,2,2,2,3,2,3,0,2,3,1,2,3,2,2,3,3,3,0,0,3,0,1,3,0,2,3,0,3,3,1,0,3,1,1,3,1,3,3,2,0,3,2,1,3,2,2,3,2,3,3,3,0,3,3,1,3,3,2,3,3,3,0,0,0,0,0,1,0,0,2,0,0,3,0,1,0,0,1,1,0,1,2,0,1,3,0,2,0,0,2,1,0,2,2,0,2,3,0,3,0,0,3,1,0,3,2,0,3,3,13,0,0,13,0,1,13,0,2,13,0,3,13,1,0,13,1,1,13,1,2,13,1,3,13,2,0,13,2,2,13,2,3,13,3,0,13,3,1,13,3,2,13,3,3,0,0,0,0,0,2,0,1,0,0,1,2,0,2,0,0,2,2,0,3,0,0,3,2,1,0,0,1,0,2,1,1,0,1,1,2,1,2,0,1,2,2,1,3,0,2,0,0,2,0,2,2,1,0,2,1,2,2,2,0,2,2,2,2,3,0,2,3,2,3,0,0,3,0,2,3,1,0,3,1,2,3,2,0,3,2,2,3,3,0,3,3,2,0,0,0,0,0,1,0,0,2,0,0,3,0,1,0,0,1,1,0,1,2,0,1,3,0,2,0,0,2,1,0,2,2,0,2,3,0,3,0,0,3,1,0,3,2,0,3,3,1,0,0,1,0,1,1,0,2,1,0,3,1,1,0,1,1,1,1,1,2,1,1,3,1,2,0,1,2,1,1,2,2,1,2,3,1,3,0,1,3,1,1,3,2,1,3,3,2,0,0,2,0,1,2,0,2,2,0,3,2,1,0,2,1,1,2,1,2,2,2,0,2,2,1,2,2,2,2,2,3,2,3,0,2,3,1,2,3,2,2,3,3,3,0,0,3,0,1,3,0,2,3,0,3,3,1,0,3,1,1,3,1,2,3,1,3,3,2,0,3,2,1,3,2,2,3,2,3,3,3,0,3,3,1,3,3,2,3,3,3,0,0,0,0,0,1,0,0,2,0,0,3,0,1,0,0,1,1,0,1,2,0,1,3,0,2,0,0,2,1,0,2,2,0,2,3,0,3,0,0,3,1,0,3,2,0,3,3,1,0,0,1,0,1,1,0,2,1,0,3,1,1,0,1,1,1,1,1,2,1,1,3,1,2,0,1,2,1,1,2,2,1,2,3,1,3,0,1,3,1,1,3,2,1,3,3,2,0,0,2,0,1,2,0,2,2,0,3,2,1,0,2,1,1,2,1,2,2,1,3,2,2,0,2,2,1,2,2,2,2,2,3,2,3,0,2,3,1,2,3,2,2,3,3,3,0,0,3,0,1,3,0,2,3,0,3,3,1,0,3,1,1,3,1,3,3,2,0,3,2,1,3,2,2,3,2,3,3,3,0,3,3,1,3,3,2,3,3,3,0,0,0,0,0,1,0,0,2,0,0,3,0,1,0,0,1,1,0,1,2,0,1,3,0,2,0,0,2,1,0,2,2,0,2,3,0,3,0,0,3,1,0,3,2,0,3,3,1,0,0,1,0,1,1,0,2,1,0,3,1,1,0,1,1,1,1,1,2,1,1,3,1,2,0,1,2,1,1,2,2,1,2,3,1,3,0,1,3,1,1,3,2,1,3,3,2,0,0,2,0,1,2,0,2,2,0,3,2,1,0,2,1,1,2,1,2,2,1,3,2,2,0,2,2,1,2,2,2,2,2,3,2,3,0,2,3,1,2,3,2,2,3,3,3,0,0,3,0,1,3,0,2,3,0,3,3,1,0,3,1,1,3,1,3,3,2,0,3,2,1,3,2,2,3,2,3,3,3,0,3,3,1,3,3,2,3,3,3,0,0,0,0,0,1,0,0,2,0,0,3,0,1,0,0,1,1,0,1,2,0,1,3,0,2,0,0,2,1,0,2,2,0,2,3,0,3,0,0,3,1,0,3,2,0,3,3,1,0,0,1,0,1,1,0,2,1,0,3,1,1,0,1,1,1,1,1,2,1,1,3,1,2,0,1,2,1,1,2,2,1,2,3,1,3,0,1,3,1,1,3,2,1,3,3,2,0,0,2,0,1,2,0,2,2,0,3,2,1,0,2,1,1,2,1,2,2,2,0,2,2,1,2,2,2,2,2,3,2,3,0,2,3,1,2,3,2,2,3,3,3,0,0,3,0,1,3,0,2,3,0,3,3,1,0,3,1,1,3,1,2,3,1,3,3,2,0,3,2,1,3,2,2,3,2,3,3,3,0,3,3,1,3,3,2,3,3,3,0,0,0,0,0,1,0,0,2,0,0,3,0,1,0,0,1,1,0,1,2,0,1,3,0,2,0,0,2,1,0,2,2,0,2,3,0,3,0,0,3,1,0,3,2,0,3,3,2,0,0,2,0,1,2,0,2,2,0,3,2,1,0,2,1,1,2,1,2,2,1,3,2,2,0,2,2,1,2,2,2,2,2,3,2,3,0,2,3,2,2,3,3,0,0,0,0,0,1,0,0,2,0,0,3,0,1,0,0,1,1,0,1,2,0,1,3,0,2,0,0,2,1,0,2,2,0,2,3,0,3,0,0,3,1,0,3,2,0,3,3,1,0,0,1,0,1,1,0,2,1,0,3,1,1,0,1,1,1,1,1,2,1,1,3,1,2,0,1,2,1,1,2,2,1,2,3,1,3,0,1,3,1,1,3,2,1,3,3,2,0,0,2,0,1,2,0,2,2,0,3,2,1,0,2,1,1,2,1,2,2,1,3,2,2,0,2,2,1,2,2,2,2,2,3,2,3,0,2,3,2,2,3,3,3,0,0,3,0,1,3,0,2,3,0,3,3,1,0,3,1,1,3,1,2,3,1,3,3,2,0,3,2,1,3,2,2,3,2,3,3,3,0,3,3,1,3,3,2,3,3,3,0,0,0,0,0,1,0,0,2,0,0,3,0,1,0,0,1,1,0,1,2,0,1,3,0,2,0,0,2,1,0,2,2,0,2,3,0,3,0,0,3,1,0,3,2,0,3,3,1,0,0,1,0,1,1,0,2,1,0,3,1,1,0,1,1,1,1,1,2,1,1,3,1,2,0,1,2,1,1,2,2,1,2,3,1,3,0,1,3,1,1,3,2,1,3,3,2,0,0,2,0,1,2,0,2,2,0,3,2,1,0,2,1,1,2,1,2,2,1,3,2,2,0,2,2,1,2,2,2,2,2,3,2,3,0,2,3,2,2,3,3,3,0,0,3,0,1,3,0,2,3,0,3,3,1,0,3,1,1,3,1,2,3,1,3,3,2,0,3,2,1,3,2,2,3,2,3,3,3,0,3,3,1,3,3,2,3,3,3,0,0,0,0,0,1,0,0,2,0,0,3,0,1,0,0,1,1,0,1,2,0,1,3,0,2,0,0,2,1,0,2,2,0,2,3,0,3,0,0,3,1,0,3,2,0,3,3,1,0,0,1,0,1,1,0,2,1,0,3,1,1,0,1,1,1,1,1,2,1,1,3,1,2,0,1,2,1,1,2,2,1,2,3,1,3,0,1,3,1,1,3,2,1,3,3,2,0,0,2,0,1,2,0,2,2,0,3,2,1,0,2,1,1,2,1,2,2,1,3,2,2,0,2,2,1,2,2,2,2,2,3,2,3,0,2,3,2,2,3,3,3,0,0,3,0,1,3,0,2,3,0,3,3,1,0,3,1,1,3,1,2,3,1,3,3,2,0,3,2,1,3,2,2,3,2,3,3,3,0,3,3,1,3,3,2,3,3,3,0,0,0,0,0,1,0,0,2,0,0,3,0,1,0,0,1,1,0,1,2,0,1,3,0,2,0,0,2,1,0,2,2,0,2,3,0,3,0,0,3,1,0,3,2,0,3,3,1,0,0,1,0,1,1,0,2,1,0,3,1,1,0,1,1,1,1,1,2,1,1,3,1,2,0,1,2,1,1,2,2,1,2,3,1,3,0,1,3,1,1,3,2,1,3,3,2,0,0,2,0,1,2,0,2,2,0,3,2,1,0,2,1,1,2,1,2,2,1,3,2,2,0,2,2,1,2,2,2,2,2,3,2,3,0,2,3,1,2,3,2,2,3,3,3,0,0,3,0,1,3,0,2,3,0,3,3,1,0,3,1,1,3,1,3,3,2,0,3,2,1,3,2,2,3,2,3,3,3,0,3,3,1,3,3,2,3,3,3,0,0,0,0,0,1,0,0,2,0,0,3,0,1,0,0,1,1,0,1,2,0,1,3,0,2,0,0,2,1,0,2,2,0,2,3,0,3,0,0,3,1,0,3,2,0,3,3,13,0,0,13,0,1,13,0,2,13,0,3,13,1,0,13,1,1,13,1,2,13,1,3,13,2,0,13,2,2,13,2,3,13,3,0,13,3,1,13,3,2,13,3,3,0,0,0,0,0,1,0,0,2,0,0,3,0,1,0,0,1,1,0,1,2,0,1,3,0,2,0,0,2,1,0,2,2,0,2,3,0,3,0,0,3,1,0,3,2,0,3,3,1,0,0,1,0,1,1,0,2,1,0,3,1,1,0,1,1,1,1,1,2,1,1,3,1,2,0,1,2,1,1,2,2,1,3,0,1,3,1,1,3,2,1,3,3,2,0,0,2,0,1,2,0,2,2,0,3,2,1,0,2,1,1,2,1,2,2,1,3,2,2,0,2,2,1,2,2,2,2,2,3,2,3,0,2,3,1,2,3,2,2,3,3,3,0,0,3,0,1,3,0,2,3,0,3,3,1,0,3,1,1,3,1,2,3,1,3,3,2,0,3,2,1,3,2,2,3,2,3,3,3,0,3,3,1,3,3,2,3,3,3,0,0,0,0,0,1,0,0,2,0,0,3,0,1,0,0,1,1,0,1,2,0,1,3,0,2,0,0,2,1,0,2,2,0,2,3,0,3,0,0,3,1,0,3,2,0,3,3,1,0,0,1,0,1,1,0,2,1,0,3,1,1,0,1,1,1,1,1,2,1,1,3,1,2,0,1,2,1,1,2,2,1,2,3,1,3,0,1,3,1,1,3,2,1,3,3,2,0,0,2,0,1,2,0,2,2,0,3,2,1,0,2,1,1,2,1,2,2,1,3,2,2,0,2,2,1,2,2,2,2,2,3,2,3,0,2,3,2,2,3,3,3,0,0,3,0,1,3,0,2,3,0,3,3,1,0,3,1,1,3,1,2,3,1,3,3,2,0,3,2,1,3,2,2,3,2,3,3,3,0,3,3,1,3,3,2,3,3,3,0,0,0,0,0,1,0,0,2,0,0,3,0,1,0,0,1,1,0,1,2,0,1,3,0,2,0,0,2,1,0,2,2,0,2,3,0,3,0,0,3,1,0,3,2,0,3,3,1,0,0,1,0,1,1,0,2,1,0,3,1,1,0,1,1,1,1,1,2,1,1,3,1,2,0,1,2,1,1,2,2,1,2,3,1,3,0,1,3,1,1,3,2,1,3,3,2,0,0,2,0,1,2,0,2,2,0,3,2,1,0,2,1,1,2,1,2,2,2,0,2,2,1,2,2,2,2,2,3,2,3,0,2,3,1,2,3,2,2,3,3,3,0,0,3,0,1,3,0,2,3,0,3,3,1,0,3,1,1,3,1,2,3,1,3,3,2,0,3,2,1,3,2,2,3,2,3,3,3,0,3,3,1,3,3,2,3,3,3,0,0,0,0,0,1,0,0,2,0,0,3,0,1,0,0,1,1,0,1,2,0,1,3,0,2,0,0,2,1,0,2,2,0,2,3,0,3,0,0,3,1,0,3,2,0,3,3,13,0,0,13,0,1,13,0,2,13,0,3,13,1,0,13,1,1,13,1,2,13,1,3,13,2,0,13,2,2,13,2,3,13,3,0,13,3,1,13,3,2,13,3,3,0,0,0,0,0,2,0,1,0,0,1,2,0,2,0,0,2,2,0,3,0,0,3,2,1,0,0,1,0,2,1,1,0,1,1,2,1,2,0,1,2,2,1,3,0,2,0,0,2,0,2,2,1,0,2,1,2,2,2,0,2,2,2,2,3,0,2,3,2,3,0,0,3,0,2,3,1,0,3,1,2,3,2,0,3,2,2,3,3,0,3,3,2,0,0,0,0,0,1,0,0,2,0,0,3,0,1,0,0,1,1,0,1,2,0,1,3,0,2,0,0,2,1,0,2,2,0,2,3,0,3,0,0,3,1,0,3,2,0,3,3,1,0,0,1,0,1,1,0,2,1,0,3,1,1,0,1,1,1,1,1,2,1,1,3,1,2,0,1,2,1,1,2,2,1,2,3,1,3,0,1,3,1,1,3,2,1,3,3,2,0,0,2,0,1,2,0,2,2,0,3,2,1,0,2,1,1,2,1,2,2,1,3,2,2,0,2,2,1,2,2,2,2,2,3,2,3,0,2,3,2,2,3,3,3,0,0,3,0,1,3,0,2,3,0,3,3,1,0,3,1,1,3,1,2,3,1,3,3,2,0,3,2,1,3,2,2,3,2,3,3,3,0,3,3,1,3,3,2,3,3,3,0,0,0,0,0,1,0,0,2,0,0,3,0,1,0,0,1,1,0,1,2,0,1,3,0,2,0,0,2,1,0,2,2,0,2,3,0,3,0,0,3,1,0,3,2,0,3,3,13,0,0,13,0,1,13,0,2,13,0,3,13,1,0,13,1,1,13,1,2,13,1,3,13,2,0,13,2,2,13,2,3,13,3,0,13,3,1,13,3,2,13,3,3,0,0,0,0,0,1,0,0,2,0,0,3,0,1,0,0,1,1,0,1,2,0,1,3,0,2,0,0,2,1,0,2,2,0,2,3,0,3,0,0,3,1,0,3,2,0,3,3,13,0,0,13,0,1,13,0,2,13,0,3,13,1,0,13,1,1,13,1,2,13,1,3,13,2,0,13,2,2,13,2,3,13,3,0,13,3,1,13,3,2,13,3,3,0,0,0,0,0,1,0,0,2,0,0,3,0,1,0,0,1,1,0,1,2,0,1,3,0,2,0,0,2,1,0,2,2,0,2,3,0,3,0,0,3,1,0,3,2,0,3,3,1,0,0,1,0,1,1,0,2,1,0,3,1,1,0,1,1,1,1,1,2,1,1,3,1,2,0,1,2,1,1,2,2,1,2,3,1,3,0,1,3,1,1,3,2,1,3,3,2,0,0,2,0,1,2,0,2,2,0,3,2,1,0,2,1,1,2,1,2,2,1,3,2,2,0,2,2,1,2,2,2,2,2,3,2,3,0,2,3,1,2,3,2,2,3,3,3,0,0,3,0,1,3,0,2,3,0,3,3,1,0,3,1,1,3,1,3,3,2,0,3,2,1,3,2,2,3,2,3,3,3,0,3,3,1,3,3,2,3,3,3,0,0,0,0,0,1,0,0,2,0,0,3,0,1,0,0,1,1,0,1,2,0,1,3,0,2,0,0,2,1,0,2,2,0,2,3,0,3,0,0,3,1,0,3,2,0,3,3,1,0,0,1,0,1,1,0,2,1,0,3,1,1,0,1,1,1,1,1,2,1,1,3,1,2,0,1,2,1,1,2,2,1,2,3,1,3,0,1,3,1,1,3,2,1,3,3,2,0,0,2,0,1,2,0,2,2,0,3,2,1,0,2,1,1,2,1,2,2,1,3,2,2,0,2,2,1,2,2,2,2,2,3,2,3,0,2,3,2,2,3,3,3,0,0,3,0,1,3,0,2,3,0,3,3,1,0,3,1,1,3,1,2,3,1,3,3,2,0,3,2,1,3,2,2,3,2,3,3,3,0,3,3,1,3,3,2,3,3,3,0,0,0,0,0,1,0,0,2,0,0,3,0,1,0,0,1,1,0,1,2,0,1,3,0,2,0,0,2,1,0,2,2,0,2,3,0,3,0,0,3,1,0,3,2,0,3,3,1,0,0,1,0,1,1,0,2,1,0,3,1,1,0,1,1,1,1,1,2,1,1,3,1,2,0,1,2,1,1,2,2,1,2,3,1,3,0,1,3,1,1,3,2,1,3,3,2,0,0,2,0,1,2,0,2,2,0,3,2,1,0,2,1,1,2,1,2,2,1,3,2,2,0,2,2,1,2,2,2,2,2,3,2,3,0,2,3,2,2,3,3,3,0,0,3,0,1,3,0,2,3,0,3,3,1,0,3,1,1,3,1,2,3,1,3,3,2,0,3,2,1,3,2,2,3,2,3,3,3,0,3,3,1,3,3,2,3,3,3,0,0,0,0,0,1,0,0,2,0,0,3,0,1,0,0,1,1,0,1,2,0,1,3,0,2,0,0,2,1,0,2,2,0,2,3,0,3,0,0,3,1,0,3,2,0,3,3,1,0,0,1,0,1,1,0,2,1,0,3,1,1,0,1,1,1,1,1,2,1,1,3,1,2,0,1,2,1,1,2,2,1,2,3,1,3,0,1,3,1,1,3,2,1,3,3,2,0,0,2,0,1,2,0,2,2,0,3,2,1,0,2,1,1,2,1,2,2,1,3,2,2,0,2,2,1,2,2,2,2,2,3,2,3,0,2,3,1,2,3,2,2,3,3,3,0,0,3,0,1,3,0,2,3,0,3,3,1,0,3,1,1,3,1,2,3,1,3,3,2,0,3,2,2,3,2,3,3,3,0,3,3,1,3,3,2,3,3,3,0,0,0,0,0,1,0,0,2,0,0,3,0,1,0,0,1,1,0,1,2,0,1,3,0,2,0,0,2,1,0,2,2,0,2,3,0,3,0,0,3,1,0,3,2,0,3,3,1,0,0,1,0,1,1,0,2,1,0,3,1,1,0,1,1,1,1,1,2,1,1,3,1,2,0,1,2,1,1,2,2,1,2,3,1,3,0,1,3,1,1,3,2,1,3,3,2,0,0,2,0,1,2,0,2,2,0,3,2,1,0,2,1,1,2,1,2,2,1,3,2,2,0,2,2,1,2,2,2,2,2,3,2,3,0,2,3,2,2,3,3,3,0,0,3,0,1,3,0,2,3,0,3,3,1,0,3,1,1,3,1,2,3,1,3,3,2,0,3,2,1,3,2,2,3,2,3,3,3,0,3,3,1,3,3,2,3,3,3,0,0,0,0,0,1,0,0,2,0,0,3,0,1,0,0,1,1,0,1,2,0,1,3,0,2,0,0,2,1,0,2,2,0,2,3,0,3,0,0,3,1,0,3,2,0,3,3,13,0,0,13,0,1,13,0,2,13,0,3,13,1,0,13,1,1,13,1,2,13,1,3,13,2,0,13,2,2,13,2,3,13,3,0,13,3,1,13,3,2,13,3,3,0,0,0,0,0,1,0,0,2,0,0,3,0,1,0,0,1,1,0,1,2,0,1,3,0,2,0,0,2,1,0,2,2,0,2,3,0,3,0,0,3,1,0,3,2,0,3,3,1,0,0,1,0,1,1,0,2,1,0,3,1,1,0,1,1,1,1,1,2,1,1,3,1,2,0,1,2,1,1,2,2,1,2,3,1,3,0,1,3,1,1,3,2,1,3,3,2,0,0,2,0,1,2,0,2,2,0,3,2,1,0,2,1,1,2,1,2,2,1,3,2,2,0,2,2,1,2,2,2,2,2,3,2,3,0,2,3,2,2,3,3,3,0,0,3,0,1,3,0,2,3,0,3,3,1,0,3,1,1,3,1,2,3,1,3,3,2,0,3,2,1,3,2,2,3,2,3,3,3,0,3,3,1,3,3,2,3,3,3,0,0,0,0,0,1,0,0,2,0,0,3,0,1,0,0,1,1,0,1,2,0,1,3,0,2,0,0,2,1,0,2,2,0,2,3,0,3,0,0,3,1,0,3,2,0,3,3,1,0,0,1,0,1,1,0,2,1,0,3,1,1,0,1,1,1,1,1,2,1,1,3,1,2,0,1,2,1,1,2,2,1,2,3,1,3,0,1,3,1,1,3,2,1,3,3,2,0,0,2,0,1,2,0,2,2,0,3,2,1,0,2,1,1,2,1,2,2,1,3,2,2,0,2,2,1,2,2,2,2,2,3,2,3,0,2,3,2,2,3,3,3,0,0,3,0,1,3,0,2,3,0,3,3,1,0,3,1,1,3,1,2,3,1,3,3,2,0,3,2,1,3,2,2,3,2,3,3,3,0,3,3,1,3,3,2,3,3,3,0,0,0,0,0,1,0,0,2,0,0,3,0,1,0,0,1,1,0,1,2,0,1,3,0,2,0,0,2,1,0,2,2,0,2,3,0,3,0,0,3,1,0,3,2,0,3,3,1,0,0,1,0,1,1,0,2,1,0,3,1,1,0,1,1,1,1,1,2,1,1,3,1,2,0,1,2,1,1,2,2,1,2,3,1,3,0,1,3,1,1,3,2,1,3,3,2,0,0,2,0,1,2,0,2,2,0,3,2,1,0,2,1,1,2,1,2,2,1,3,2,2,0,2,2,1,2,2,2,2,2,3,2,3,0,2,3,2,2,3,3,3,0,0,3,0,1,3,0,2,3,0,3,3,1,0,3,1,1,3,1,2,3,1,3,3,2,0,3,2,1,3,2,2,3,2,3,3,3,0,3,3,1,3,3,2,3,3,3,0,0,0,0,0,1,0,0,2,0,0,3,0,1,0,0,1,1,0,1,2,0,1,3,0,2,0,0,2,1,0,2,2,0,2,3,0,3,0,0,3,1,0,3,2,0,3,3,1,0,0,1,0,1,1,0,2,1,0,3,1,1,0,1,1,1,1,1,2,1,1,3,1,2,0,1,2,1,1,2,2,1,2,3,1,3,0,1,3,1,1,3,2,1,3,3,2,0,0,2,0,1,2,0,2,2,0,3,2,1,0,2,1,1,2,1,2,2,1,3,2,2,0,2,2,1,2,2,2,2,2,3,2,3,0,2,3,2,2,3,3,3,0,0,3,0,1,3,0,2,3,0,3,3,1,0,3,1,1,3,1,2,3,1,3,3,2,0,3,2,1,3,2,2,3,2,3,3,3,0,3,3,1,3,3,2,3,3,3,0,0,0,0,0,1,0,0,2,0,0,3,0,1,0,0,1,1,0,1,2,0,1,3,0,2,0,0,2,1,0,2,2,0,2,3,0,3,0,0,3,1,0,3,2,0,3,3,1,0,0,1,0,1,1,0,2,1,0,3,1,1,0,1,1,1,1,1,2,1,1,3,1,2,0,1,2,1,1,2,2,1,2,3,1,3,0,1,3,1,1,3,2,1,3,3,2,0,0,2,0,1,2,0,2,2,0,3,2,1,0,2,1,1,2,1,2,2,1,3,2,2,0,2,2,1,2,2,2,2,2,3,2,3,0,2,3,1,2,3,2,2,3,3,3,0,0,3,0,1,3,0,2,3,0,3,3,1,0,3,1,1,3,1,2,3,1,3,3,2,0,3,2,2,3,2,3,3,3,0,3,3,1,3,3,2,3,3,3,0,0,0,0,0,1,0,0,2,0,0,3,0,2,0,0,2,1,0,2,2,0,2,3,1,0,0,1,0,1,1,0,2,1,0,3,1,2,0,1,2,1,1,2,2,1,2,3,2,0,0,2,0,1,2,0,2,2,0,3,2,2,0,2,2,1,2,2,2,2,2,3,3,0,0,3,0,1,3,0,2,3,0,3,3,2,0,3,2,2,3,2,3,0,0,0,0,0,1,0,0,2,0,0,3,0,1,0,0,1,1,0,1,2,0,1,3,0,2,0,0,2,1,0,2,2,0,2,3,0,3,0,0,3,1,0,3,2,0,3,3,1,0,0,1,0,1,1,0,2,1,0,3,1,1,0,1,1,1,1,1,2,1,1,3,1,2,0,1,2,1,1,2,2,1,2,3,1,3,0,1,3,1,1,3,2,1,3,3,2,0,0,2,0,1,2,0,2,2,0,3,2,1,0,2,1,1,2,1,2,2,1,3,2,2,0,2,2,1,2,2,2,2,2,3,2,3,0,2,3,2,2,3,3,3,0,0,3,0,1,3,0,2,3,0,3,3,1,0,3,1,1,3,1,2,3,1,3,3,2,0,3,2,1,3,2,2,3,2,3,3,3,0,3,3,1,3,3,2,3,3,3,0,0,0,0,0,1,0,0,2,0,0,3,0,1,0,0,1,1,0,1,2,0,1,3,0,2,0,0,2,1,0,2,2,0,2,3,0,3,0,0,3,1,0,3,2,0,3,3,1,0,0,1,0,1,1,0,2,1,0,3,1,1,0,1,1,1,1,1,2,1,1,3,1,2,0,1,2,1,1,2,2,1,2,3,1,3,0,1,3,1,1,3,2,1,3,3,2,0,0,2,0,1,2,0,2,2,0,3,2,1,0,2,1,1,2,1,2,2,1,3,2,2,0,2,2,1,2,2,2,2,2,3,2,3,0,2,3,2,2,3,3,3,0,0,3,0,1,3,0,2,3,0,3,3,1,0,3,1,1,3,1,2,3,1,3,3,2,0,3,2,1,3,2,2,3,2,3,3,3,0,3,3,1,3,3,2,3,3,3,0,0,0,0,0,1,0,0,2,0,0,3,0,1,0,0,1,1,0,1,2,0,1,3,0,2,0,0,2,1,0,2,2,0,2,3,0,3,0,0,3,1,0,3,2,0,3,3,1,0,0,1,0,1,1,0,2,1,0,3,1,1,0,1,1,1,1,1,2,1,1,3,1,2,0,1,2,1,1,2,2,1,2,3,1,3,0,1,3,1,1,3,2,1,3,3,2,0,0,2,0,1,2,0,2,2,0,3,2,1,0,2,1,1,2,1,2,2,1,3,2,2,0,2,2,1,2,2,2,2,2,3,2,3,0,2,3,2,2,3,3,3,0,0,3,0,1,3,0,2,3,0,3,3,1,0,3,1,1,3,1,2,3,1,3,3,2,0,3,2,1,3,2,2,3,2,3,3,3,0,3,3,1,3,3,2,3,3,3,0,0,0,0,0,1,0,0,2,0,0,3,0,1,0,0,1,1,0,1,2,0,1,3,0,2,0,0,2,1,0,2,2,0,2,3,0,3,0,0,3,1,0,3,2,0,3,3,1,0,0,1,0,1,1,0,2,1,0,3,1,1,0,1,1,1,1,1,2,1,1,3,1,2,0,1,2,1,1,2,2,1,2,3,1,3,0,1,3,1,1,3,2,1,3,3,2,0,0,2,0,1,2,0,2,2,0,3,2,1,0,2,1,1,2,1,2,2,1,3,2,2,0,2,2,1,2,2,2,2,2,3,2,3,0,2,3,2,2,3,3,3,0,0,3,0,1,3,0,2,3,0,3,3,1,0,3,1,1,3,1,2,3,1,3,3,2,0,3,2,1,3,2,2,3,2,3,3,3,0,3,3,1,3,3,2,3,3,3,0,0,0,0,0,2,0,1,0,0,1,2,0,2,0,0,2,2,0,3,0,0,3,2,1,0,0,1,0,2,1,1,0,1,1,2,1,2,0,1,2,2,1,3,0,1,3,2,2,0,0,2,0,2,2,1,0,2,1,2,2,2,0,2,2,2,2,3,0,2,3,2,3,0,0,3,0,2,3,1,0,3,2,0,3,2,2,3,3,0,3,3,2,0,0,0,0,0,1,0,0,2,0,0,3,0,1,0,0,1,1,0,1,2,0,1,3,0,2,0,0,2,1,0,2,2,0,2,3,0,3,0,0,3,1,0,3,2,0,3,3,1,0,0,1,0,1,1,0,2,1,0,3,1,1,0,1,1,1,1,1,2,1,1,3,1,2,0,1,2,1,1,2,2,1,2,3,1,3,0,1,3,1,1,3,2,1,3,3,2,0,0,2,0,1,2,0,2,2,0,3,2,1,0,2,1,1,2,1,2,2,2,0,2,2,1,2,2,2,2,2,3,2,3,0,2,3,1,2,3,2,2,3,3,3,0,0,3,0,1,3,0,2,3,0,3,3,1,0,3,1,1,3,1,2,3,1,3,3,2,0,3,2,1,3,2,2,3,2,3,3,3,0,3,3,1,3,3,2,3,3,3,0,0,0,0,0,1,0,0,2,0,0,3,0,2,0,0,2,1,0,2,2,0,2,3,1,0,0,1,0,1,1,0,2,1,0,3,1,2,0,1,2,1,1,2,2,1,2,3,2,0,0,2,0,1,2,0,2,2,0,3,2,2,0,2,2,1,2,2,2,2,2,3,3,0,0,3,0,1,3,0,2,3,0,3,3,2,0,3,2,2,3,2,3,0,0,0,0,0,1,0,0,2,0,0,3,0,2,0,0,2,1,0,2,2,0,2,3,1,0,0,1,0,1,1,0,2,1,0,3,1,2,0,1,2,1,1,2,2,1,2,3,2,0,0,2,0,1,2,0,2,2,0,3,2,2,0,2,2,1,2,2,2,2,2,3,3,0,0,3,0,1,3,0,2,3,0,3,3,2,0,3,2,2,3,2,3,0,0,0,0,0,1,0,0,2,0,0,3,0,1,0,0,1,1,0,1,2,0,1,3,0,2,0,0,2,1,0,2,2,0,2,3,0,3,0,0,3,1,0,3,2,0,3,3,1,0,0,1,0,1,1,0,2,1,0,3,1,1,0,1,1,1,1,1,2,1,1,3,1,2,0,1,2,1,1,2,2,1,2,3,1,3,0,1,3,1,1,3,2,1,3,3,2,0,0,2,0,1,2,0,2,2,0,3,2,1,0,2,1,1,2,1,2,2,1,3,2,2,0,2,2,1,2,2,2,2,2,3,2,3,0,2,3,1,2,3,2,2,3,3,3,0,0,3,0,1,3,0,2,3,0,3,3,1,0,3,1,1,3,1,3,3,2,0,3,2,1,3,2,2,3,2,3,3,3,0,3,3,1,3,3,2,3,3,3,0,0,0,0,0,1,0,0,2,0,0,3,0,1,0,0,1,1,0,1,2,0,1,3,0,2,0,0,2,1,0,2,2,0,2,3,0,3,0,0,3,1,0,3,2,0,3,3,1,0,0,1,0,1,1,0,2,1,0,3,1,1,0,1,1,1,1,1,2,1,1,3,1,2,0,1,2,1,1,2,2,1,2,3,1,3,0,1,3,1,1,3,2,1,3,3,2,0,0,2,0,1,2,0,2,2,0,3,2,1,0,2,1,1,2,1,2,2,1,3,2,2,0,2,2,1,2,2,2,2,2,3,2,3,0,2,3,2,2,3,3,3,0,0,3,0,1,3,0,2,3,0,3,3,1,0,3,1,1,3,1,2,3,1,3,3,2,0,3,2,1,3,2,2,3,2,3,3,3,0,3,3,1,3,3,2,3,3,3,0,0,0,0,0,1,0,0,2,0,0,3,0,1,0,0,1,1,0,1,2,0,1,3,0,2,0,0,2,1,0,2,2,0,2,3,0,3,0,0,3,1,0,3,2,0,3,3,1,0,0,1,0,1,1,0,2,1,0,3,1,1,0,1,1,1,1,1,2,1,1,3,1,2,0,1,2,1,1,2,2,1,2,3,1,3,0,1,3,1,1,3,2,1,3,3,2,0,0,2,0,1,2,0,2,2,0,3,2,1,0,2,1,1,2,1,2,2,1,3,2,2,0,2,2,1,2,2,2,2,2,3,2,3,0,2,3,2,2,3,3,3,0,0,3,0,1,3,0,2,3,0,3,3,1,0,3,1,1,3,1,2,3,1,3,3,2,0,3,2,1,3,2,2,3,2,3,3,3,0,3,3,1,3,3,2,3,3,3,0,0,0,0,0,1,0,0,2,0,0,3,0,1,0,0,1,1,0,1,2,0,1,3,0,2,0,0,2,1,0,2,2,0,2,3,0,3,0,0,3,1,0,3,2,0,3,3,1,0,0,1,0,1,1,0,2,1,0,3,1,1,0,1,1,1,1,1,2,1,1,3,1,2,0,1,2,1,1,2,2,1,2,3,1,3,0,1,3,1,1,3,2,1,3,3,2,0,0,2,0,1,2,0,2,2,0,3,2,1,0,2,1,1,2,1,2,2,1,3,2,2,0,2,2,1,2,2,2,2,2,3,2,3,0,2,3,2,2,3,3,3,0,0,3,0,1,3,0,2,3,0,3,3,1,0,3,1,1,3,1,2,3,1,3,3,2,0,3,2,1,3,2,2,3,2,3,3,3,0,3,3,1,3,3,2,3,3,3,0,0,0,0,0,1,0,0,2,0,0,3,0,1,0,0,1,1,0,1,2,0,1,3,0,2,0,0,2,1,0,2,2,0,2,3,0,3,0,0,3,1,0,3,2,0,3,3,1,0,0,1,0,1,1,0,2,1,0,3,1,1,0,1,1,1,1,1,2,1,1,3,1,2,0,1,2,1,1,2,2,1,2,3,1,3,0,1,3,1,1,3,2,1,3,3,2,0,0,2,0,1,2,0,2,2,0,3,2,1,0,2,1,1,2,1,2,2,1,3,2,2,0,2,2,1,2,2,2,2,2,3,2,3,0,2,3,2,2,3,3,3,0,0,3,0,1,3,0,2,3,0,3,3,1,0,3,1,1,3,1,2,3,1,3,3,2,0,3,2,1,3,2,2,3,2,3,3,3,0,3,3,1,3,3,2,3,3,3,0,0,0,0,0,1,0,0,2,0,0,3,0,1,0,0,1,1,0,1,2,0,1,3,0,2,0,0,2,1,0,2,2,0,2,3,0,3,0,0,3,1,0,3,2,0,3,3,1,0,0,1,0,1,1,0,2,1,0,3,1,1,0,1,1,1,1,1,2,1,1,3,1,2,0,1,2,1,1,2,2,1,2,3,1,3,0,1,3,1,1,3,2,1,3,3,2,0,0,2,0,1,2,0,2,2,0,3,2,1,0,2,1,1,2,1,2,2,1,3,2,2,0,2,2,1,2,2,2,2,2,3,2,3,0,2,3,2,2,3,3,3,0,0,3,0,1,3,0,2,3,0,3,3,1,0,3,1,1,3,1,2,3,1,3,3,2,0,3,2,1,3,2,2,3,2,3,3,3,0,3,3,1,3,3,2,3,3,3,0,0,0,0,0,1,0,0,2,0,0,3,0,1,0,0,1,1,0,1,2,0,1,3,0,2,0,0,2,1,0,2,2,0,2,3,0,3,0,0,3,1,0,3,2,0,3,3,1,0,0,1,0,1,1,0,2,1,0,3,1,1,0,1,1,1,1,1,2,1,1,3,1,2,0,1,2,1,1,2,2,1,2,3,1,3,0,1,3,1,1,3,2,1,3,3,2,0,0,2,0,1,2,0,2,2,0,3,2,1,0,2,1,1,2,1,2,2,1,3,2,2,0,2,2,1,2,2,2,2,2,3,2,3,0,2,3,2,2,3,3,3,0,0,3,0,1,3,0,2,3,0,3,3,1,0,3,1,1,3,1,2,3,1,3,3,2,0,3,2,1,3,2,2,3,2,3,3,3,0,3,3,1,3,3,2,3,3,3,0,0,0,0,0,1,0,0,2,0,0,3,0,1,0,0,1,1,0,1,2,0,1,3,0,2,0,0,2,1,0,2,2,0,2,3,0,3,0,0,3,1,0,3,2,0,3,3,1,0,0,1,0,1,1,0,2,1,0,3,1,1,0,1,1,1,1,1,2,1,1,3,1,2,0,1,2,1,1,2,2,1,2,3,1,3,0,1,3,1,1,3,2,1,3,3,2,0,0,2,0,1,2,0,2,2,0,3,2,1,0,2,1,1,2,1,2,2,1,3,2,2,0,2,2,1,2,2,2,2,2,3,2,3,0,2,3,2,2,3,3,3,0,0,3,0,1,3,0,2,3,0,3,3,1,0,3,1,1,3,1,2,3,1,3,3,2,0,3,2,1,3,2,2,3,2,3,3,3,0,3,3,1,3,3,2,3,3,3,0,0,0,0,0,1,0,0,2,0,0,3,0,1,0,0,1,1,0,1,2,0,1,3,0,2,0,0,2,1,0,2,2,0,2,3,0,3,0,0,3,1,0,3,2,0,3,3,1,0,0,1,0,1,1,0,2,1,0,3,1,1,0,1,1,1,1,1,2,1,1,3,1,2,0,1,2,1,1,2,2,1,2,3,1,3,0,1,3,1,1,3,2,1,3,3,2,0,0,2,0,1,2,0,2,2,0,3,2,1,0,2,1,1,2,1,2,2,1,3,2,2,0,2,2,1,2,2,2,2,2,3,2,3,0,2,3,2,2,3,3,3,0,0,3,0,1,3,0,2,3,0,3,3,1,0,3,1,1,3,1,2,3,1,3,3,2,0,3,2,1,3,2,2,3,2,3,3,3,0,3,3,1,3,3,2,3,3,3,0,0,0,0,0,1,0,0,2,0,0,3,0,1,0,0,1,1,0,1,2,0,1,3,0,2,0,0,2,1,0,2,2,0,2,3,0,3,0,0,3,1,0,3,2,0,3,3,1,0,0,1,0,1,1,0,2,1,0,3,1,1,0,1,1,1,1,1,2,1,1,3,1,2,0,1,2,1,1,2,2,1,2,3,1,3,0,1,3,1,1,3,2,1,3,3,2,0,0,2,0,1,2,0,2,2,0,3,2,1,0,2,1,1,2,1,2,2,1,3,2,2,0,2,2,1,2,2,2,2,2,3,2,3,0,2,3,2,2,3,3,3,0,0,3,0,1,3,0,2,3,0,3,3,1,0,3,1,1,3,1,2,3,1,3,3,2,0,3,2,1,3,2,2,3,2,3,3,3,0,3,3,1,3,3,2,3,3,3,0,0,0,0,0,1,0,0,2,0,0,3,0,1,0,0,1,1,0,1,2,0,1,3,0,2,0,0,2,1,0,2,2,0,2,3,0,3,0,0,3,1,0,3,2,0,3,3,1,0,0,1,0,1,1,0,2,1,0,3,1,1,0,1,1,1,1,1,2,1,1,3,1,2,0,1,2,1,1,2,2,1,2,3,1,3,0,1,3,1,1,3,3,2,0,0,2,0,1,2,0,2,2,0,3,2,1,0,2,1,1,2,1,2,2,1,3,2,2,0,2,2,1,2,2,2,2,2,3,2,3,0,2,3,1,2,3,2,2,3,3,3,0,0,3,0,1,3,0,2,3,0,3,3,1,0,3,1,1,3,1,2,3,1,3,3,2,0,3,2,1,3,2,2,3,2,3,3,3,0,3,3,1,3,3,2,3,3,3,0,0,0,0,0,1,0,0,2,0,0,3,0,1,0,0,1,1,0,1,2,0,1,3,0,2,0,0,2,1,0,2,2,0,2,3,0,3,0,0,3,1,0,3,2,0,3,3,1,0,0,1,0,1,1,0,2,1,0,3,1,1,0,1,1,1,1,1,2,1,1,3,1,2,0,1,2,1,1,2,2,1,2,3,1,3,0,1,3,1,1,3,2,1,3,3,2,0,0,2,0,1,2,0,2,2,0,3,2,1,0,2,1,1,2,1,2,2,1,3,2,2,0,2,2,1,2,2,2,2,2,3,2,3,0,2,3,1,2,3,2,2,3,3,3,0,0,3,0,1,3,0,2,3,0,3,3,1,0,3,1,1,3,1,3,3,2,0,3,2,1,3,2,2,3,2,3,3,3,0,3,3,1,3,3,2,3,3,3,0,0,0,0,0,2,0,13,0,0,13,2,13,0,0,13,0,2,13,13,0,0,0,0,0,0,1,0,0,2,0,0,3,0,1,0,0,1,1,0,1,2,0,1,3,0,2,0,0,2,1,0,2,2,0,2,3,0,3,0,0,3,1,0,3,2,0,3,3,13,0,0,13,0,1,13,0,2,13,0,3,13,1,0,13,1,1,13,1,2,13,1,3,13,2,0,13,2,2,13,2,3,13,3,0,13,3,1,13,3,2,13,3,3,0,0,0,0,0,1,0,0,2,0,0,3,0,1,0,0,1,1,0,1,2,0,1,3,0,2,0,0,2,1,0,2,2,0,2,3,0,3,0,0,3,1,0,3,2,0,3,3,13,0,0,13,0,1,13,0,2,13,0,3,13,1,0,13,1,1,13,1,2,13,1,3,13,2,0,13,2,2,13,2,3,13,3,0,13,3,1,13,3,2,13,3,3,0,0,0,0,0,1,0,0,2,0,0,3,0,1,0,0,1,1,0,1,2,0,1,3,0,2,0,0,2,1,0,2,2,0,2,3,0,3,0,0,3,1,0,3,2,0,3,3,1,0,0,1,0,1,1,0,2,1,0,3,1,1,0,1,1,1,1,1,2,1,1,3,1,2,0,1,2,1,1,2,2,1,2,3,1,3,0,1,3,1,1,3,2,1,3,3,2,0,0,2,0,1,2,0,2,2,0,3,2,1,0,2,1,1,2,1,2,2,1,3,2,2,0,2,2,1,2,2,2,2,2,3,2,3,0,2,3,2,2,3,3,3,0,0,3,0,1,3,0,2,3,0,3,3,1,0,3,1,1,3,1,2,3,1,3,3,2,0,3,2,1,3,2,2,3,2,3,3,3,0,3,3,1,3,3,2,3,3,3,0,0,0,0,0,1,0,0,2,0,0,3,0,1,0,0,1,1,0,1,2,0,1,3,0,2,0,0,2,1,0,2,2,0,2,3,0,3,0,0,3,1,0,3,2,0,3,3,1,0,0,1,0,1,1,0,2,1,0,3,1,1,0,1,1,1,1,1,2,1,1,3,1,2,0,1,2,1,1,2,2,1,2,3,1,3,0,1,3,1,1,3,3,2,0,0,2,0,1,2,0,2,2,0,3,2,1,0,2,1,1,2,1,2,2,1,3,2,2,0,2,2,1,2,2,2,2,2,3,2,3,0,2,3,1,2,3,2,2,3,3,3,0,0,3,0,1,3,0,2,3,0,3,3,1,0,3,1,1,3,1,2,3,1,3,3,2,0,3,2,1,3,2,2,3,2,3,3,3,0,3,3,1,3,3,2,3,3,3,0,0,0,0,0,1,0,0,2,0,0,3,0,1,0,0,1,1,0,1,2,0,1,3,0,2,0,0,2,1,0,2,2,0,2,3,0,3,0,0,3,1,0,3,2,0,3,3,1,0,0,1,0,1,1,0,2,1,0,3,1,1,0,1,1,1,1,1,2,1,1,3,1,2,0,1,2,1,1,2,2,1,2,3,1,3,0,1,3,1,1,3,2,1,3,3,2,0,0,2,0,1,2,0,2,2,0,3,2,1,0,2,1,1,2,1,2,2,1,3,2,2,0,2,2,1,2,2,2,2,2,3,2,3,0,2,3,2,2,3,3,3,0,0,3,0,1,3,0,2,3,0,3,3,1,0,3,1,1,3,1,2,3,1,3,3,2,0,3,2,1,3,2,2,3,2,3,3,3,0,3,3,1,3,3,2,3,3,3,0,0,0,0,0,1,0,0,2,0,0,3,0,1,0,0,1,1,0,1,2,0,1,3,0,2,0,0,2,1,0,2,2,0,2,3,0,3,0,0,3,1,0,3,2,0,3,3,1,0,0,1,0,1,1,0,2,1,0,3,1,1,0,1,1,1,1,1,2,1,1,3,1,2,0,1,2,1,1,2,2,1,2,3,1,3,0,1,3,1,1,3,2,1,3,3,2,0,0,2,0,1,2,0,2,2,0,3,2,1,0,2,1,1,2,1,2,2,1,3,2,2,0,2,2,1,2,2,2,2,2,3,2,3,0,2,3,2,2,3,3,3,0,0,3,0,1,3,0,2,3,0,3,3,1,0,3,1,1,3,1,2,3,1,3,3,2,0,3,2,1,3,2,2,3,2,3,3,3,0,3,3,1,3,3,2,3,3,3,0,0,0,0,0,1,0,0,2,0,0,3,0,1,0,0,1,1,0,1,2,0,1,3,0,2,0,0,2,1,0,2,2,0,2,3,0,3,0,0,3,1,0,3,2,0,3,3,1,0,0,1,0,1,1,0,2,1,0,3,1,1,0,1,1,1,1,1,2,1,1,3,1,2,0,1,2,1,1,2,2,1,2,3,1,3,0,1,3,1,1,3,2,1,3,3,2,0,0,2,0,1,2,0,2,2,0,3,2,1,0,2,1,1,2,1,2,2,1,3,2,2,0,2,2,1,2,2,2,2,2,3,2,3,0,2,3,2,2,3,3,3,0,0,3,0,1,3,0,2,3,0,3,3,1,0,3,1,1,3,1,2,3,1,3,3,2,0,3,2,1,3,2,2,3,2,3,3,3,0,3,3,1,3,3,2,3,3,3,0,0,0,0,0,1,0,0,2,0,0,3,0,1,0,0,1,1,0,1,2,0,1,3,0,2,0,0,2,1,0,2,2,0,2,3,0,3,0,0,3,1,0,3,2,0,3,3,13,0,0,13,0,1,13,0,2,13,0,3,13,1,0,13,1,1,13,1,2,13,1,3,13,2,0,13,2,2,13,2,3,13,3,0,13,3,1,13,3,2,13,3,3,0,0,0,0,0,1,0,0,2,0,0,3,0,1,0,0,1,1,0,1,2,0,1,3,0,2,0,0,2,1,0,2,2,0,2,3,0,3,0,0,3,1,0,3,2,0,3,3,1,0,0,1,0,1,1,0,2,1,0,3,1,1,0,1,1,1,1,1,2,1,1,3,1,2,0,1,2,1,1,2,2,1,2,3,1,3,0,1,3,1,1,3,2,1,3,3,2,0,0,2,0,1,2,0,2,2,0,3,2,1,0,2,1,1,2,1,2,2,1,3,2,2,0,2,2,1,2,2,2,2,2,3,2,3,0,2,3,1,2,3,2,2,3,3,3,0,0,3,0,1,3,0,2,3,0,3,3,1,0,3,1,1,3,1,3,3,2,0,3,2,1,3,2,2,3,2,3,3,3,0,3,3,1,3,3,2,3,3,3,0,0,0,0,0,1,0,0,2,0,0,3,0,1,0,0,1,1,0,1,2,0,1,3,0,2,0,0,2,1,0,2,2,0,2,3,0,3,0,0,3,1,0,3,2,0,3,3,1,0,0,1,0,1,1,0,2,1,0,3,1,1,0,1,1,1,1,1,2,1,1,3,1,2,0,1,2,1,1,2,2,1,2,3,1,3,0,1,3,1,1,3,2,1,3,3,2,0,0,2,0,1,2,0,2,2,0,3,2,1,0,2,1,1,2,1,2,2,1,3,2,2,0,2,2,1,2,2,2,2,2,3,2,3,0,2,3,1,2,3,2,2,3,3,3,0,0,3,0,1,3,0,2,3,0,3,3,1,0,3,1,1,3,1,2,3,1,3,3,2,0,3,2,2,3,2,3,3,3,0,3,3,1,3,3,2,3,3,3,0,0,0,0,0,1,0,0,2,0,0,3,0,1,0,0,1,1,0,1,2,0,1,3,0,2,0,0,2,1,0,2,2,0,2,3,0,3,0,0,3,1,0,3,2,0,3,3,1,0,0,1,0,1,1,0,2,1,0,3,1,1,0,1,1,1,1,1,2,1,1,3,1,2,0,1,2,1,1,2,2,1,2,3,1,3,0,1,3,1,1,3,2,1,3,3,2,0,0,2,0,1,2,0,2,2,0,3,2,1,0,2,1,1,2,1,2,2,1,3,2,2,0,2,2,1,2,2,2,2,2,3,2,3,0,2,3,2,2,3,3,3,0,0,3,0,1,3,0,2,3,0,3,3,1,0,3,1,1,3,1,2,3,1,3,3,2,0,3,2,1,3,2,2,3,2,3,3,3,0,3,3,1,3,3,2,3,3,3,0,0,0,0,0,1,0,0,2,0,0,3,0,1,0,0,1,1,0,1,2,0,1,3,0,2,0,0,2,1,0,2,2,0,2,3,0,3,0,0,3,1,0,3,2,0,3,3,13,0,0,13,0,1,13,0,2,13,0,3,13,1,0,13,1,1,13,1,2,13,1,3,13,2,0,13,2,2,13,2,3,13,3,0,13,3,1,13,3,2,13,3,3,0,0,0,0,0,2,0,1,0,0,1,2,0,2,0,0,2,2,0,3,0,0,3,2,1,0,0,1,0,2,1,1,0,1,1,2,1,2,0,1,2,2,1,3,0,1,3,2,2,0,0,2,0,2,2,1,0,2,1,2,2,2,0,2,2,2,2,3,0,2,3,2,3,0,0,3,0,2,3,1,0,3,2,0,3,2,2,3,3,0,3,3,2,0,0,0,0,0,1,0,0,2,0,0,3,0,1,0,0,1,1,0,1,2,0,1,3,0,2,0,0,2,1,0,2,2,0,2,3,0,3,0,0,3,1,0,3,2,0,3,3,1,0,0,1,0,1,1,0,2,1,0,3,1,1,0,1,1,1,1,1,2,1,1,3,1,2,0,1,2,1,1,2,2,1,2,3,1,3,0,1,3,1,1,3,2,1,3,3,2,0,0,2,0,1,2,0,2,2,0,3,2,1,0,2,1,1,2,1,2,2,1,3,2,2,0,2,2,1,2,2,2,2,2,3,2,3,0,2,3,2,2,3,3,3,0,0,3,0,1,3,0,2,3,0,3,3,1,0,3,1,1,3,1,2,3,1,3,3,2,0,3,2,1,3,2,2,3,2,3,3,3,0,3,3,1,3,3,2,3,3,3,0,0,0,0,0,1,0,0,2,0,0,3,0,1,0,0,1,1,0,1,2,0,1,3,0,2,0,0,2,1,0,2,2,0,2,3,0,3,0,0,3,1,0,3,2,0,3,3,1,0,0,1,0,1,1,0,2,1,0,3,1,1,0,1,1,1,1,1,2,1,1,3,1,2,0,1,2,1,1,2,2,1,2,3,1,3,0,1,3,1,1,3,2,1,3,3,2,0,0,2,0,1,2,0,2,2,0,3,2,1,0,2,1,1,2,1,2,2,1,3,2,2,0,2,2,1,2,2,2,2,2,3,2,3,0,2,3,1,2,3,2,2,3,3,3,0,0,3,0,1,3,0,2,3,0,3,3,1,0,3,1,1,3,1,2,3,1,3,3,2,0,3,2,2,3,2,3,3,3,0,3,3,1,3,3,2,3,3,3,0,0,0,0,0,1,0,0,2,0,0,3,0,1,0,0,1,1,0,1,2,0,1,3,0,2,0,0,2,1,0,2,2,0,2,3,0,3,0,0,3,1,0,3,2,0,3,3,1,0,0,1,0,1,1,0,2,1,0,3,1,1,0,1,1,1,1,1,2,1,1,3,1,2,0,1,2,1,1,2,2,1,2,3,1,3,0,1,3,1,1,3,2,1,3,3,2,0,0,2,0,1,2,0,2,2,0,3,2,1,0,2,1,1,2,1,2,2,1,3,2,2,0,2,2,1,2,2,2,2,2,3,2,3,0,2,3,1,2,3,2,2,3,3,3,0,0,3,0,1,3,0,2,3,0,3,3,1,0,3,1,1,3,1,3,3,2,0,3,2,1,3,2,2,3,2,3,3,3,0,3,3,1,3,3,2,3,3,3,0,0,0,0,0,1,0,0,2,0,0,3,0,1,0,0,1,1,0,1,2,0,1,3,0,2,0,0,2,1,0,2,2,0,2,3,0,3,0,0,3,1,0,3,2,0,3,3,1,0,0,1,0,1,1,0,2,1,0,3,1,1,0,1,1,1,1,1,2,1,1,3,1,2,0,1,2,1,1,2,2,1,2,3,1,3,0,1,3,1,1,3,2,1,3,3,2,0,0,2,0,1,2,0,2,2,0,3,2,1,0,2,1,1,2,1,2,2,1,3,2,2,0,2,2,1,2,2,2,2,2,3,2,3,0,2,3,2,2,3,3,3,0,0,3,0,1,3,0,2,3,0,3,3,1,0,3,1,1,3,1,2,3,1,3,3,2,0,3,2,1,3,2,2,3,2,3,3,3,0,3,3,1,3,3,2,3,3,3,0,0,0,0,0,1,0,0,2,0,0,3,0,1,0,0,1,1,0,1,2,0,1,3,0,2,0,0,2,1,0,2,2,0,2,3,0,3,0,0,3,1,0,3,2,0,3,3,1,0,0,1,0,1,1,0,2,1,0,3,1,1,0,1,1,1,1,1,2,1,1,3,1,2,0,1,2,1,1,2,2,1,2,3,1,3,0,1,3,1,1,3,2,1,3,3,2,0,0,2,0,1,2,0,2,2,0,3,2,1,0,2,1,1,2,1,2,2,1,3,2,2,0,2,2,1,2,2,2,2,2,3,2,3,0,2,3,2,2,3,3,3,0,0,3,0,1,3,0,2,3,0,3,3,1,0,3,1,1,3,1,2,3,1,3,3,2,0,3,2,1,3,2,2,3,2,3,3,3,0,3,3,1,3,3,2,3,3,3,0,0,0,0,0,1,0,0,2,0,0,3,0,1,0,0,1,1,0,1,2,0,1,3,0,2,0,0,2,1,0,2,2,0,2,3,0,3,0,0,3,1,0,3,2,0,3,3,1,0,0,1,0,1,1,0,2,1,0,3,1,1,0,1,1,1,1,1,2,1,1,3,1,2,0,1,2,1,1,2,2,1,2,3,1,3,0,1,3,1,1,3,2,1,3,3,2,0,0,2,0,1,2,0,2,2,0,3,2,1,0,2,1,1,2,1,2,2,1,3,2,2,0,2,2,1,2,2,2,2,2,3,2,3,0,2,3,2,2,3,3,3,0,0,3,0,1,3,0,2,3,0,3,3,1,0,3,1,1,3,1,2,3,1,3,3,2,0,3,2,1,3,2,2,3,2,3,3,3,0,3,3,1,3,3,2,3,3,3,0,0,0,0,0,1,0,0,2,0,0,3,0,1,0,0,1,1,0,1,2,0,1,3,0,2,0,0,2,1,0,2,2,0,2,3,0,3,0,0,3,1,0,3,2,0,3,3,13,0,0,13,0,1,13,0,2,13,0,3,13,1,0,13,1,1,13,1,2,13,1,3,13,2,0,13,2,2,13,2,3,13,3,0,13,3,1,13,3,2,13,3,3,0,0,0,0,0,1,0,0,2,0,0,3,0,1,0,0,1,1,0,1,2,0,1,3,0,2,0,0,2,1,0,2,2,0,2,3,0,3,0,0,3,1,0,3,2,0,3,3,1,0,0,1,0,1,1,0,2,1,0,3,1,1,0,1,1,1,1,1,2,1,1,3,1,2,0,1,2,1,1,2,2,1,2,3,1,3,0,1,3,1,1,3,2,1,3,3,2,0,0,2,0,1,2,0,2,2,0,3,2,1,0,2,1,1,2,1,2,2,1,3,2,2,0,2,2,1,2,2,2,2,2,3,2,3,0,2,3,2,2,3,3,3,0,0,3,0,1,3,0,2,3,0,3,3,1,0,3,1,1,3,1,2,3,1,3,3,2,0,3,2,1,3,2,2,3,2,3,3,3,0,3,3,1,3,3,2,3,3,3,0,0,0,0,0,1,0,0,2,0,0,3,0,1,0,0,1,1,0,1,2,0,1,3,0,2,0,0,2,1,0,2,2,0,2,3,0,3,0,0,3,1,0,3,2,0,3,3,1,0,0,1,0,1,1,0,2,1,0,3,1,1,0,1,1,1,1,1,2,1,1,3,1,2,0,1,2,1,1,2,2,1,2,3,1,3,0,1,3,1,1,3,2,1,3,3,2,0,0,2,0,1,2,0,2,2,0,3,2,1,0,2,1,1,2,1,2,2,1,3,2,2,0,2,2,1,2,2,2,2,2,3,2,3,0,2,3,2,2,3,3,3,0,0,3,0,1,3,0,2,3,0,3,3,1,0,3,1,1,3,1,2,3,1,3,3,2,0,3,2,1,3,2,2,3,2,3,3,3,0,3,3,1,3,3,2,3,3,3,0,0,0,0,0,1,0,0,2,0,0,3,0,1,0,0,1,1,0,1,2,0,1,3,0,2,0,0,2,1,0,2,2,0,2,3,0,3,0,0,3,1,0,3,2,0,3,3,1,0,0,1,0,1,1,0,2,1,0,3,1,1,0,1,1,1,1,1,2,1,1,3,1,2,0,1,2,1,1,2,2,1,2,3,1,3,0,1,3,1,1,3,2,1,3,3,2,0,0,2,0,1,2,0,2,2,0,3,2,1,0,2,1,1,2,1,2,2,1,3,2,2,0,2,2,1,2,2,2,2,2,3,2,3,0,2,3,1,2,3,2,2,3,3,3,0,0,3,0,1,3,0,2,3,0,3,3,1,0,3,1,1,3,1,3,3,2,0,3,2,1,3,2,2,3,2,3,3,3,0,3,3,1,3,3,2,3,3,3,0,0,0,0,0,1,0,0,2,0,0,3,0,1,0,0,1,1,0,1,2,0,1,3,0,2,0,0,2,1,0,2,2,0,2,3,0,3,0,0,3,1,0,3,2,0,3,3,1,0,0,1,0,1,1,0,2,1,0,3,1,1,0,1,1,1,1,1,2,1,1,3,1,2,0,1,2,1,1,2,2,1,2,3,1,3,0,1,3,1,1,3,2,1,3,3,2,0,0,2,0,1,2,0,2,2,0,3,2,1,0,2,1,1,2,1,2,2,1,3,2,2,0,2,2,1,2,2,2,2,2,3,2,3,0,2,3,1,2,3,2,2,3,3,3,0,0,3,0,1,3,0,2,3,0,3,3,1,0,3,1,1,3,1,2,3,1,3,3,2,0,3,2,2,3,2,3,3,3,0,3,3,1,3,3,2,3,3,3,0,0,0,0,0,1,0,0,2,0,0,3,0,1,0,0,1,1,0,1,2,0,1,3,0,2,0,0,2,1,0,2,2,0,2,3,0,3,0,0,3,1,0,3,2,0,3,3,13,0,0,13,0,1,13,0,2,13,0,3,13,1,0,13,1,1,13,1,2,13,1,3,13,2,0,13,2,2,13,2,3,13,3,0,13,3,1,13,3,2,13,3,3,0,0,0,0,0,1,0,0,2,0,0,3,0,1,0,0,1,1,0,1,2,0,1,3,0,2,0,0,2,1,0,2,2,0,2,3,0,3,0,0,3,1,0,3,2,0,3,3,1,0,0,1,0,1,1,0,2,1,0,3,1,1,0,1,1,1,1,1,2,1,1,3,1,2,0,1,2,1,1,2,2,1,2,3,1,3,0,1,3,1,1,3,2,1,3,3,2,0,0,2,0,1,2,0,2,2,0,3,2,1,0,2,1,1,2,1,2,2,1,3,2,2,0,2,2,1,2,2,2,2,2,3,2,3,0,2,3,2,2,3,3,3,0,0,3,0,1,3,0,2,3,0,3,3,1,0,3,1,1,3,1,2,3,1,3,3,2,0,3,2,1,3,2,2,3,2,3,3,3,0,3,3,1,3,3,2,3,3,3,0,0,0,0,0,1,0,0,2,0,0,3,0,1,0,0,1,1,0,1,2,0,1,3,0,2,0,0,2,1,0,2,2,0,2,3,0,3,0,0,3,1,0,3,2,0,3,3,13,0,0,13,0,1,13,0,2,13,0,3,13,1,0,13,1,1,13,1,2,13,1,3,13,2,0,13,2,2,13,2,3,13,3,0,13,3,1,13,3,2,13,3,3,0,0,0,0,0,1,0,0,2,0,0,3,0,1,0,0,1,1,0,1,2,0,1,3,0,2,0,0,2,1,0,2,2,0,2,3,0,3,0,0,3,1,0,3,2,0,3,3,1,0,0,1,0,1,1,0,2,1,0,3,1,1,0,1,1,1,1,1,2,1,1,3,1,2,0,1,2,1,1,2,2,1,2,3,1,3,0,1,3,1,1,3,2,1,3,3,2,0,0,2,0,1,2,0,2,2,0,3,2,1,0,2,1,1,2,1,2,2,1,3,2,2,0,2,2,1,2,2,2,2,2,3,2,3,0,2,3,2,2,3,3,3,0,0,3,0,1,3,0,2,3,0,3,3,1,0,3,1,1,3,1,2,3,1,3,3,2,0,3,2,1,3,2,2,3,2,3,3,3,0,3,3,1,3,3,2,3,3,3,0,0,0,0,0,1,0,0,2,0,0,3,0,1,0,0,1,1,0,1,2,0,1,3,0,2,0,0,2,1,0,2,2,0,2,3,0,3,0,0,3,1,0,3,2,0,3,3,1,0,0,1,0,1,1,0,2,1,0,3,1,1,0,1,1,1,1,1,2,1,1,3,1,2,0,1,2,1,1,2,2,1,2,3,1,3,0,1,3,1,1,3,2,1,3,3,2,0,0,2,0,1,2,0,2,2,0,3,2,1,0,2,1,1,2,1,2,2,1,3,2,2,0,2,2,1,2,2,2,2,2,3,2,3,0,2,3,2,2,3,3,3,0,0,3,0,1,3,0,2,3,0,3,3,1,0,3,1,1,3,1,2,3,1,3,3,2,0,3,2,1,3,2,2,3,2,3,3,3,0,3,3,1,3,3,2,3,3,3,0,0,0,0,0,1,0,0,2,0,0,3,0,1,0,0,1,1,0,1,2,0,1,3,0,2,0,0,2,1,0,2,2,0,2,3,0,3,0,0,3,1,0,3,2,0,3,3,1,0,0,1,0,1,1,0,2,1,0,3,1,1,0,1,1,1,1,1,2,1,1,3,1,2,0,1,2,1,1,2,2,1,2,3,1,3,0,1,3,1,1,3,2,1,3,3,2,0,0,2,0,1,2,0,2,2,0,3,2,1,0,2,1,1,2,1,2,2,1,3,2,2,0,2,2,1,2,2,2,2,2,3,2,3,0,2,3,1,2,3,2,2,3,3,3,0,0,3,0,1,3,0,2,3,0,3,3,1,0,3,1,1,3,1,3,3,2,0,3,2,1,3,2,2,3,2,3,3,3,0,3,3,1,3,3,2,3,3,3,0,0,0,0,0,1,0,0,2,0,0,3,0,1,0,0,1,1,0,1,2,0,1,3,0,2,0,0,2,1,0,2,2,0,2,3,0,3,0,0,3,1,0,3,2,0,3,3,13,0,0,13,0,1,13,0,2,13,0,3,13,1,0,13,1,1,13,1,2,13,1,3,13,2,0,13,2,2,13,2,3,13,3,0,13,3,1,13,3,2,13,3,3,0,0,0,0,0,1,0,0,2,0,0,3,0,1,0,0,1,1,0,1,2,0,1,3,0,2,0,0,2,1,0,2,2,0,2,3,0,3,0,0,3,1,0,3,2,0,3,3,1,0,0,1,0,1,1,0,2,1,0,3,1,1,0,1,1,1,1,1,2,1,1,3,1,2,0,1,2,1,1,2,2,1,2,3,1,3,0,1,3,1,1,3,2,1,3,3,2,0,0,2,0,1,2,0,2,2,0,3,2,1,0,2,1,1,2,1,2,2,1,3,2,2,0,2,2,1,2,2,2,2,2,3,2,3,0,2,3,2,2,3,3,3,0,0,3,0,1,3,0,2,3,0,3,3,1,0,3,1,1,3,1,2,3,1,3,3,2,0,3,2,1,3,2,2,3,2,3,3,3,0,3,3,1,3,3,2,3,3,3,0,0,0,0,0,1,0,0,2,0,0,3,0,1,0,0,1,1,0,1,2,0,1,3,0,2,0,0,2,1,0,2,2,0,2,3,0,3,0,0,3,1,0,3,2,0,3,3,1,0,0,1,0,1,1,0,2,1,0,3,1,1,0,1,1,1,1,1,2,1,1,3,1,2,0,1,2,1,1,2,2,1,2,3,1,3,0,1,3,1,1,3,2,1,3,3,2,0,0,2,0,1,2,0,2,2,0,3,2,1,0,2,1,1,2,1,2,2,1,3,2,2,0,2,2,1,2,2,2,2,2,3,2,3,0,2,3,2,2,3,3,3,0,0,3,0,1,3,0,2,3,0,3,3,1,0,3,1,1,3,1,2,3,1,3,3,2,0,3,2,1,3,2,2,3,2,3,3,3,0,3,3,1,3,3,2,3,3,3,0,0,0,0,0,1,0,0,2,0,0,3,0,1,0,0,1,1,0,1,2,0,1,3,0,2,0,0,2,1,0,2,2,0,2,3,0,3,0,0,3,1,0,3,2,0,3,3,1,0,0,1,0,1,1,0,2,1,0,3,1,1,0,1,1,1,1,1,2,1,1,3,1,2,0,1,2,1,1,2,2,1,2,3,1,3,0,1,3,1,1,3,2,1,3,3,2,0,0,2,0,1,2,0,2,2,0,3,2,1,0,2,1,1,2,1,2,2,1,3,2,2,0,2,2,1,2,2,2,2,2,3,2,3,0,2,3,2,2,3,3,3,0,0,3,0,1,3,0,2,3,0,3,3,1,0,3,1,1,3,1,2,3,1,3,3,2,0,3,2,1,3,2,2,3,2,3,3,3,0,3,3,1,3,3,2,3,3,3,0,0,0,0,0,1,0,0,2,0,0,3,0,1,0,0,1,1,0,1,2,0,1,3,0,2,0,0,2,1,0,2,2,0,2,3,0,3,0,0,3,1,0,3,2,0,3,3,1,0,0,1,0,1,1,0,2,1,0,3,1,1,0,1,1,1,1,1,2,1,1,3,1,2,0,1,2,1,1,2,2,1,2,3,1,3,0,1,3,1,1,3,2,1,3,3,2,0,0,2,0,1,2,0,2,2,0,3,2,1,0,2,1,1,2,1,2,2,1,3,2,2,0,2,2,1,2,2,2,2,2,3,2,3,0,2,3,2,2,3,3,3,0,0,3,0,1,3,0,2,3,0,3,3,1,0,3,1,1,3,1,2,3,1,3,3,2,0,3,2,1,3,2,2,3,2,3,3,3,0,3,3,1,3,3,2,3,3,3,0,0,0,0,0,1,0,0,2,0,0,3,0,1,0,0,1,1,0,1,2,0,1,3,0,2,0,0,2,1,0,2,2,0,2,3,0,3,0,0,3,1,0,3,2,0,3,3,1,0,0,1,0,1,1,0,2,1,0,3,1,1,0,1,1,1,1,1,2,1,1,3,1,2,0,1,2,1,1,2,2,1,2,3,1,3,0,1,3,1,1,3,2,1,3,3,2,0,0,2,0,1,2,0,2,2,0,3,2,1,0,2,1,1,2,1,2,2,1,3,2,2,0,2,2,1,2,2,2,2,2,3,2,3,0,2,3,2,2,3,3,3,0,0,3,0,1,3,0,2,3,0,3,3,1,0,3,1,1,3,1,2,3,1,3,3,2,0,3,2,1,3,2,2,3,2,3,3,3,0,3,3,1,3,3,2,3,3,3,0,0,0,0,0,1,0,0,2,0,0,3,0,1,0,0,1,1,0,1,2,0,1,3,0,2,0,0,2,1,0,2,2,0,2,3,0,3,0,0,3,1,0,3,2,0,3,3,1,0,0,1,0,1,1,0,2,1,0,3,1,1,0,1,1,1,1,1,2,1,1,3,1,2,0,1,2,1,1,2,2,1,2,3,1,3,0,1,3,1,1,3,2,1,3,3,2,0,0,2,0,1,2,0,2,2,0,3,2,1,0,2,1,1,2,1,2,2,1,3,2,2,0,2,2,1,2,2,2,2,2,3,2,3,0,2,3,2,2,3,3,3,0,0,3,0,1,3,0,2,3,0,3,3,1,0,3,1,1,3,1,2,3,1,3,3,2,0,3,2,1,3,2,2,3,2,3,3,3,0,3,3,1,3,3,2,3,3,3,0,0,0,0,0,1,0,0,2,0,0,3,0,1,0,0,1,1,0,1,2,0,1,3,0,2,0,0,2,1,0,2,2,0,2,3,0,3,0,0,3,1,0,3,2,0,3,3,1,0,0,1,0,1,1,0,2,1,0,3,1,1,0,1,1,1,1,1,2,1,1,3,1,2,0,1,2,1,1,2,2,1,2,3,1,3,0,1,3,1,1,3,2,1,3,3,2,0,0,2,0,1,2,0,2,2,0,3,2,1,0,2,1,1,2,1,2,2,1,3,2,2,0,2,2,1,2,2,2,2,2,3,2,3,0,2,3,2,2,3,3,3,0,0,3,0,1,3,0,2,3,0,3,3,1,0,3,1,1,3,1,2,3,1,3,3,2,0,3,2,1,3,2,2,3,2,3,3,3,0,3,3,1,3,3,2,3,3,3,0,0,0,0,0,2,0,1,0,0,1,2,0,2,0,0,2,2,0,3,0,0,3,2,1,0,0,1,0,2,1,1,0,1,1,2,1,2,0,1,2,2,1,3,0,2,0,0,2,0,2,2,1,0,2,1,2,2,2,0,2,2,2,2,3,0,2,3,2,3,0,0,3,0,2,3,1,0,3,1,2,3,2,0,3,2,2,3,3,0,3,3,2,0,0,0,0,0,1,0,0,2,0,0,3,0,1,0,0,1,1,0,1,2,0,1,3,0,2,0,0,2,1,0,2,2,0,2,3,0,3,0,0,3,1,0,3,2,0,3,3,13,0,0,13,0,1,13,0,2,13,0,3,13,1,0,13,1,1,13,1,2,13,1,3,13,2,0,13,2,2,13,2,3,13,3,0,13,3,1,13,3,2,13,3,3,0,0,0,0,0,1,0,0,2,0,0,3,0,1,0,0,1,1,0,1,2,0,1,3,0,2,0,0,2,1,0,2,2,0,2,3,0,3,0,0,3,1,0,3,2,0,3,3,13,0,0,13,0,1,13,0,2,13,0,3,13,1,0,13,1,1,13,1,2,13,1,3,13,2,0,13,2,2,13,2,3,13,3,0,13,3,1,13,3,2,13,3,3,0,0,0,0,0,1,0,0,2,0,0,3,0,1,0,0,1,1,0,1,2,0,1,3,0,2,0,0,2,1,0,2,2,0,2,3,0,3,0,0,3,1,0,3,2,0,3,3,1,0,0,1,0,1,1,0,2,1,0,3,1,1,0,1,1,1,1,1,2,1,1,3,1,2,0,1,2,1,1,2,2,1,2,3,1,3,0,1,3,1,1,3,2,1,3,3,2,0,0,2,0,1,2,0,2,2,0,3,2,1,0,2,1,1,2,1,2,2,1,3,2,2,0,2,2,1,2,2,2,2,2,3,2,3,0,2,3,2,2,3,3,3,0,0,3,0,1,3,0,2,3,0,3,3,1,0,3,1,1,3,1,2,3,1,3,3,2,0,3,2,1,3,2,2,3,2,3,3,3,0,3,3,1,3,3,2,3,3,3,0,0,0,0,0,1,0,0,2,0,0,3,0,1,0,0,1,1,0,1,2,0,1,3,0,2,0,0,2,1,0,2,2,0,2,3,0,3,0,0,3,1,0,3,2,0,3,3,1,0,0,1,0,1,1,0,2,1,0,3,1,1,0,1,1,1,1,1,2,1,1,3,1,2,0,1,2,1,1,2,2,1,2,3,1,3,0,1,3,1,1,3,2,1,3,3,2,0,0,2,0,1,2,0,2,2,0,3,2,1,0,2,1,1,2,1,2,2,1,3,2,2,0,2,2,1,2,2,2,2,2,3,2,3,0,2,3,2,2,3,3,3,0,0,3,0,1,3,0,2,3,0,3,3,1,0,3,1,1,3,1,2,3,1,3,3,2,0,3,2,1,3,2,2,3,2,3,3,3,0,3,3,1,3,3,2,3,3,3,0,0,0,0,0,1,0,0,2,0,0,3,0,1,0,0,1,1,0,1,2,0,1,3,0,2,0,0,2,1,0,2,2,0,2,3,0,3,0,0,3,1,0,3,2,0,3,3,1,0,0,1,0,1,1,0,2,1,0,3,1,1,0,1,1,1,1,1,2,1,1,3,1,2,0,1,2,1,1,2,2,1,2,3,1,3,0,1,3,1,1,3,2,1,3,3,2,0,0,2,0,1,2,0,2,2,0,3,2,1,0,2,1,1,2,1,2,2,1,3,2,2,0,2,2,1,2,2,2,2,2,3,2,3,0,2,3,2,2,3,3,3,0,0,3,0,1,3,0,2,3,0,3,3,1,0,3,1,1,3,1,2,3,1,3,3,2,0,3,2,1,3,2,2,3,2,3,3,3,0,3,3,1,3,3,2,3,3,3,0,0,0,0,0,1,0,0,2,0,0,3,0,1,0,0,1,1,0,1,2,0,1,3,0,2,0,0,2,1,0,2,2,0,2,3,0,3,0,0,3,1,0,3,2,0,3,3,1,0,0,1,0,1,1,0,2,1,0,3,1,1,0,1,1,1,1,1,2,1,1,3,1,2,0,1,2,1,1,2,2,1,2,3,1,3,0,1,3,1,1,3,2,1,3,3,2,0,0,2,0,1,2,0,2,2,0,3,2,1,0,2,1,1,2,1,2,2,1,3,2,2,0,2,2,1,2,2,2,2,2,3,2,3,0,2,3,1,2,3,2,2,3,3,3,0,0,3,0,1,3,0,2,3,0,3,3,1,0,3,1,1,3,1,3,3,2,0,3,2,1,3,2,2,3,2,3,3,3,0,3,3,1,3,3,2,3,3,3,0,0,0,0,0,1,0,0,2,0,0,3,0,1,0,0,1,1,0,1,2,0,1,3,0,2,0,0,2,1,0,2,2,0,2,3,0,3,0,0,3,1,0,3,2,0,3,3,13,0,0,13,0,1,13,0,2,13,0,3,13,1,0,13,1,1,13,1,2,13,1,3,13,2,0,13,2,2,13,2,3,13,3,0,13,3,1,13,3,2,13,3,3,0,0,0,0,0,2,0,1,0,0,1,2,0,2,0,0,2,2,0,3,0,0,3,2,1,0,0,1,0,2,1,1,0,1,1,2,1,2,0,1,2,2,1,3,0,2,0,0,2,0,2,2,1,0,2,1,2,2,2,0,2,2,2,2,3,0,2,3,2,3,0,0,3,0,2,3,1,0,3,1,2,3,2,0,3,2,2,3,3,0,3,3,2,0,0,0,0,0,1,0,0,2,0,0,3,0,1,0,0,1,1,0,1,2,0,1,3,0,2,0,0,2,1,0,2,2,0,2,3,0,3,0,0,3,1,0,3,2,0,3,3,1,0,0,1,0,1,1,0,2,1,0,3,1,1,0,1,1,1,1,1,2,1,1,3,1,2,0,1,2,1,1,2,2,1,2,3,1,3,0,1,3,1,1,3,2,1,3,3,2,0,0,2,0,1,2,0,2,2,0,3,2,1,0,2,1,1,2,1,2,2,1,3,2,2,0,2,2,1,2,2,2,2,2,3,2,3,0,2,3,1,2,3,2,2,3,3,3,0,0,3,0,1,3,0,2,3,0,3,3,1,0,3,1,1,3,1,2,3,1,3,3,2,0,3,2,2,3,2,3,3,3,0,3,3,1,3,3,2,3,3,3,0,0,0,0,0,1,0,0,2,0,0,3,0,1,0,0,1,1,0,1,2,0,1,3,0,2,0,0,2,1,0,2,2,0,2,3,0,3,0,0,3,1,0,3,2,0,3,3,13,0,0,13,0,1,13,0,2,13,0,3,13,1,0,13,1,1,13,1,2,13,1,3,13,2,0,13,2,2,13,2,3,13,3,0,13,3,1,13,3,2,13,3,3,0,0,0,0,0,1,0,0,2,0,0,3,0,1,0,0,1,1,0,1,2,0,1,3,0,2,0,0,2,1,0,2,2,0,2,3,0,3,0,0,3,1,0,3,2,0,3,3,1,0,0,1,0,1,1,0,2,1,0,3,1,1,0,1,1,1,1,1,2,1,1,3,1,2,0,1,2,1,1,2,2,1,2,3,1,3,0,1,3,1,1,3,2,1,3,3,2,0,0,2,0,1,2,0,2,2,0,3,2,1,0,2,1,1,2,1,2,2,1,3,2,2,0,2,2,1,2,2,2,2,2,3,2,3,0,2,3,2,2,3,3,3,0,0,3,0,1,3,0,2,3,0,3,3,1,0,3,1,1,3,1,2,3,1,3,3,2,0,3,2,1,3,2,2,3,2,3,3,3,0,3,3,1,3,3,2,3,3,3,0,0,0,0,0,1,0,0,2,0,0,3,0,1,0,0,1,1,0,1,2,0,1,3,0,2,0,0,2,1,0,2,2,0,2,3,0,3,0,0,3,1,0,3,2,0,3,3,1,0,0,1,0,1,1,0,2,1,0,3,1,1,0,1,1,1,1,1,2,1,1,3,1,2,0,1,2,1,1,2,2,1,2,3,1,3,0,1,3,1,1,3,2,1,3,3,2,0,0,2,0,1,2,0,2,2,0,3,2,1,0,2,1,1,2,1,2,2,1,3,2,2,0,2,2,1,2,2,2,2,2,3,2,3,0,2,3,2,2,3,3,3,0,0,3,0,1,3,0,2,3,0,3,3,1,0,3,1,1,3,1,2,3,1,3,3,2,0,3,2,1,3,2,2,3,2,3,3,3,0,3,3,1,3,3,2,3,3,3,0,0,0,0,0,1,0,0,2,0,0,3,0,1,0,0,1,1,0,1,2,0,1,3,0,2,0,0,2,1,0,2,2,0,2,3,0,3,0,0,3,1,0,3,2,0,3,3,1,0,0,1,0,1,1,0,2,1,0,3,1,1,0,1,1,1,1,1,2,1,1,3,1,2,0,1,2,1,1,2,2,1,2,3,1,3,0,1,3,1,1,3,2,1,3,3,2,0,0,2,0,1,2,0,2,2,0,3,2,1,0,2,1,1,2,1,2,2,1,3,2,2,0,2,2,1,2,2,2,2,2,3,2,3,0,2,3,2,2,3,3,3,0,0,3,0,1,3,0,2,3,0,3,3,1,0,3,1,1,3,1,2,3,1,3,3,2,0,3,2,1,3,2,2,3,2,3,3,3,0,3,3,1,3,3,2,3,3,3,0,0,0,0,0,1,0,0,2,0,0,3,0,1,0,0,1,1,0,1,2,0,1,3,0,2,0,0,2,1,0,2,2,0,2,3,0,3,0,0,3,1,0,3,2,0,3,3,1,0,0,1,0,1,1,0,2,1,0,3,1,1,0,1,1,1,1,1,2,1,1,3,1,2,0,1,2,1,1,2,2,1,2,3,1,3,0,1,3,1,1,3,3,2,0,0,2,0,1,2,0,2,2,0,3,2,1,0,2,1,1,2,1,2,2,1,3,2,2,0,2,2,1,2,2,2,2,2,3,2,3,0,2,3,1,2,3,2,2,3,3,3,0,0,3,0,1,3,0,2,3,0,3,3,1,0,3,1,1,3,1,2,3,1,3,3,2,0,3,2,1,3,2,2,3,2,3,3,3,0,3,3,1,3,3,2,3,3,3,0,0,0,0,0,1,0,0,2,0,0,3,0,1,0,0,1,1,0,1,2,0,1,3,0,2,0,0,2,1,0,2,2,0,2,3,0,3,0,0,3,1,0,3,2,0,3,3,1,0,0,1,0,1,1,0,2,1,0,3,1,1,0,1,1,1,1,1,2,1,1,3,1,2,0,1,2,1,1,2,2,1,2,3,1,3,0,1,3,1,1,3,2,1,3,3,2,0,0,2,0,1,2,0,2,2,0,3,2,1,0,2,1,1,2,1,2,2,1,3,2,2,0,2,2,1,2,2,2,2,2,3,2,3,0,2,3,2,2,3,3,3,0,0,3,0,1,3,0,2,3,0,3,3,1,0,3,1,1,3,1,2,3,1,3,3,2,0,3,2,1,3,2,2,3,2,3,3,3,0,3,3,1,3,3,2,3,3,3,0,0,0,0,0,1,0,0,2,0,0,3,0,1,0,0,1,1,0,1,2,0,1,3,0,2,0,0,2,1,0,2,2,0,2,3,0,3,0,0,3,1,0,3,2,0,3,3,1,0,0,1,0,1,1,0,2,1,0,3,1,1,0,1,1,1,1,1,2,1,1,3,1,2,0,1,2,1,1,2,2,1,2,3,1,3,0,1,3,1,1,3,2,1,3,3,2,0,0,2,0,1,2,0,2,2,0,3,2,1,0,2,1,1,2,1,2,2,1,3,2,2,0,2,2,1,2,2,2,2,2,3,2,3,0,2,3,2,2,3,3,3,0,0,3,0,1,3,0,2,3,0,3,3,1,0,3,1,1,3,1,2,3,1,3,3,2,0,3,2,1,3,2,2,3,2,3,3,3,0,3,3,1,3,3,2,3,3,3,0,0,0,0,0,1,0,0,2,0,0,3,0,1,0,0,1,1,0,1,2,0,1,3,0,2,0,0,2,1,0,2,2,0,2,3,0,3,0,0,3,1,0,3,2,0,3,3,1,0,0,1,0,1,1,0,2,1,0,3,1,1,0,1,1,1,1,1,2,1,1,3,1,2,0,1,2,1,1,2,2,1,2,3,1,3,0,1,3,1,1,3,3,2,0,0,2,0,1,2,0,2,2,0,3,2,1,0,2,1,1,2,1,2,2,1,3,2,2,0,2,2,1,2,2,2,2,2,3,2,3,0,2,3,1,2,3,2,2,3,3,3,0,0,3,0,1,3,0,2,3,0,3,3,1,0,3,1,1,3,1,2,3,1,3,3,2,0,3,2,1,3,2,2,3,2,3,3,3,0,3,3,1,3,3,2,3,3,3,0,0,0,0,0,1,0,0,2,0,0,3,0,1,0,0,1,1,0,1,2,0,1,3,0,2,0,0,2,1,0,2,2,0,2,3,0,3,0,0,3,1,0,3,2,0,3,3,1,0,0,1,0,1,1,0,2,1,0,3,1,1,0,1,1,1,1,1,2,1,1,3,1,2,0,1,2,1,1,2,2,1,2,3,1,3,0,1,3,1,1,3,2,1,3,3,2,0,0,2,0,1,2,0,2,2,0,3,2,1,0,2,1,1,2,1,2,2,1,3,2,2,0,2,2,1,2,2,2,2,2,3,2,3,0,2,3,2,2,3,3,3,0,0,3,0,1,3,0,2,3,0,3,3,1,0,3,1,1,3,1,2,3,1,3,3,2,0,3,2,1,3,2,2,3,2,3,3,3,0,3,3,1,3,3,2,3,3,3,0,0,0,0,0,1,0,0,2,0,0,3,0,1,0,0,1,1,0,1,2,0,1,3,0,2,0,0,2,1,0,2,2,0,2,3,0,3,0,0,3,1,0,3,2,0,3,3,1,0,0,1,0,1,1,0,2,1,0,3,1,1,0,1,1,1,1,1,2,1,1,3,1,2,0,1,2,1,1,2,2,1,2,3,1,3,0,1,3,1,1,3,2,1,3,3,2,0,0,2,0,1,2,0,2,2,0,3,2,1,0,2,1,1,2,1,2,2,1,3,2,2,0,2,2,1,2,2,2,2,2,3,2,3,0,2,3,2,2,3,3,3,0,0,3,0,1,3,0,2,3,0,3,3,1,0,3,1,1,3,1,2,3,1,3,3,2,0,3,2,1,3,2,2,3,2,3,3,3,0,3,3,1,3,3,2,3,3,3,0,0,0,0,0,1,0,0,2,0,0,3,0,1,0,0,1,1,0,1,2,0,1,3,0,2,0,0,2,1,0,2,2,0,2,3,0,3,0,0,3,1,0,3,2,0,3,3,1,0,0,1,0,1,1,0,2,1,0,3,1,1,0,1,1,1,1,1,2,1,1,3,1,2,0,1,2,1,1,2,2,1,2,3,1,3,0,1,3,1,1,3,3,2,0,0,2,0,1,2,0,2,2,0,3,2,1,0,2,1,1,2,1,2,2,1,3,2,2,0,2,2,1,2,2,2,2,2,3,2,3,0,2,3,1,2,3,2,2,3,3,3,0,0,3,0,1,3,0,2,3,0,3,3,1,0,3,1,1,3,1,2,3,1,3,3,2,0,3,2,1,3,2,2,3,2,3,3,3,0,3,3,1,3,3,2,3,3,3,0,0,0,0,0,1,0,0,2,0,0,3,0,1,0,0,1,1,0,1,2,0,1,3,0,2,0,0,2,1,0,2,2,0,2,3,0,3,0,0,3,1,0,3,2,0,3,3,1,0,0,1,0,1,1,0,2,1,0,3,1,1,0,1,1,1,1,1,2,1,1,3,1,2,0,1,2,1,1,2,2,1,2,3,1,3,0,1,3,1,1,3,2,1,3,3,2,0,0,2,0,1,2,0,2,2,0,3,2,1,0,2,1,1,2,1,2,2,2,0,2,2,1,2,2,2,2,2,3,2,3,0,2,3,1,2,3,2,2,3,3,3,0,0,3,0,1,3,0,2,3,0,3,3,1,0,3,1,1,3,1,2,3,1,3,3,2,0,3,2,1,3,2,2,3,2,3,3,3,0,3,3,1,3,3,2,3,3,3,0,0,0,0,0,1,0,0,2,0,0,3,0,1,0,0,1,1,0,1,2,0,1,3,0,2,0,0,2,1,0,2,2,0,2,3,0,3,0,0,3,1,0,3,2,0,3,3,1,0,0,1,0,1,1,0,2,1,0,3,1,1,0,1,1,1,1,1,2,1,1,3,1,2,0,1,2,1,1,2,2,1,2,3,1,3,0,1,3,1,1,3,2,1,3,3,2,0,0,2,0,1,2,0,2,2,0,3,2,1,0,2,1,1,2,1,2,2,1,3,2,2,0,2,2,1,2,2,2,2,2,3,2,3,0,2,3,2,2,3,3,3,0,0,3,0,1,3,0,2,3,0,3,3,1,0,3,1,1,3,1,2,3,1,3,3,2,0,3,2,1,3,2,2,3,2,3,3,3,0,3,3,1,3,3,2,3,3,3,0,0,0,0,0,1,0,0,2,0,0,3,0,1,0,0,1,1,0,1,2,0,1,3,0,2,0,0,2,1,0,2,2,0,2,3,0,3,0,0,3,1,0,3,2,0,3,3,1,0,0,1,0,1,1,0,2,1,0,3,1,1,0,1,1,1,1,1,2,1,1,3,1,2,0,1,2,1,1,2,2,1,2,3,1,3,0,1,3,1,1,3,2,1,3,3,2,0,0,2,0,1,2,0,2,2,0,3,2,1,0,2,1,1,2,1,2,2,1,3,2,2,0,2,2,1,2,2,2,2,2,3,2,3,0,2,3,1,2,3,2,2,3,3,3,0,0,3,0,1,3,0,2,3,0,3,3,1,0,3,1,1,3,1,2,3,1,3,3,2,0,3,2,2,3,2,3,3,3,0,3,3,1,3,3,2,3,3,3,0,0,0,0,0,1,0,0,2,0,0,3,0,1,0,0,1,1,0,1,2,0,1,3,0,2,0,0,2,1,0,2,2,0,2,3,0,3,0,0,3,1,0,3,2,0,3,3,1,0,0,1,0,1,1,0,2,1,0,3,1,1,0,1,1,1,1,1,2,1,1,3,1,2,0,1,2,1,1,2,2,1,2,3,1,3,0,1,3,1,1,3,2,1,3,3,2,0,0,2,0,1,2,0,2,2,0,3,2,1,0,2,1,1,2,1,2,2,1,3,2,2,0,2,2,1,2,2,2,2,2,3,2,3,0,2,3,2,2,3,3,3,0,0,3,0,1,3,0,2,3,0,3,3,1,0,3,1,1,3,1,2,3,1,3,3,2,0,3,2,1,3,2,2,3,2,3,3,3,0,3,3,1,3,3,2,3,3,3,0,0,0,0,0,1,0,0,2,0,0,3,0,1,0,0,1,1,0,1,2,0,1,3,0,2,0,0,2,1,0,2,2,0,2,3,0,3,0,0,3,1,0,3,2,0,3,3,13,0,0,13,0,1,13,0,2,13,0,3,13,1,0,13,1,1,13,1,2,13,1,3,13,2,0,13,2,2,13,2,3,13,3,0,13,3,1,13,3,2,13,3,3,0,0,0,0,0,1,0,0,2,0,0,3,0,1,0,0,1,1,0,1,2,0,1,3,0,2,0,0,2,1,0,2,2,0,2,3,0,3,0,0,3,1,0,3,2,0,3,3,13,0,0,13,0,1,13,0,2,13,0,3,13,1,0,13,1,1,13,1,2,13,1,3,13,2,0,13,2,2,13,2,3,13,3,0,13,3,1,13,3,2,13,3,3,0,0,0,0,0,1,0,0,2,0,0,3,0,1,0,0,1,1,0,1,2,0,1,3,0,2,0,0,2,1,0,2,2,0,2,3,0,3,0,0,3,1,0,3,2,0,3,3,1,0,0,1,0,1,1,0,2,1,0,3,1,1,0,1,1,1,1,1,2,1,1,3,1,2,0,1,2,1,1,2,2,1,2,3,1,3,0,1,3,1,1,3,2,1,3,3,2,0,0,2,0,1,2,0,2,2,0,3,2,1,0,2,1,1,2,1,2,2,1,3,2,2,0,2,2,1,2,2,2,2,2,3,2,3,0,2,3,2,2,3,3,3,0,0,3,0,1,3,0,2,3,0,3,3,1,0,3,1,1,3,1,2,3,1,3,3,2,0,3,2,1,3,2,2,3,2,3,3,3,0,3,3,1,3,3,2,3,3,3,0,0,0,0,0,1,0,0,2,0,0,3,0,1,0,0,1,1,0,1,2,0,1,3,0,2,0,0,2,1,0,2,2,0,2,3,0,3,0,0,3,1,0,3,2,0,3,3,1,0,0,1,0,1,1,0,2,1,0,3,1,1,0,1,1,1,1,1,2,1,1,3,1,2,0,1,2,1,1,2,2,1,2,3,1,3,0,1,3,1,1,3,2,1,3,3,2,0,0,2,0,1,2,0,2,2,0,3,2,1,0,2,1,1,2,1,2,2,1,3,2,2,0,2,2,1,2,2,2,2,2,3,2,3,0,2,3,2,2,3,3,3,0,0,3,0,1,3,0,2,3,0,3,3,1,0,3,1,1,3,1,2,3,1,3,3,2,0,3,2,1,3,2,2,3,2,3,3,3,0,3,3,1,3,3,2,3,3,3,0,0,0,0,0,1,0,0,2,0,0,3,0,1,0,0,1,1,0,1,2,0,1,3,0,2,0,0,2,1,0,2,2,0,2,3,0,3,0,0,3,1,0,3,2,0,3,3,1,0,0,1,0,1,1,0,2,1,0,3,1,1,0,1,1,1,1,1,2,1,1,3,1,2,0,1,2,1,1,2,2,1,2,3,1,3,0,1,3,1,1,3,2,1,3,3,2,0,0,2,0,1,2,0,2,2,0,3,2,1,0,2,1,1,2,1,2,2,1,3,2,2,0,2,2,1,2,2,2,2,2,3,2,3,0,2,3,1,2,3,2,2,3,3,3,0,0,3,0,1,3,0,2,3,0,3,3,1,0,3,1,1,3,1,2,3,1,3,3,2,0,3,2,2,3,2,3,3,3,0,3,3,1,3,3,2,3,3,3,0,0,0,0,0,1,0,0,2,0,0,3,0,1,0,0,1,1,0,1,2,0,1,3,0,2,0,0,2,1,0,2,2,0,2,3,0,3,0,0,3,1,0,3,2,0,3,3,1,0,0,1,0,1,1,0,2,1,0,3,1,1,0,1,1,1,1,1,2,1,1,3,1,2,0,1,2,1,1,2,2,1,2,3,1,3,0,1,3,1,1,3,2,1,3,3,2,0,0,2,0,1,2,0,2,2,0,3,2,1,0,2,1,1,2,1,2,2,1,3,2,2,0,2,2,1,2,2,2,2,2,3,2,3,0,2,3,2,2,3,3,3,0,0,3,0,1,3,0,2,3,0,3,3,1,0,3,1,1,3,1,2,3,1,3,3,2,0,3,2,1,3,2,2,3,2,3,3,3,0,3,3,1,3,3,2,3,3,3,0,0,0,0,0,1,0,0,2,0,0,3,0,1,0,0,1,1,0,1,2,0,1,3,0,2,0,0,2,1,0,2,2,0,2,3,0,3,0,0,3,1,0,3,2,0,3,3,13,0,0,13,0,1,13,0,2,13,0,3,13,1,0,13,1,1,13,1,2,13,1,3,13,2,0,13,2,2,13,2,3,13,3,0,13,3,1,13,3,2,13,3,3,0,0,0,0,0,1,0,0,2,0,0,3,0,1,0,0,1,1,0,1,2,0,1,3,0,2,0,0,2,1,0,2,2,0,2,3,0,3,0,0,3,1,0,3,2,0,3,3,1,0,0,1,0,1,1,0,2,1,0,3,1,1,0,1,1,1,1,1,2,1,1,3,1,2,0,1,2,1,1,2,2,1,2,3,1,3,0,1,3,1,1,3,2,1,3,3,2,0,0,2,0,1,2,0,2,2,0,3,2,1,0,2,1,1,2,1,2,2,1,3,2,2,0,2,2,1,2,2,2,2,2,3,2,3,0,2,3,2,2,3,3,3,0,0,3,0,1,3,0,2,3,0,3,3,1,0,3,1,1,3,1,2,3,1,3,3,2,0,3,2,1,3,2,2,3,2,3,3,3,0,3,3,1,3,3,2,3,3,3,0,0,0,0,0,1,0,0,2,0,0,3,0,1,0,0,1,1,0,1,2,0,1,3,0,2,0,0,2,1,0,2,2,0,2,3,0,3,0,0,3,1,0,3,2,0,3,3,1,0,0,1,0,1,1,0,2,1,0,3,1,1,0,1,1,1,1,1,2,1,1,3,1,2,0,1,2,1,1,2,2,1,2,3,1,3,0,1,3,1,1,3,2,1,3,3,2,0,0,2,0,1,2,0,2,2,0,3,2,1,0,2,1,1,2,1,2,2,1,3,2,2,0,2,2,1,2,2,2,2,2,3,2,3,0,2,3,2,2,3,3,3,0,0,3,0,1,3,0,2,3,0,3,3,1,0,3,1,1,3,1,2,3,1,3,3,2,0,3,2,1,3,2,2,3,2,3,3,3,0,3,3,1,3,3,2,3,3,3,0,0,0,0,0,1,0,0,2,0,0,3,0,1,0,0,1,1,0,1,2,0,1,3,0,2,0,0,2,1,0,2,2,0,2,3,0,3,0,0,3,1,0,3,2,0,3,3,1,0,0,1,0,1,1,0,2,1,0,3,1,1,0,1,1,1,1,1,2,1,1,3,1,2,0,1,2,1,1,2,2,1,2,3,1,3,0,1,3,1,1,3,2,1,3,3,2,0,0,2,0,1,2,0,2,2,0,3,2,1,0,2,1,1,2,1,2,2,1,3,2,2,0,2,2,1,2,2,2,2,2,3,2,3,0,2,3,2,2,3,3,3,0,0,3,0,1,3,0,2,3,0,3,3,1,0,3,1,1,3,1,2,3,1,3,3,2,0,3,2,1,3,2,2,3,2,3,3,3,0,3,3,1,3,3,2,3,3,3,0,0,0,0,0,1,0,0,2,0,0,3,0,1,0,0,1,1,0,1,2,0,1,3,0,2,0,0,2,1,0,2,2,0,2,3,0,3,0,0,3,1,0,3,2,0,3,3,1,0,0,1,0,1,1,0,2,1,0,3,1,1,0,1,1,1,1,1,2,1,1,3,1,2,0,1,2,1,1,2,2,1,2,3,1,3,0,1,3,1,1,3,2,1,3,3,2,0,0,2,0,1,2,0,2,2,0,3,2,1,0,2,1,1,2,1,2,2,1,3,2,2,0,2,2,1,2,2,2,2,2,3,2,3,0,2,3,1,2,3,2,2,3,3,3,0,0,3,0,1,3,0,2,3,0,3,3,1,0,3,1,1,3,1,2,3,1,3,3,2,0,3,2,2,3,2,3,3,3,0,3,3,1,3,3,2,3,3,3,0,0,0,0,0,1,0,0,2,0,0,3,0,1,0,0,1,1,0,1,2,0,1,3,0,2,0,0,2,1,0,2,2,0,2,3,0,3,0,0,3,1,0,3,2,0,3,3,1,0,0,1,0,1,1,0,2,1,0,3,1,1,0,1,1,1,1,1,2,1,1,3,1,2,0,1,2,1,1,2,2,1,2,3,1,3,0,1,3,1,1,3,2,1,3,3,2,0,0,2,0,1,2,0,2,2,0,3,2,1,0,2,1,1,2,1,2,2,2,0,2,2,1,2,2,2,2,2,3,2,3,0,2,3,1,2,3,2,2,3,3,3,0,0,3,0,1,3,0,2,3,0,3,3,1,0,3,1,1,3,1,2,3,1,3,3,2,0,3,2,1,3,2,2,3,2,3,3,3,0,3,3,1,3,3,2,3,3,3,0,0,0,0,0,1,0,0,2,0,0,3,0,1,0,0,1,1,0,1,2,0,1,3,0,2,0,0,2,1,0,2,2,0,2,3,0,3,0,0,3,1,0,3,2,0,3,3,1,0,0,1,0,1,1,0,2,1,0,3,1,1,0,1,1,1,1,1,2,1,1,3,1,2,0,1,2,1,1,2,2,1,2,3,1,3,0,1,3,1,1,3,2,1,3,3,2,0,0,2,0,1,2,0,2,2,0,3,2,1,0,2,1,1,2,1,2,2,1,3,2,2,0,2,2,1,2,2,2,2,2,3,2,3,0,2,3,1,2,3,2,2,3,3,3,0,0,3,0,1,3,0,2,3,0,3,3,1,0,3,1,1,3,1,2,3,1,3,3,2,0,3,2,2,3,2,3,3,3,0,3,3,1,3,3,2,3,3,3,0,0,0,0,0,1,0,0,2,0,0,3,0,1,0,0,1,1,0,1,2,0,1,3,0,2,0,0,2,1,0,2,2,0,2,3,0,3,0,0,3,1,0,3,2,0,3,3,13,0,0,13,0,1,13,0,2,13,0,3,13,1,0,13,1,1,13,1,2,13,1,3,13,2,0,13,2,2,13,2,3,13,3,0,13,3,1,13,3,2,13,3,3,0,0,0,0,0,1,0,0,2,0,0,3,0,1,0,0,1,1,0,1,2,0,1,3,0,2,0,0,2,1,0,2,2,0,2,3,0,3,0,0,3,1,0,3,2,0,3,3,13,0,0,13,0,1,13,0,2,13,0,3,13,1,0,13,1,1,13,1,2,13,1,3,13,2,0,13,2,2,13,2,3,13,3,0,13,3,1,13,3,2,13,3,3,0,0,0,0,0,1,0,0,2,0,0,3,0,1,0,0,1,1,0,1,2,0,1,3,0,2,0,0,2,1,0,2,2,0,2,3,0,3,0,0,3,1,0,3,2,0,3,3,1,0,0,1,0,1,1,0,2,1,0,3,1,1,0,1,1,1,1,1,2,1,1,3,1,2,0,1,2,1,1,2,2,1,2,3,1,3,0,1,3,1,1,3,2,1,3,3,2,0,0,2,0,1,2,0,2,2,0,3,2,1,0,2,1,1,2,1,2,2,1,3,2,2,0,2,2,1,2,2,2,2,2,3,2,3,0,2,3,1,2,3,2,2,3,3,3,0,0,3,0,1,3,0,2,3,0,3,3,1,0,3,1,1,3,1,3,3,2,0,3,2,1,3,2,2,3,2,3,3,3,0,3,3,1,3,3,2,3,3,3,0,0,0,0,0,1,0,0,2,0,0,3,0,1,0,0,1,1,0,1,2,0,1,3,0,2,0,0,2,1,0,2,2,0,2,3,0,3,0,0,3,1,0,3,2,0,3,3,1,0,0,1,0,1,1,0,2,1,0,3,1,1,0,1,1,1,1,1,2,1,1,3,1,2,0,1,2,1,1,2,2,1,2,3,1,3,0,1,3,1,1,3,2,1,3,3,2,0,0,2,0,1,2,0,2,2,0,3,2,1,0,2,1,1,2,1,2,2,1,3,2,2,0,2,2,1,2,2,2,2,2,3,2,3,0,2,3,2,2,3,3,3,0,0,3,0,1,3,0,2,3,0,3,3,1,0,3,1,1,3,1,2,3,1,3,3,2,0,3,2,1,3,2,2,3,2,3,3,3,0,3,3,1,3,3,2,3,3,3,0,0,0,0,0,1,0,0,2,0,0,3,0,1,0,0,1,1,0,1,2,0,1,3,0,2,0,0,2,1,0,2,2,0,2,3,0,3,0,0,3,1,0,3,2,0,3,3,13,0,0,13,0,1,13,0,2,13,0,3,13,1,0,13,1,1,13,1,2,13,1,3,13,2,0,13,2,2,13,2,3,13,3,0,13,3,1,13,3,2,13,3,3,0,0,0,0,0,1,0,0,2,0,0,3,0,1,0,0,1,1,0,1,2,0,1,3,0,2,0,0,2,1,0,2,2,0,2,3,0,3,0,0,3,1,0,3,2,0,3,3,1,0,0,1,0,1,1,0,2,1,0,3,1,1,0,1,1,1,1,1,2,1,1,3,1,2,0,1,2,1,1,2,2,1,2,3,1,3,0,1,3,1,1,3,2,1,3,3,2,0,0,2,0,1,2,0,2,2,0,3,2,1,0,2,1,1,2,1,2,2,1,3,2,2,0,2,2,1,2,2,2,2,2,3,2,3,0,2,3,2,2,3,3,3,0,0,3,0,1,3,0,2,3,0,3,3,1,0,3,1,1,3,1,2,3,1,3,3,2,0,3,2,1,3,2,2,3,2,3,3,3,0,3,3,1,3,3,2,3,3,3,0,0,0,0,0,1,0,0,2,0,0,3,0,1,0,0,1,1,0,1,2,0,1,3,0,2,0,0,2,1,0,2,2,0,2,3,0,3,0,0,3,1,0,3,2,0,3,3,1,0,0,1,0,1,1,0,2,1,0,3,1,1,0,1,1,1,1,1,2,1,1,3,1,2,0,1,2,1,1,2,2,1,2,3,1,3,0,1,3,1,1,3,2,1,3,3,2,0,0,2,0,1,2,0,2,2,0,3,2,1,0,2,1,1,2,1,2,2,1,3,2,2,0,2,2,1,2,2,2,2,2,3,2,3,0,2,3,1,2,3,2,2,3,3,3,0,0,3,0,1,3,0,2,3,0,3,3,1,0,3,1,1,3,1,2,3,1,3,3,2,0,3,2,2,3,2,3,3,3,0,3,3,1,3,3,2,3,3,3,0,0,0,0,0,1,0,0,2,0,0,3,0,1,0,0,1,1,0,1,2,0,1,3,0,2,0,0,2,1,0,2,2,0,2,3,0,3,0,0,3,1,0,3,2,0,3,3,1,0,0,1,0,1,1,0,2,1,0,3,1,1,0,1,1,1,1,1,2,1,1,3,1,2,0,1,2,1,1,2,2,1,2,3,1,3,0,1,3,1,1,3,2,1,3,3,2,0,0,2,0,1,2,0,2,2,0,3,2,1,0,2,1,1,2,1,2,2,1,3,2,2,0,2,2,1,2,2,2,2,2,3,2,3,0,2,3,2,2,3,3,3,0,0,3,0,1,3,0,2,3,0,3,3,1,0,3,1,1,3,1,2,3,1,3,3,2,0,3,2,1,3,2,2,3,2,3,3,3,0,3,3,1,3,3,2,3,3,3,0,0,0,0,0,1,0,0,2,0,0,3,0,1,0,0,1,1,0,1,2,0,1,3,0,2,0,0,2,1,0,2,2,0,2,3,0,3,0,0,3,1,0,3,2,0,3,3,1,0,0,1,0,1,1,0,2,1,0,3,1,1,0,1,1,1,1,1,2,1,1,3,1,2,0,1,2,1,1,2,2,1,2,3,1,3,0,1,3,1,1,3,2,1,3,3,2,0,0,2,0,1,2,0,2,2,0,3,2,1,0,2,1,1,2,1,2,2,1,3,2,2,0,2,2,1,2,2,2,2,2,3,2,3,0,2,3,2,2,3,3,3,0,0,3,0,1,3,0,2,3,0,3,3,1,0,3,1,1,3,1,2,3,1,3,3,2,0,3,2,1,3,2,2,3,2,3,3,3,0,3,3,1,3,3,2,3,3,3,0,0,0,0,0,1,0,0,2,0,0,3,0,1,0,0,1,1,0,1,2,0,1,3,0,2,0,0,2,1,0,2,2,0,2,3,0,3,0,0,3,1,0,3,2,0,3,3,1,0,0,1,0,1,1,0,2,1,0,3,1,1,0,1,1,1,1,1,2,1,1,3,1,2,0,1,2,1,1,2,2,1,2,3,1,3,0,1,3,1,1,3,3,2,0,0,2,0,1,2,0,2,2,0,3,2,1,0,2,1,1,2,1,2,2,1,3,2,2,0,2,2,1,2,2,2,2,2,3,2,3,0,2,3,1,2,3,2,2,3,3,3,0,0,3,0,1,3,0,2,3,0,3,3,1,0,3,1,1,3,1,2,3,1,3,3,2,0,3,2,1,3,2,2,3,2,3,3,3,0,3,3,1,3,3,2,3,3,3,0,0,0,0,0,1,0,0,2,0,0,3,0,1,0,0,1,1,0,1,2,0,1,3,0,2,0,0,2,1,0,2,2,0,2,3,0,3,0,0,3,1,0,3,2,0,3,3,1,0,0,1,0,1,1,0,2,1,0,3,1,1,0,1,1,1,1,1,2,1,1,3,1,2,0,1,2,1,1,2,2,1,2,3,1,3,0,1,3,1,1,3,2,1,3,3,2,0,0,2,0,1,2,0,2,2,0,3,2,1,0,2,1,1,2,1,2,2,1,3,2,2,0,2,2,1,2,2,2,2,2,3,2,3,0,2,3,2,2,3,3,3,0,0,3,0,1,3,0,2,3,0,3,3,1,0,3,1,1,3,1,2,3,1,3,3,2,0,3,2,1,3,2,2,3,2,3,3,3,0,3,3,1,3,3,2,3,3,3,0,0,0,0,0,1,0,0,2,0,0,3,0,2,0,0,2,1,0,2,2,0,2,3,1,0,0,1,0,1,1,0,2,1,0,3,1,2,0,1,2,1,1,2,2,1,2,3,2,0,0,2,0,1,2,0,2,2,0,3,2,2,0,2,2,1,2,2,2,2,2,3,3,0,0,3,0,1,3,0,2,3,0,3,3,2,0,3,2,2,3,2,3,0,0,0,0,0,1,0,0,2,0,0,3,0,1,0,0,1,1,0,1,2,0,1,3,0,2,0,0,2,1,0,2,2,0,2,3,0,3,0,0,3,1,0,3,2,0,3,3,1,0,0,1,0,1,1,0,2,1,0,3,1,1,0,1,1,1,1,1,2,1,1,3,1,2,0,1,2,1,1,2,2,1,2,3,1,3,0,1,3,1,1,3,3,2,0,0,2,0,1,2,0,2,2,0,3,2,1,0,2,1,1,2,1,2,2,1,3,2,2,0,2,2,1,2,2,2,2,2,3,2,3,0,2,3,1,2,3,2,2,3,3,3,0,0,3,0,1,3,0,2,3,0,3,3,1,0,3,1,1,3,1,2,3,1,3,3,2,0,3,2,1,3,2,2,3,2,3,3,3,0,3,3,1,3,3,2,3,3,3,0,0,0,0,0,1,0,0,2,0,0,3,0,2,0,0,2,1,0,2,2,0,2,3,1,0,0,1,0,1,1,0,2,1,0,3,1,2,0,1,2,1,1,2,2,1,2,3,2,0,0,2,0,1,2,0,2,2,0,3,2,2,0,2,2,1,2,2,2,2,2,3,3,0,0,3,0,1,3,0,2,3,0,3,3,2,0,3,2,2,3,2,3,0,0,0,0,0,1,0,0,2,0,0,3,0,1,0,0,1,1,0,1,2,0,1,3,0,2,0,0,2,1,0,2,2,0,2,3,0,3,0,0,3,1,0,3,2,0,3,3,1,0,0,1,0,1,1,0,2,1,0,3,1,1,0,1,1,1,1,1,2,1,1,3,1,2,0,1,2,1,1,2,2,1,2,3,1,3,0,1,3,1,1,3,2,1,3,3,2,0,0,2,0,1,2,0,2,2,0,3,2,1,0,2,1,1,2,1,2,2,1,3,2,2,0,2,2,1,2,2,2,2,2,3,2,3,0,2,3,2,2,3,3,3,0,0,3,0,1,3,0,2,3,0,3,3,1,0,3,1,1,3,1,2,3,1,3,3,2,0,3,2,1,3,2,2,3,2,3,3,3,0,3,3,1,3,3,2,3,3,3,0,0,0,0,0,1,0,0,2,0,0,3,0,1,0,0,1,1,0,1,2,0,1,3,0,2,0,0,2,1,0,2,2,0,2,3,0,3,0,0,3,1,0,3,2,0,3,3,13,0,0,13,0,1,13,0,2,13,0,3,13,1,0,13,1,1,13,1,2,13,1,3,13,2,0,13,2,2,13,2,3,13,3,0,13,3,1,13,3,2,13,3,3,0,0,0,0,0,1,0,0,2,0,0,3,0,1,0,0,1,1,0,1,2,0,1,3,0,2,0,0,2,1,0,2,2,0,2,3,0,3,0,0,3,1,0,3,2,0,3,3,1,0,0,1,0,1,1,0,2,1,0,3,1,1,0,1,1,1,1,1,2,1,1,3,1,2,0,1,2,1,1,2,2,1,2,3,1,3,0,1,3,1,1,3,2,1,3,3,2,0,0,2,0,1,2,0,2,2,0,3,2,1,0,2,1,1,2,1,2,2,1,3,2,2,0,2,2,1,2,2,2,2,2,3,2,3,0,2,3,1,2,3,2,2,3,3,3,0,0,3,0,1,3,0,2,3,0,3,3,1,0,3,1,1,3,1,2,3,1,3,3,2,0,3,2,2,3,2,3,3,3,0,3,3,1,3,3,2,3,3,3,0,0,0,0,0,1,0,0,2,0,0,3,0,2,0,0,2,1,0,2,2,0,2,3,1,0,0,1,0,1,1,0,2,1,0,3,1,2,0,1,2,1,1,2,2,1,2,3,2,0,0,2,0,1,2,0,2,2,0,3,2,2,0,2,2,1,2,2,2,2,2,3,3,0,0,3,0,1,3,0,2,3,0,3,3,2,0,3,2,2,3,2,3,0,0,0,0,0,1,0,0,2,0,0,3,0,1,0,0,1,1,0,1,2,0,1,3,0,2,0,0,2,1,0,2,2,0,2,3,0,3,0,0,3,1,0,3,2,0,3,3,1,0,0,1,0,1,1,0,2,1,0,3,1,1,0,1,1,1,1,1,2,1,1,3,1,2,0,1,2,1,1,2,2,1,3,0,1,3,1,1,3,2,1,3,3,2,0,0,2,0,1,2,0,2,2,0,3,2,1,0,2,1,1,2,1,2,2,1,3,2,2,0,2,2,1,2,2,2,2,2,3,2,3,0,2,3,1,2,3,2,2,3,3,3,0,0,3,0,1,3,0,2,3,0,3,3,1,0,3,1,1,3,1,2,3,1,3,3,2,0,3,2,1,3,2,2,3,2,3,3,3,0,3,3,1,3,3,2,3,3,3,0,0,0,0,0,1,0,0,2,0,0,3,0,1,0,0,1,1,0,1,2,0,1,3,0,2,0,0,2,1,0,2,2,0,2,3,0,3,0,0,3,1,0,3,2,0,3,3,1,0,0,1,0,1,1,0,2,1,0,3,1,1,0,1,1,1,1,1,2,1,1,3,1,2,0,1,2,1,1,2,2,1,2,3,1,3,0,1,3,1,1,3,2,1,3,3,2,0,0,2,0,1,2,0,2,2,0,3,2,1,0,2,1,1,2,1,2,2,2,0,2,2,1,2,2,2,2,2,3,2,3,0,2,3,1,2,3,2,2,3,3,3,0,0,3,0,1,3,0,2,3,0,3,3,1,0,3,1,1,3,1,2,3,1,3,3,2,0,3,2,1,3,2,2,3,2,3,3,3,0,3,3,1,3,3,2,3,3,3,0,0,0,0,0,1,0,0,2,0,0,3,0,1,0,0,1,1,0,1,2,0,1,3,0,2,0,0,2,1,0,2,2,0,2,3,0,3,0,0,3,1,0,3,2,0,3,3,1,0,0,1,0,1,1,0,2,1,0,3,1,1,0,1,1,1,1,1,2,1,1,3,1,2,0,1,2,1,1,2,2,1,2,3,1,3,0,1,3,1,1,3,2,1,3,3,2,0,0,2,0,1,2,0,2,2,0,3,2,1,0,2,1,1,2,1,2,2,1,3,2,2,0,2,2,1,2,2,2,2,2,3,2,3,0,2,3,2,2,3,3,3,0,0,3,0,1,3,0,2,3,0,3,3,1,0,3,1,1,3,1,2,3,1,3,3,2,0,3,2,1,3,2,2,3,2,3,3,3,0,3,3,1,3,3,2,3,3,3,0,0,0,0,0,1,0,0,2,0,0,3,0,1,0,0,1,1,0,1,2,0,1,3,0,2,0,0,2,1,0,2,2,0,2,3,0,3,0,0,3,1,0,3,2,0,3,3,13,0,0,13,0,1,13,0,2,13,0,3,13,1,0,13,1,1,13,1,2,13,1,3,13,2,0,13,2,2,13,2,3,13,3,0,13,3,1,13,3,2,13,3,3,0,0,0,0,0,1,0,0,2,0,0,3,0,2,0,0,2,1,0,2,2,0,2,3,1,0,0,1,0,1,1,0,2,1,0,3,1,2,0,1,2,1,1,2,2,1,2,3,2,0,0,2,0,1,2,0,2,2,0,3,2,2,0,2,2,1,2,2,2,2,2,3,3,0,0,3,0,1,3,0,2,3,0,3,3,2,0,3,2,2,3,2,3,0,0,0,0,0,1,0,0,2,0,0,3,0,1,0,0,1,1,0,1,2,0,1,3,0,2,0,0,2,1,0,2,2,0,2,3,0,3,0,0,3,1,0,3,2,0,3,3,1,0,0,1,0,1,1,0,2,1,0,3,1,1,0,1,1,1,1,1,2,1,1,3,1,2,0,1,2,1,1,2,2,1,2,3,1,3,0,1,3,1,1,3,2,1,3,3,2,0,0,2,0,1,2,0,2,2,0,3,2,1,0,2,1,1,2,1,2,2,1,3,2,2,0,2,2,1,2,2,2,2,2,3,2,3,0,2,3,2,2,3,3,3,0,0,3,0,1,3,0,2,3,0,3,3,1,0,3,1,1,3,1,2,3,1,3,3,2,0,3,2,1,3,2,2,3,2,3,3,3,0,3,3,1,3,3,2,3,3,3,0,0,0,0,0,1,0,0,2,0,0,3,0,1,0,0,1,1,0,1,2,0,1,3,0,2,0,0,2,1,0,2,2,0,2,3,0,3,0,0,3,1,0,3,2,0,3,3,1,0,0,1,0,1,1,0,2,1,0,3,1,1,0,1,1,1,1,1,2,1,1,3,1,2,0,1,2,1,1,2,2,1,2,3,1,3,0,1,3,1,1,3,2,1,3,3,2,0,0,2,0,1,2,0,2,2,0,3,2,1,0,2,1,1,2,1,2,2,1,3,2,2,0,2,2,1,2,2,2,2,2,3,2,3,0,2,3,2,2,3,3,3,0,0,3,0,1,3,0,2,3,0,3,3,1,0,3,1,1,3,1,2,3,1,3,3,2,0,3,2,1,3,2,2,3,2,3,3,3,0,3,3,1,3,3,2,3,3,3,0,0,0,0,0,1,0,0,2,0,0,3,0,1,0,0,1,1,0,1,2,0,1,3,0,2,0,0,2,1,0,2,2,0,2,3,0,3,0,0,3,1,0,3,2,0,3,3,13,0,0,13,0,1,13,0,2,13,0,3,13,1,0,13,1,1,13,1,2,13,1,3,13,2,0,13,2,2,13,2,3,13,3,0,13,3,1,13,3,2,13,3,3,0,0,0,0,0,1,0,0,2,0,0,3,0,1,0,0,1,1,0,1,2,0,1,3,0,2,0,0,2,1,0,2,2,0,2,3,0,3,0,0,3,1,0,3,2,0,3,3,1,0,0,1,0,1,1,0,2,1,0,3,1,1,0,1,1,1,1,1,2,1,1,3,1,2,0,1,2,1,1,2,2,1,2,3,1,3,0,1,3,1,1,3,2,1,3,3,2,0,0,2,0,1,2,0,2,2,0,3,2,1,0,2,1,1,2,1,2,2,1,3,2,2,0,2,2,1,2,2,2,2,2,3,2,3,0,2,3,2,2,3,3,3,0,0,3,0,1,3,0,2,3,0,3,3,1,0,3,1,1,3,1,2,3,1,3,3,2,0,3,2,1,3,2,2,3,2,3,3,3,0,3,3,1,3,3,2,3,3,3,0,0,0,0,0,1,0,0,2,0,0,3,0,2,0,0,2,1,0,2,2,0,2,3,1,0,0,1,0,1,1,0,2,1,0,3,1,2,0,1,2,1,1,2,2,1,2,3,2,0,0,2,0,1,2,0,2,2,0,3,2,2,0,2,2,1,2,2,2,2,2,3,3,0,0,3,0,1,3,0,2,3,0,3,3,2,0,3,2,2,3,2,3,0,0,0,0,0,1,0,0,2,0,0,3,0,1,0,0,1,1,0,1,2,0,1,3,0,2,0,0,2,1,0,2,2,0,2,3,0,3,0,0,3,1,0,3,2,0,3,3,1,0,0,1,0,1,1,0,2,1,0,3,1,1,0,1,1,1,1,1,2,1,1,3,1,2,0,1,2,1,1,2,2,1,2,3,1,3,0,1,3,1,1,3,2,1,3,3,2,0,0,2,0,1,2,0,2,2,0,3,2,1,0,2,1,1,2,1,2,2,2,0,2,2,1,2,2,2,2,2,3,2,3,0,2,3,1,2,3,2,2,3,3,3,0,0,3,0,1,3,0,2,3,0,3,3,1,0,3,1,1,3,1,2,3,1,3,3,2,0,3,2,1,3,2,2,3,2,3,3,3,0,3,3,1,3,3,2,3,3,3,0,0,0,0,0,1,0,0,2,0,0,3,0,1,0,0,1,1,0,1,2,0,1,3,0,2,0,0,2,1,0,2,2,0,2,3,0,3,0,0,3,1,0,3,2,0,3,3,13,0,0,13,0,1,13,0,2,13,0,3,13,1,0,13,1,1,13,1,2,13,1,3,13,2,0,13,2,2,13,2,3,13,3,0,13,3,1,13,3,2,13,3,3,0,0,0,0,0,1,0,0,2,0,0,3,0,1,0,0,1,1,0,1,2,0,1,3,0,2,0,0,2,1,0,2,2,0,2,3,0,3,0,0,3,1,0,3,2,0,3,3,13,0,0,13,0,1,13,0,2,13,0,3,13,1,0,13,1,1,13,1,2,13,1,3,13,2,0,13,2,2,13,2,3,13,3,0,13,3,1,13,3,2,13,3,3,0,0,0,0,0,1,0,0,2,0,0,3,0,1,0,0,1,1,0,1,2,0,1,3,0,2,0,0,2,1,0,2,2,0,2,3,0,3,0,0,3,1,0,3,2,0,3,3,13,0,0,13,0,1,13,0,2,13,0,3,13,1,0,13,1,1,13,1,2,13,1,3,13,2,0,13,2,2,13,2,3,13,3,0,13,3,1,13,3,2,13,3,3,0,0,0,0,0,1,0,0,2,0,0,3,0,1,0,0,1,1,0,1,2,0,1,3,0,2,0,0,2,1,0,2,2,0,2,3,0,3,0,0,3,1,0,3,2,0,3,3,1,0,0,1,0,1,1,0,2,1,0,3,1,1,0,1,1,1,1,1,2,1,1,3,1,2,0,1,2,1,1,2,2,1,2,3,1,3,0,1,3,1,1,3,2,1,3,3,2,0,0,2,0,1,2,0,2,2,0,3,2,1,0,2,1,1,2,1,2,2,1,3,2,2,0,2,2,1,2,2,2,2,2,3,2,3,0,2,3,2,2,3,3,3,0,0,3,0,1,3,0,2,3,0,3,3,1,0,3,1,1,3,1,2,3,1,3,3,2,0,3,2,1,3,2,2,3,2,3,3,3,0,3,3,1,3,3,2,3,3,3,0,0,0,0,0,1,0,0,2,0,0,3,0,1,0,0,1,1,0,1,2,0,1,3,0,2,0,0,2,1,0,2,2,0,2,3,0,3,0,0,3,1,0,3,2,0,3,3,1,0,0,1,0,1,1,0,2,1,0,3,1,1,0,1,1,1,1,1,2,1,1,3,1,2,0,1,2,1,1,2,2,1,2,3,1,3,0,1,3,1,1,3,2,1,3,3,2,0,0,2,0,1,2,0,2,2,0,3,2,1,0,2,1,1,2,1,2,2,1,3,2,2,0,2,2,1,2,2,2,2,2,3,2,3,0,2,3,2,2,3,3,3,0,0,3,0,1,3,0,2,3,0,3,3,1,0,3,1,1,3,1,2,3,1,3,3,2,0,3,2,1,3,2,2,3,2,3,3,3,0,3,3,1,3,3,2,3,3,3,0,0,0,0,0,1,0,0,2,0,0,3,0,1,0,0,1,1,0,1,2,0,1,3,0,2,0,0,2,1,0,2,2,0,2,3,0,3,0,0,3,1,0,3,2,0,3,3,1,0,0,1,0,1,1,0,2,1,0,3,1,1,0,1,1,1,1,1,2,1,1,3,1,2,0,1,2,1,1,2,2,1,2,3,1,3,0,1,3,1,1,3,2,1,3,3,2,0,0,2,0,1,2,0,2,2,0,3,2,1,0,2,1,1,2,1,2,2,2,0,2,2,1,2,2,2,2,2,3,2,3,0,2,3,1,2,3,2,2,3,3,3,0,0,3,0,1,3,0,2,3,0,3,3,1,0,3,1,1,3,1,2,3,1,3,3,2,0,3,2,1,3,2,2,3,2,3,3,3,0,3,3,1,3,3,2,3,3,3,0,0,0,0,0,1,0,0,2,0,0,3,0,1,0,0,1,1,0,1,2,0,1,3,0,2,0,0,2,1,0,2,2,0,2,3,0,3,0,0,3,1,0,3,2,0,3,3,1,0,0,1,0,1,1,0,2,1,0,3,1,1,0,1,1,1,1,1,2,1,1,3,1,2,0,1,2,1,1,2,2,1,2,3,1,3,0,1,3,1,1,3,2,1,3,3,2,0,0,2,0,1,2,0,2,2,0,3,2,1,0,2,1,1,2,1,2,2,1,3,2,2,0,2,2,1,2,2,2,2,2,3,2,3,0,2,3,2,2,3,3,3,0,0,3,0,1,3,0,2,3,0,3,3,1,0,3,1,1,3,1,2,3,1,3,3,2,0,3,2,1,3,2,2,3,2,3,3,3,0,3,3,1,3,3,2,3,3,3,0,0,0,0,0,1,0,0,2,0,0,3,0,1,0,0,1,1,0,1,2,0,1,3,0,2,0,0,2,1,0,2,2,0,2,3,0,3,0,0,3,1,0,3,2,0,3,3,1,0,0,1,0,1,1,0,2,1,0,3,1,1,0,1,1,1,1,1,2,1,1,3,1,2,0,1,2,1,1,2,2,1,2,3,1,3,0,1,3,1,1,3,2,1,3,3,2,0,0,2,0,1,2,0,2,2,0,3,2,1,0,2,1,1,2,1,2,2,1,3,2,2,0,2,2,1,2,2,2,2,2,3,2,3,0,2,3,2,2,3,3,3,0,0,3,0,1,3,0,2,3,0,3,3,1,0,3,1,1,3,1,2,3,1,3,3,2,0,3,2,1,3,2,2,3,2,3,3,3,0,3,3,1,3,3,2,3,3,3,0,0,0,0,0,1,0,0,2,0,0,3,0,1,0,0,1,1,0,1,2,0,1,3,0,2,0,0,2,1,0,2,2,0,2,3,0,3,0,0,3,1,0,3,2,0,3,3,1,0,0,1,0,1,1,0,2,1,0,3,1,1,0,1,1,1,1,1,2,1,1,3,1,2,0,1,2,1,1,2,2,1,2,3,1,3,0,1,3,1,1,3,2,1,3,3,2,0,0,2,0,1,2,0,2,2,0,3,2,1,0,2,1,1,2,1,2,2,1,3,2,2,0,2,2,1,2,2,2,2,2,3,2,3,0,2,3,2,2,3,3,3,0,0,3,0,1,3,0,2,3,0,3,3,1,0,3,1,1,3,1,2,3,1,3,3,2,0,3,2,1,3,2,2,3,2,3,3,3,0,3,3,1,3,3,2,3,3,3,0,0,0,0,0,1,0,0,2,0,0,3,0,1,0,0,1,1,0,1,2,0,1,3,0,2,0,0,2,1,0,2,2,0,2,3,0,3,0,0,3,1,0,3,2,0,3,3,13,0,0,13,0,1,13,0,2,13,0,3,13,1,0,13,1,1,13,1,2,13,1,3,13,2,0,13,2,2,13,2,3,13,3,0,13,3,1,13,3,2,13,3,3,0,0,0,0,0,1,0,0,2,0,0,3,0,1,0,0,1,1,0,1,2,0,1,3,0,2,0,0,2,1,0,2,2,0,2,3,0,3,0,0,3,1,0,3,2,0,3,3,1,0,0,1,0,1,1,0,2,1,0,3,1,1,0,1,1,1,1,1,2,1,1,3,1,2,0,1,2,1,1,2,2,1,3,0,1,3,1,1,3,2,1,3,3,2,0,0,2,0,1,2,0,2,2,0,3,2,1,0,2,1,1,2,1,2,2,1,3,2,2,0,2,2,1,2,2,2,2,2,3,2,3,0,2,3,1,2,3,2,2,3,3,3,0,0,3,0,1,3,0,2,3,0,3,3,1,0,3,1,1,3,1,2,3,1,3,3,2,0,3,2,1,3,2,2,3,2,3,3,3,0,3,3,1,3,3,2,3,3,3,0,0,0,0,0,1,0,0,2,0,0,3,0,1,0,0,1,1,0,1,2,0,1,3,0,2,0,0,2,1,0,2,2,0,2,3,0,3,0,0,3,1,0,3,2,0,3,3,1,0,0,1,0,1,1,0,2,1,0,3,1,1,0,1,1,1,1,1,2,1,1,3,1,2,0,1,2,1,1,2,2,1,2,3,1,3,0,1,3,1,1,3,2,1,3,3,2,0,0,2,0,1,2,0,2,2,0,3,2,1,0,2,1,1,2,1,2,2,1,3,2,2,0,2,2,1,2,2,2,2,2,3,2,3,0,2,3,2,2,3,3,3,0,0,3,0,1,3,0,2,3,0,3,3,1,0,3,1,1,3,1,2,3,1,3,3,2,0,3,2,1,3,2,2,3,2,3,3,3,0,3,3,1,3,3,2,3,3,3,0,0,0,0,0,1,0,0,2,0,0,3,0,1,0,0,1,1,0,1,2,0,1,3,0,2,0,0,2,1,0,2,2,0,2,3,0,3,0,0,3,1,0,3,2,0,3,3,1,0,0,1,0,1,1,0,2,1,0,3,1,1,0,1,1,1,1,1,2,1,1,3,1,2,0,1,2,1,1,2,2,1,2,3,1,3,0,1,3,1,1,3,2,1,3,3,2,0,0,2,0,1,2,0,2,2,0,3,2,1,0,2,1,1,2,1,2,2,1,3,2,2,0,2,2,1,2,2,2,2,2,3,2,3,0,2,3,2,2,3,3,3,0,0,3,0,1,3,0,2,3,0,3,3,1,0,3,1,1,3,1,2,3,1,3,3,2,0,3,2,1,3,2,2,3,2,3,3,3,0,3,3,1,3,3,2,3,3,3,0,0,0,0,0,1,0,0,2,0,0,3,0,1,0,0,1,1,0,1,2,0,1,3,0,2,0,0,2,1,0,2,2,0,2,3,0,3,0,0,3,1,0,3,2,0,3,3,13,0,0,13,0,1,13,0,2,13,0,3,13,1,0,13,1,1,13,1,2,13,1,3,13,2,0,13,2,2,13,2,3,13,3,0,13,3,1,13,3,2,13,3,3,0,0,0,0,0,2,0,1,0,0,1,2,0,2,0,0,2,2,0,3,0,0,3,2,13,0,0,13,0,2,13,1,0,13,1,2,13,2,0,13,2,2,13,3,0,0,0,0,0,0,1,0,0,2,0,0,3,0,1,0,0,1,1,0,1,2,0,1,3,0,2,0,0,2,1,0,2,2,0,2,3,0,3,0,0,3,1,0,3,2,0,3,3,1,0,0,1,0,1,1,0,2,1,0,3,1,1,0,1,1,1,1,1,2,1,1,3,1,2,0,1,2,1,1,2,2,1,2,3,1,3,0,1,3,1,1,3,3,2,0,0,2,0,1,2,0,2,2,0,3,2,1,0,2,1,1,2,1,2,2,1,3,2,2,0,2,2,1,2,2,2,2,2,3,2,3,0,2,3,1,2,3,2,2,3,3,3,0,0,3,0,1,3,0,2,3,0,3,3,1,0,3,1,1,3,1,2,3,1,3,3,2,0,3,2,1,3,2,2,3,2,3,3,3,0,3,3,1,3,3,2,3,3,3,0,0,0,0,0,1,0,0,2,0,0,3,0,1,0,0,1,1,0,1,2,0,1,3,0,2,0,0,2,1,0,2,2,0,2,3,0,3,0,0,3,1,0,3,2,0,3,3,1,0,0,1,0,1,1,0,2,1,0,3,1,1,0,1,1,1,1,1,2,1,1,3,1,2,0,1,2,1,1,2,2,1,2,3,1,3,0,1,3,1,1,3,2,1,3,3,2,0,0,2,0,1,2,0,2,2,0,3,2,1,0,2,1,1,2,1,2,2,1,3,2,2,0,2,2,1,2,2,2,2,2,3,2,3,0,2,3,1,2,3,2,2,3,3,3,0,0,3,0,1,3,0,2,3,0,3,3,1,0,3,1,1,3,1,3,3,2,0,3,2,1,3,2,2,3,2,3,3,3,0,3,3,1,3,3,2,3,3,3,0,0,0,0,0,1,0,0,2,0,0,3,0,1,0,0,1,1,0,1,2,0,1,3,0,2,0,0,2,1,0,2,2,0,2,3,0,3,0,0,3,1,0,3,2,0,3,3,1,0,0,1,0,1,1,0,2,1,0,3,1,1,0,1,1,1,1,1,2,1,1,3,1,2,0,1,2,1,1,2,2,1,2,3,1,3,0,1,3,1,1,3,2,1,3,3,2,0,0,2,0,1,2,0,2,2,0,3,2,1,0,2,1,1,2,1,2,2,1,3,2,2,0,2,2,1,2,2,2,2,2,3,2,3,0,2,3,2,2,3,3,3,0,0,3,0,1,3,0,2,3,0,3,3,1,0,3,1,1,3,1,2,3,1,3,3,2,0,3,2,1,3,2,2,3,2,3,3,3,0,3,3,1,3,3,2,3,3,3,0,0,0,0,0,1,0,0,2,0,0,3,0,1,0,0,1,1,0,1,2,0,1,3,0,2,0,0,2,1,0,2,2,0,2,3,0,3,0,0,3,1,0,3,2,0,3,3,1,0,0,1,0,1,1,0,2,1,0,3,1,1,0,1,1,1,1,1,2,1,1,3,1,2,0,1,2,1,1,2,2,1,2,3,1,3,0,1,3,1,1,3,2,1,3,3,2,0,0,2,0,1,2,0,2,2,0,3,2,1,0,2,1,1,2,1,2,2,1,3,2,2,0,2,2,1,2,2,2,2,2,3,2,3,0,2,3,2,2,3,3,3,0,0,3,0,1,3,0,2,3,0,3,3,1,0,3,1,1,3,1,2,3,1,3,3,2,0,3,2,1,3,2,2,3,2,3,3,3,0,3,3,1,3,3,2,3,3,3,0,0,0,0,0,1,0,0,2,0,0,3,0,1,0,0,1,1,0,1,2,0,1,3,0,2,0,0,2,1,0,2,2,0,2,3,0,3,0,0,3,1,0,3,2,0,3,3,1,0,0,1,0,1,1,0,2,1,0,3,1,1,0,1,1,1,1,1,2,1,1,3,1,2,0,1,2,1,1,2,2,1,2,3,1,3,0,1,3,1,1,3,3,2,0,0,2,0,1,2,0,2,2,0,3,2,1,0,2,1,1,2,1,2,2,1,3,2,2,0,2,2,1,2,2,2,2,2,3,2,3,0,2,3,1,2,3,2,2,3,3,3,0,0,3,0,1,3,0,2,3,0,3,3,1,0,3,1,1,3,1,2,3,1,3,3,2,0,3,2,1,3,2,2,3,2,3,3,3,0,3,3,1,3,3,2,3,3,3,0,0,0,0,0,1,0,0,2,0,0,3,0,1,0,0,1,1,0,1,2,0,1,3,0,2,0,0,2,1,0,2,2,0,2,3,0,3,0,0,3,1,0,3,2,0,3,3,1,0,0,1,0,1,1,0,2,1,0,3,1,1,0,1,1,1,1,1,2,1,1,3,1,2,0,1,2,1,1,2,2,1,2,3,1,3,0,1,3,1,1,3,2,1,3,3,2,0,0,2,0,1,2,0,2,2,0,3,2,1,0,2,1,1,2,1,2,2,1,3,2,2,0,2,2,1,2,2,2,2,2,3,2,3,0,2,3,1,2,3,2,2,3,3,3,0,0,3,0,1,3,0,2,3,0,3,3,1,0,3,1,1,3,1,2,3,1,3,3,2,0,3,2,2,3,2,3,3,3,0,3,3,1,3,3,2,3,3,3,0,0,0,0,0,1,0,0,2,0,0,3,0,1,0,0,1,1,0,1,2,0,1,3,0,2,0,0,2,1,0,2,2,0,2,3,0,3,0,0,3,1,0,3,2,0,3,3,1,0,0,1,0,1,1,0,2,1,0,3,1,1,0,1,1,1,1,1,2,1,1,3,1,2,0,1,2,1,1,2,2,1,2,3,1,3,0,1,3,1,1,3,2,1,3,3,2,0,0,2,0,1,2,0,2,2,0,3,2,1,0,2,1,1,2,1,2,2,1,3,2,2,0,2,2,1,2,2,2,2,2,3,2,3,0,2,3,2,2,3,3,3,0,0,3,0,1,3,0,2,3,0,3,3,1,0,3,1,1,3,1,2,3,1,3,3,2,0,3,2,1,3,2,2,3,2,3,3,3,0,3,3,1,3,3,2,3,3,3,0,0,0,0,0,1,0,0,2,0,0,3,0,1,0,0,1,1,0,1,2,0,1,3,0,2,0,0,2,1,0,2,2,0,2,3,0,3,0,0,3,1,0,3,2,0,3,3,1,0,0,1,0,1,1,0,2,1,0,3,1,1,0,1,1,1,1,1,2,1,1,3,1,2,0,1,2,1,1,2,2,1,2,3,1,3,0,1,3,1,1,3,2,1,3,3,2,0,0,2,0,1,2,0,2,2,0,3,2,1,0,2,1,1,2,1,2,2,1,3,2,2,0,2,2,1,2,2,2,2,2,3,2,3,0,2,3,2,2,3,3,3,0,0,3,0,1,3,0,2,3,0,3,3,1,0,3,1,1,3,1,2,3,1,3,3,2,0,3,2,1,3,2,2,3,2,3,3,3,0,3,3,1,3,3,2,3,3,3,0,0,0,0,0,1,0,0,2,0,0,3,0,1,0,0,1,1,0,1,2,0,1,3,0,2,0,0,2,1,0,2,2,0,2,3,0,3,0,0,3,1,0,3,2,0,3,3,1,0,0,1,0,1,1,0,2,1,0,3,1,1,0,1,1,1,1,1,2,1,1,3,1,2,0,1,2,1,1,2,2,1,2,3,1,3,0,1,3,1,1,3,2,1,3,3,2,0,0,2,0,1,2,0,2,2,0,3,2,1,0,2,1,1,2,1,2,2,1,3,2,2,0,2,2,1,2,2,2,2,2,3,2,3,0,2,3,2,2,3,3,3,0,0,3,0,1,3,0,2,3,0,3,3,1,0,3,1,1,3,1,2,3,1,3,3,2,0,3,2,1,3,2,2,3,2,3,3,3,0,3,3,1,3,3,2,3,3,3,0,0,0,0,0,1,0,0,2,0,0,3,0,1,0,0,1,1,0,1,2,0,1,3,0,2,0,0,2,1,0,2,2,0,2,3,0,3,0,0,3,1,0,3,2,0,3,3,13,0,0,13,0,1,13,0,2,13,0,3,13,1,0,13,1,1,13,1,2,13,1,3,13,2,0,13,2,2,13,2,3,13,3,0,13,3,1,13,3,2,13,3,3,0,0,0,0,0,1,0,0,2,0,0,3,0,1,0,0,1,1,0,1,2,0,1,3,0,2,0,0,2,1,0,2,2,0,2,3,0,3,0,0,3,1,0,3,2,0,3,3,13,0,0,13,0,1,13,0,2,13,0,3,13,1,0,13,1,1,13,1,2,13,1,3,13,2,0,13,2,2,13,2,3,13,3,0,13,3,1,13,3,2,13,3,3,0,0,0,0,0,1,0,0,2,0,0,3,0,1,0,0,1,1,0,1,2,0,1,3,0,2,0,0,2,1,0,2,2,0,2,3,0,3,0,0,3,1,0,3,2,0,3,3,1,0,0,1,0,1,1,0,2,1,0,3,1,1,0,1,1,1,1,1,2,1,1,3,1,2,0,1,2,1,1,2,2,1,2,3,1,3,0,1,3,1,1,3,2,1,3,3,2,0,0,2,0,1,2,0,2,2,0,3,2,1,0,2,1,1,2,1,2,2,1,3,2,2,0,2,2,1,2,2,2,2,2,3,2,3,0,2,3,2,2,3,3,3,0,0,3,0,1,3,0,2,3,0,3,3,1,0,3,1,1,3,1,2,3,1,3,3,2,0,3,2,1,3,2,2,3,2,3,3,3,0,3,3,1,3,3,2,3,3,3,0,0,0,0,0,1,0,0,2,0,0,3,0,1,0,0,1,1,0,1,2,0,1,3,0,2,0,0,2,1,0,2,2,0,2,3,0,3,0,0,3,1,0,3,2,0,3,3,1,0,0,1,0,1,1,0,2,1,0,3,1,1,0,1,1,1,1,1,2,1,1,3,1,2,0,1,2,1,1,2,2,1,2,3,1,3,0,1,3,1,1,3,3,2,0,0,2,0,1,2,0,2,2,0,3,2,1,0,2,1,1,2,1,2,2,1,3,2,2,0,2,2,1,2,2,2,2,2,3,2,3,0,2,3,1,2,3,2,2,3,3,3,0,0,3,0,1,3,0,2,3,0,3,3,1,0,3,1,1,3,1,2,3,1,3,3,2,0,3,2,1,3,2,2,3,2,3,3,3,0,3,3,1,3,3,2,3,3,3,0,0,0,0,0,1,0,0,2,0,0,3,0,1,0,0,1,1,0,1,2,0,1,3,0,2,0,0,2,1,0,2,2,0,2,3,0,3,0,0,3,1,0,3,2,0,3,3,1,0,0,1,0,1,1,0,2,1,0,3,1,1,0,1,1,1,1,1,2,1,1,3,1,2,0,1,2,1,1,2,2,1,2,3,1,3,0,1,3,1,1,3,3,2,0,0,2,0,1,2,0,2,2,0,3,2,1,0,2,1,1,2,1,2,2,1,3,2,2,0,2,2,1,2,2,2,2,2,3,2,3,0,2,3,1,2,3,2,2,3,3,3,0,0,3,0,1,3,0,2,3,0,3,3,1,0,3,1,1,3,1,2,3,1,3,3,2,0,3,2,1,3,2,2,3,2,3,3,3,0,3,3,1,3,3,2,3,3,3,0,0,0,0,0,1,0,0,2,0,0,3,0,1,0,0,1,1,0,1,2,0,1,3,0,2,0,0,2,1,0,2,2,0,2,3,0,3,0,0,3,1,0,3,2,0,3,3,1,0,0,1,0,1,1,0,2,1,0,3,1,1,0,1,1,1,1,1,2,1,1,3,1,2,0,1,2,1,1,2,2,1,2,3,1,3,0,1,3,1,1,3,2,1,3,3,2,0,0,2,0,1,2,0,2,2,0,3,2,1,0,2,1,1,2,1,2,2,1,3,2,2,0,2,2,1,2,2,2,2,2,3,2,3,0,2,3,2,2,3,3,3,0,0,3,0,1,3,0,2,3,0,3,3,1,0,3,1,1,3,1,2,3,1,3,3,2,0,3,2,1,3,2,2,3,2,3,3,3,0,3,3,1,3,3,2,3,3,3,0,0,0,0,0,1,0,0,2,0,0,3,0,1,0,0,1,1,0,1,2,0,1,3,0,2,0,0,2,1,0,2,2,0,2,3,0,3,0,0,3,1,0,3,2,0,3,3,1,0,0,1,0,1,1,0,2,1,0,3,1,1,0,1,1,1,1,1,2,1,1,3,1,2,0,1,2,1,1,2,2,1,2,3,1,3,0,1,3,1,1,3,3,2,0,0,2,0,1,2,0,2,2,0,3,2,1,0,2,1,1,2,1,2,2,1,3,2,2,0,2,2,1,2,2,2,2,2,3,2,3,0,2,3,1,2,3,2,2,3,3,3,0,0,3,0,1,3,0,2,3,0,3,3,1,0,3,1,1,3,1,2,3,1,3,3,2,0,3,2,1,3,2,2,3,2,3,3,3,0,3,3,1,3,3,2,3,3,3,0,0,0,0,0,1,0,0,2,0,0,3,0,1,0,0,1,1,0,1,2,0,1,3,0,2,0,0,2,1,0,2,2,0,2,3,0,3,0,0,3,1,0,3,2,0,3,3,1,0,0,1,0,1,1,0,2,1,0,3,1,1,0,1,1,1,1,1,2,1,1,3,1,2,0,1,2,1,1,2,2,1,2,3,1,3,0,1,3,1,1,3,2,1,3,3,2,0,0,2,0,1,2,0,2,2,0,3,2,1,0,2,1,1,2,1,2,2,1,3,2,2,0,2,2,1,2,2,2,2,2,3,2,3,0,2,3,2,2,3,3,3,0,0,3,0,1,3,0,2,3,0,3,3,1,0,3,1,1,3,1,2,3,1,3,3,2,0,3,2,1,3,2,2,3,2,3,3,3,0,3,3,1,3,3,2,3,3,3,0,0,0,0,0,1,0,0,2,0,0,3,0,1,0,0,1,1,0,1,2,0,1,3,0,2,0,0,2,1,0,2,2,0,2,3,0,3,0,0,3,1,0,3,2,0,3,3,1,0,0,1,0,1,1,0,2,1,0,3,1,1,0,1,1,1,1,1,2,1,1,3,1,2,0,1,2,1,1,2,2,1,2,3,1,3,0,1,3,1,1,3,2,1,3,3,2,0,0,2,0,1,2,0,2,2,0,3,2,1,0,2,1,1,2,1,2,2,2,0,2,2,1,2,2,2,2,2,3,2,3,0,2,3,1,2,3,2,2,3,3,3,0,0,3,0,1,3,0,2,3,0,3,3,1,0,3,1,1,3,1,2,3,1,3,3,2,0,3,2,1,3,2,2,3,2,3,3,3,0,3,3,1,3,3,2,3,3,3,0,0,0,0,0,1,0,0,2,0,0,3,0,1,0,0,1,1,0,1,2,0,1,3,0,2,0,0,2,1,0,2,2,0,2,3,0,3,0,0,3,1,0,3,2,0,3,3,1,0,0,1,0,1,1,0,2,1,0,3,1,1,0,1,1,1,1,1,2,1,1,3,1,2,0,1,2,1,1,2,2,1,2,3,1,3,0,1,3,1,1,3,2,1,3,3,2,0,0,2,0,1,2,0,2,2,0,3,2,1,0,2,1,1,2,1,2,2,1,3,2,2,0,2,2,1,2,2,2,2,2,3,2,3,0,2,3,2,2,3,3,3,0,0,3,0,1,3,0,2,3,0,3,3,1,0,3,1,1,3,1,2,3,1,3,3,2,0,3,2,1,3,2,2,3,2,3,3,3,0,3,3,1,3,3,2,3,3,3,0,0,0,0,0,1,0,0,2,0,0,3,0,1,0,0,1,1,0,1,2,0,1,3,0,2,0,0,2,1,0,2,2,0,2,3,0,3,0,0,3,1,0,3,2,0,3,3,1,0,0,1,0,1,1,0,2,1,0,3,1,1,0,1,1,1,1,1,2,1,1,3,1,2,0,1,2,1,1,2,2,1,2,3,1,3,0,1,3,1,1,3,2,1,3,3,2,0,0,2,0,1,2,0,2,2,0,3,2,1,0,2,1,1,2,1,2,2,1,3,2,2,0,2,2,1,2,2,2,2,2,3,2,3,0,2,3,2,2,3,3,3,0,0,3,0,1,3,0,2,3,0,3,3,1,0,3,1,1,3,1,2,3,1,3,3,2,0,3,2,1,3,2,2,3,2,3,3,3,0,3,3,1,3,3,2,3,3,3,0,0,0,0,0,1,0,0,2,0,0,3,0,1,0,0,1,1,0,1,2,0,1,3,0,2,0,0,2,1,0,2,2,0,2,3,0,3,0,0,3,1,0,3,2,0,3,3,1,0,0,1,0,1,1,0,2,1,0,3,1,1,0,1,1,1,1,1,2,1,1,3,1,2,0,1,2,1,1,2,2,1,2,3,1,3,0,1,3,1,1,3,3,2,0,0,2,0,1,2,0,2,2,0,3,2,1,0,2,1,1,2,1,2,2,1,3,2,2,0,2,2,1,2,2,2,2,2,3,2,3,0,2,3,1,2,3,2,2,3,3,3,0,0,3,0,1,3,0,2,3,0,3,3,1,0,3,1,1,3,1,2,3,1,3,3,2,0,3,2,1,3,2,2,3,2,3,3,3,0,3,3,1,3,3,2,3,3,3,0,0,0,0,0,1,0,0,2,0,0,3,0,1,0,0,1,1,0,1,2,0,1,3,0,2,0,0,2,1,0,2,2,0,2,3,0,3,0,0,3,1,0,3,2,0,3,3,1,0,0,1,0,1,1,0,2,1,0,3,1,1,0,1,1,1,1,1,2,1,1,3,1,2,0,1,2,1,1,2,2,1,2,3,1,3,0,1,3,1,1,3,3,2,0,0,2,0,1,2,0,2,2,0,3,2,1,0,2,1,1,2,1,2,2,1,3,2,2,0,2,2,1,2,2,2,2,2,3,2,3,0,2,3,1,2,3,2,2,3,3,3,0,0,3,0,1,3,0,2,3,0,3,3,1,0,3,1,1,3,1,2,3,1,3,3,2,0,3,2,1,3,2,2,3,2,3,3,3,0,3,3,1,3,3,2,3,3,3,0,0,0,0,0,1,0,0,2,0,0,3,0,1,0,0,1,1,0,1,2,0,1,3,0,2,0,0,2,1,0,2,2,0,2,3,0,3,0,0,3,1,0,3,2,0,3,3,13,0,0,13,0,1,13,0,2,13,0,3,13,1,0,13,1,1,13,1,2,13,1,3,13,2,0,13,2,2,13,2,3,13,3,0,13,3,1,13,3,2,13,3,3,0,0,0,0,0,1,0,0,2,0,0,3,0,1,0,0,1,1,0,1,2,0,1,3,0,2,0,0,2,1,0,2,2,0,2,3,0,3,0,0,3,1,0,3,2,0,3,3,1,0,0,1,0,1,1,0,2,1,0,3,1,1,0,1,1,1,1,1,2,1,1,3,1,2,0,1,2,1,1,2,2,1,2,3,1,3,0,1,3,1,1,3,2,1,3,3,2,0,0,2,0,1,2,0,2,2,0,3,2,1,0,2,1,1,2,1,2,2,2,0,2,2,1,2,2,2,2,2,3,2,3,0,2,3,1,2,3,2,2,3,3,3,0,0,3,0,1,3,0,2,3,0,3,3,1,0,3,1,1,3,1,2,3,1,3,3,2,0,3,2,1,3,2,2,3,2,3,3,3,0,3,3,1,3,3,2,3,3,3,0,0,0,0,0,1,0,0,2,0,0,3,0,1,0,0,1,1,0,1,2,0,1,3,0,2,0,0,2,1,0,2,2,0,2,3,0,3,0,0,3,1,0,3,2,0,3,3,13,0,0,13,0,1,13,0,2,13,0,3,13,1,0,13,1,1,13,1,2,13,1,3,13,2,0,13,2,2,13,2,3,13,3,0,13,3,1,13,3,2,13,3,3,0,0,0,0,0,1,0,0,2,0,0,3,0,1,0,0,1,1,0,1,2,0,1,3,0,2,0,0,2,1,0,2,2,0,2,3,0,3,0,0,3,1,0,3,2,0,3,3,1,0,0,1,0,1,1,0,2,1,0,3,1,1,0,1,1,1,1,1,2,1,1,3,1,2,0,1,2,1,1,2,2,1,2,3,1,3,0,1,3,1,1,3,2,1,3,3,2,0,0,2,0,1,2,0,2,2,0,3,2,1,0,2,1,1,2,1,2,2,2,0,2,2,1,2,2,2,2,2,3,2,3,0,2,3,1,2,3,2,2,3,3,3,0,0,3,0,1,3,0,2,3,0,3,3,1,0,3,1,1,3,1,2,3,1,3,3,2,0,3,2,1,3,2,2,3,2,3,3,3,0,3,3,1,3,3,2,3,3,3,0,0,0,0,0,1,0,0,2,0,0,3,0,1,0,0,1,1,0,1,2,0,1,3,0,2,0,0,2,1,0,2,2,0,2,3,0,3,0,0,3,1,0,3,2,0,3,3,1,0,0,1,0,1,1,0,2,1,0,3,1,1,0,1,1,1,1,1,2,1,1,3,1,2,0,1,2,1,1,2,2,1,2,3,1,3,0,1,3,1,1,3,2,1,3,3,2,0,0,2,0,1,2,0,2,2,0,3,2,1,0,2,1,1,2,1,2,2,1,3,2,2,0,2,2,1,2,2,2,2,2,3,2,3,0,2,3,2,2,3,3,3,0,0,3,0,1,3,0,2,3,0,3,3,1,0,3,1,1,3,1,2,3,1,3,3,2,0,3,2,1,3,2,2,3,2,3,3,3,0,3,3,1,3,3,2,3,3,3,0,0,0,0,0,1,0,0,2,0,0,3,0,1,0,0,1,1,0,1,2,0,1,3,0,2,0,0,2,1,0,2,2,0,2,3,0,3,0,0,3,1,0,3,2,0,3,3,1,0,0,1,0,1,1,0,2,1,0,3,1,1,0,1,1,1,1,1,2,1,1,3,1,2,0,1,2,1,1,2,2,1,2,3,1,3,0,1,3,1,1,3,2,1,3,3,2,0,0,2,0,1,2,0,2,2,0,3,2,1,0,2,1,1,2,1,2,2,1,3,2,2,0,2,2,1,2,2,2,2,2,3,2,3,0,2,3,2,2,3,3,3,0,0,3,0,1,3,0,2,3,0,3,3,1,0,3,1,1,3,1,2,3,1,3,3,2,0,3,2,1,3,2,2,3,2,3,3,3,0,3,3,1,3,3,2,3,3,3,0,0,0,0,0,1,0,0,2,0,0,3,0,1,0,0,1,1,0,1,2,0,1,3,0,2,0,0,2,1,0,2,2,0,2,3,0,3,0,0,3,1,0,3,2,0,3,3,13,0,0,13,0,1,13,0,2,13,0,3,13,1,0,13,1,1,13,1,2,13,1,3,13,2,0,13,2,2,13,2,3,13,3,0,13,3,1,13,3,2,13,3,3,0,0,0,0,0,1,0,0,2,0,0,3,0,1,0,0,1,1,0,1,2,0,1,3,0,2,0,0,2,1,0,2,2,0,2,3,0,3,0,0,3,1,0,3,2,0,3,3,1,0,0,1,0,1,1,0,2,1,0,3,1,1,0,1,1,1,1,1,2,1,1,3,1,2,0,1,2,1,1,2,2,1,3,0,1,3,1,1,3,2,1,3,3,2,0,0,2,0,1,2,0,2,2,0,3,2,1,0,2,1,1,2,1,2,2,1,3,2,2,0,2,2,1,2,2,2,2,2,3,2,3,0,2,3,1,2,3,2,2,3,3,3,0,0,3,0,1,3,0,2,3,0,3,3,1,0,3,1,1,3,1,2,3,1,3,3,2,0,3,2,1,3,2,2,3,2,3,3,3,0,3,3,1,3,3,2,3,3,3,0,0,0,0,0,1,0,0,2,0,0,3,0,1,0,0,1,1,0,1,2,0,1,3,0,2,0,0,2,1,0,2,2,0,2,3,0,3,0,0,3,1,0,3,2,0,3,3,1,0,0,1,0,1,1,0,2,1,0,3,1,1,0,1,1,1,1,1,2,1,1,3,1,2,0,1,2,1,1,2,2,1,2,3,1,3,0,1,3,1,1,3,2,1,3,3,2,0,0,2,0,1,2,0,2,2,0,3,2,1,0,2,1,1,2,1,2,2,2,0,2,2,1,2,2,2,2,2,3,2,3,0,2,3,1,2,3,2,2,3,3,3,0,0,3,0,1,3,0,2,3,0,3,3,1,0,3,1,1,3,1,2,3,1,3,3,2,0,3,2,1,3,2,2,3,2,3,3,3,0,3,3,1,3,3,2,3,3,3,0,0,0,0,0,1,0,0,2,0,0,3,0,1,0,0,1,1,0,1,2,0,1,3,0,2,0,0,2,1,0,2,2,0,2,3,0,3,0,0,3,1,0,3,2,0,3,3,2,0,0,2,0,1,2,0,2,2,0,3,2,1,0,2,1,1,2,1,2,2,1,3,2,2,0,2,2,1,2,2,2,2,2,3,2,3,0,2,3,2,2,3,3,0,0,0,0,0,1,0,0,2,0,0,3,0,1,0,0,1,1,0,1,2,0,1,3,0,2,0,0,2,1,0,2,2,0,2,3,0,3,0,0,3,1,0,3,2,0,3,3,13,0,0,13,0,1,13,0,2,13,0,3,13,1,0,13,1,1,13,1,2,13,1,3,13,2,0,13,2,2,13,2,3,13,3,0,13,3,1,13,3,2,13,3,3,0,0,0,0,0,1,0,0,2,0,0,3,0,1,0,0,1,1,0,1,2,0,1,3,0,2,0,0,2,1,0,2,2,0,2,3,0,3,0,0,3,1,0,3,2,0,3,3,1,0,0,1,0,1,1,0,2,1,0,3,1,1,0,1,1,1,1,1,2,1,1,3,1,2,0,1,2,1,1,2,2,1,2,3,1,3,0,1,3,1,1,3,2,1,3,3,2,0,0,2,0,1,2,0,2,2,0,3,2,1,0,2,1,1,2,1,2,2,1,3,2,2,0,2,2,1,2,2,2,2,2,3,2,3,0,2,3,2,2,3,3,3,0,0,3,0,1,3,0,2,3,0,3,3,1,0,3,1,1,3,1,2,3,1,3,3,2,0,3,2,1,3,2,2,3,2,3,3,3,0,3,3,1,3,3,2,3,3,3,0,0,0,0,0,13,0,1,0,0,1,13,0,2,0,0,2,13,0,3,0,0,3,13,1,0,0,1,0,13,1,1,0,1,1,13,1,2,0,1,2,13,1,3,0,1,3,13,2,0,0,2,0,13,2,1,0,2,2,0,2,2,13,2,3,0,2,3,13,3,0,0,3,0,13,3,1,0,3,1,13,3,2,0,3,2,13,3,3,0,3,3,13,0,0,0,0,0,1,0,0,2,0,0,3,0,1,0,0,1,1,0,1,2,0,1,3,0,2,0,0,2,1,0,2,2,0,2,3,0,3,0,0,3,1,0,3,2,0,3,3,1,0,0,1,0,1,1,0,2,1,0,3,1,1,0,1,1,1,1,1,2,1,1,3,1,2,0,1,2,1,1,2,2,1,2,3,1,3,0,1,3,1,1,3,2,1,3,3,2,0,0,2,0,1,2,0,2,2,0,3,2,1,0,2,1,1,2,1,2,2,1,3,2,2,0,2,2,1,2,2,2,2,2,3,2,3,0,2,3,2,2,3,3,3,0,0,3,0,1,3,0,2,3,0,3,3,1,0,3,1,1,3,1,2,3,1,3,3,2,0,3,2,1,3,2,2,3,2,3,3,3,0,3,3,1,3,3,2,3,3,3,0,0,0,0,0,1,0,0,2,0,0,3,0,1,0,0,1,1,0,1,2,0,1,3,0,2,0,0,2,1,0,2,2,0,2,3,0,3,0,0,3,1,0,3,2,0,3,3,1,0,0,1,0,1,1,0,2,1,0,3,1,1,0,1,1,1,1,1,2,1,1,3,1,2,0,1,2,1,1,2,2,1,2,3,1,3,0,1,3,1,1,3,2,1,3,3,2,0,0,2,0,1,2,0,2,2,0,3,2,1,0,2,1,1,2,1,2,2,1,3,2,2,0,2,2,1,2,2,2,2,2,3,2,3,0,2,3,2,2,3,3,3,0,0,3,0,1,3,0,2,3,0,3,3,1,0,3,1,1,3,1,2,3,1,3,3,2,0,3,2,1,3,2,2,3,2,3,3,3,0,3,3,1,3,3,2,3,3,3,0,0,0,0,0,1,0,0,2,0,0,3,0,1,0,0,1,1,0,1,2,0,1,3,0,2,0,0,2,1,0,2,2,0,2,3,0,3,0,0,3,1,0,3,2,0,3,3,1,0,0,1,0,1,1,0,2,1,0,3,1,1,0,1,1,1,1,1,2,1,1,3,1,2,0,1,2,1,1,2,2,1,2,3,1,3,0,1,3,1,1,3,2,1,3,3,2,0,0,2,0,1,2,0,2,2,0,3,2,1,0,2,1,1,2,1,2,2,1,3,2,2,0,2,2,1,2,2,2,2,2,3,2,3,0,2,3,2,2,3,3,3,0,0,3,0,1,3,0,2,3,0,3,3,1,0,3,1,1,3,1,2,3,1,3,3,2,0,3,2,1,3,2,2,3,2,3,3,3,0,3,3,1,3,3,2,3,3,3,0,0,0,0,0,2,0,13,0,0,13,2,13,0,0,13,0,2,13,13,0,0,0,0,0,0,1,0,0,2,0,0,3,0,1,0,0,1,1,0,1,2,0,1,3,0,2,0,0,2,1,0,2,2,0,2,3,0,3,0,0,3,1,0,3,2,0,3,3,1,0,0,1,0,1,1,0,2,1,0,3,1,1,0,1,1,1,1,1,2,1,1,3,1,2,0,1,2,1,1,2,2,1,2,3,1,3,0,1,3,1,1,3,2,1,3,3,2,0,0,2,0,1,2,0,2,2,0,3,2,1,0,2,1,1,2,1,2,2,1,3,2,2,0,2,2,1,2,2,2,2,2,3,2,3,0,2,3,2,2,3,3,3,0,0,3,0,1,3,0,2,3,0,3,3,1,0,3,1,1,3,1,2,3,1,3,3,2,0,3,2,1,3,2,2,3,2,3,3,3,0,3,3,1,3,3,2,3,3,3,0,0,0,0,0,1,0,0,2,0,0,3,0,1,0,0,1,1,0,1,2,0,1,3,0,2,0,0,2,1,0,2,2,0,2,3,0,3,0,0,3,1,0,3,2,0,3,3,1,0,0,1,0,1,1,0,2,1,0,3,1,1,0,1,1,1,1,1,2,1,1,3,1,2,0,1,2,1,1,2,2,1,2,3,1,3,0,1,3,1,1,3,2,1,3,3,2,0,0,2,0,1,2,0,2,2,0,3,2,1,0,2,1,1,2,1,2,2,2,0,2,2,1,2,2,2,2,2,3,2,3,0,2,3,1,2,3,2,2,3,3,3,0,0,3,0,1,3,0,2,3,0,3,3,1,0,3,1,1,3,1,2,3,1,3,3,2,0,3,2,1,3,2,2,3,2,3,3,3,0,3,3,1,3,3,2,3,3,3,0,0,0,0,0,1,0,0,2,0,0,3,0,1,0,0,1,1,0,1,2,0,1,3,0,2,0,0,2,1,0,2,2,0,2,3,0,3,0,0,3,1,0,3,2,0,3,3,1,0,0,1,0,1,1,0,2,1,0,3,1,1,0,1,1,1,1,1,2,1,1,3,1,2,0,1,2,1,1,2,2,1,2,3,1,3,0,1,3,1,1,3,2,1,3,3,2,0,0,2,0,1,2,0,2,2,0,3,2,1,0,2,1,1,2,1,2,2,1,3,2,2,0,2,2,1,2,2,2,2,2,3,2,3,0,2,3,2,2,3,3,3,0,0,3,0,1,3,0,2,3,0,3,3,1,0,3,1,1,3,1,2,3,1,3,3,2,0,3,2,1,3,2,2,3,2,3,3,3,0,3,3,1,3,3,2,3,3,3,0,0,0,0,0,2,0,13,0,0,13,2,1,0,0,1,0,2,1,13,0,2,0,0,2,0,2,2,13,0,2,13,2,3,0,0,3,0,2,3,13,0,3,13,2,0,0,0,0,0,13,0,1,0,0,1,13,0,2,0,0,2,13,0,3,0,0,3,13,13,0,0,13,0,13,13,1,0,13,1,13,13,2,0,13,3,0,13,3,13,0,0,0,0,0,1,0,0,2,0,0,3,0,1,0,0,1,1,0,1,2,0,1,3,0,2,0,0,2,1,0,2,2,0,2,3,0,3,0,0,3,1,0,3,2,0,3,3,13,0,0,13,0,1,13,0,2,13,0,3,13,1,0,13,1,1,13,1,2,13,1,3,13,2,0,13,2,2,13,2,3,13,3,0,13,3,1,13,3,2,13,3,3,0,0,0,0,0,1,0,0,2,0,0,3,0,1,0,0,1,1,0,1,2,0,1,3,0,2,0,0,2,1,0,2,2,0,2,3,0,3,0,0,3,1,0,3,2,0,3,3,13,0,0,13,0,1,13,0,2,13,0,3,13,1,0,13,1,1,13,1,2,13,1,3,13,2,0,13,2,2,13,2,3,13,3,0,13,3,1,13,3,2,13,3,3,0,0,0,0,0,2,0,13,0,0,13,2,1,0,0,1,0,2,1,13,0,2,0,0,2,0,2,2,13,0,2,13,2,3,0,0,3,0,2,3,13,0,3,13,2,0,0,0,0,0,1,0,0,2,0,0,3,0,1,0,0,1,1,0,1,2,0,1,3,0,2,0,0,2,1,0,2,2,0,2,3,0,3,0,0,3,1,0,3,2,0,3,3,1,0,0,1,0,1,1,0,2,1,0,3,1,1,0,1,1,1,1,1,2,1,1,3,1,2,0,1,2,1,1,2,2,1,2,3,1,3,0,1,3,1,1,3,2,1,3,3,2,0,0,2,0,1,2,0,2,2,0,3,2,1,0,2,1,1,2,1,2,2,1,3,2,2,0,2,2,1,2,2,2,2,2,3,2,3,0,2,3,2,2,3,3,3,0,0,3,0,1,3,0,2,3,0,3,3,1,0,3,1,1,3,1,2,3,1,3,3,2,0,3,2,1,3,2,2,3,2,3,3,3,0,3,3,1,3,3,2,3,3,3,0,0,0,0,0,1,0,0,2,0,0,3,0,1,0,0,1,1,0,1,2,0,1,3,0,2,0,0,2,1,0,2,2,0,2,3,0,3,0,0,3,1,0,3,2,0,3,3,1,0,0,1,0,1,1,0,2,1,0,3,1,1,0,1,1,1,1,1,2,1,1,3,1,2,0,1,2,1,1,2,2,1,2,3,1,3,0,1,3,1,1,3,2,1,3,3,2,0,0,2,0,1,2,0,2,2,0,3,2,1,0,2,1,1,2,1,2,2,1,3,2,2,0,2,2,1,2,2,2,2,2,3,2,3,0,2,3,2,2,3,3,3,0,0,3,0,1,3,0,2,3,0,3,3,1,0,3,1,1,3,1,2,3,1,3,3,2,0,3,2,1,3,2,2,3,2,3,3,3,0,3,3,1,3,3,2,3,3,3,0,0,0,0,0,1,0,0,2,0,0,3,0,1,0,0,1,1,0,1,2,0,1,3,0,2,0,0,2,1,0,2,2,0,2,3,0,3,0,0,3,1,0,3,2,0,3,3,1,0,0,1,0,1,1,0,2,1,0,3,1,1,0,1,1,1,1,1,2,1,1,3,1,2,0,1,2,1,1,2,2,1,2,3,1,3,0,1,3,1,1,3,3,2,0,0,2,0,1,2,0,2,2,0,3,2,1,0,2,1,1,2,1,2,2,1,3,2,2,0,2,2,1,2,2,2,2,2,3,2,3,0,2,3,1,2,3,2,2,3,3,3,0,0,3,0,1,3,0,2,3,0,3,3,1,0,3,1,1,3,1,2,3,1,3,3,2,0,3,2,1,3,2,2,3,2,3,3,3,0,3,3,1,3,3,2,3,3,3,0,0,0,0,0,2,0,13,0,0,13,2,1,0,0,1,0,2,1,13,0,2,0,0,2,0,2,2,13,0,2,13,2,3,0,0,3,0,2,3,13,0,3,13,2,0,0,0,0,0,1,0,0,2,0,0,3,0,1,0,0,1,1,0,1,2,0,1,3,0,2,0,0,2,1,0,2,2,0,2,3,0,3,0,0,3,1,0,3,2,0,3,3,1,0,0,1,0,1,1,0,2,1,0,3,1,1,0,1,1,1,1,1,2,1,1,3,1,2,0,1,2,1,1,2,2,1,2,3,1,3,0,1,3,1,1,3,2,1,3,3,2,0,0,2,0,1,2,0,2,2,0,3,2,1,0,2,1,1,2,1,2,2,1,3,2,2,0,2,2,1,2,2,2,2,2,3,2,3,0,2,3,1,2,3,2,2,3,3,3,0,0,3,0,1,3,0,2,3,0,3,3,1,0,3,1,1,3,1,2,3,1,3,3,2,0,3,2,2,3,2,3,3,3,0,3,3,1,3,3,2,3,3,3,0,0,0,0,0,1,0,0,2,0,0,3,0,1,0,0,1,1,0,1,2,0,1,3,0,2,0,0,2,1,0,2,2,0,2,3,0,3,0,0,3,1,0,3,2,0,3,3,1,0,0,1,0,1,1,0,2,1,0,3,1,1,0,1,1,1,1,1,2,1,1,3,1,2,0,1,2,1,1,2,2,1,2,3,1,3,0,1,3,1,1,3,3,2,0,0,2,0,1,2,0,2,2,0,3,2,1,0,2,1,1,2,1,2,2,1,3,2,2,0,2,2,1,2,2,2,2,2,3,2,3,0,2,3,1,2,3,2,2,3,3,3,0,0,3,0,1,3,0,2,3,0,3,3,1,0,3,1,1,3,1,2,3,1,3,3,2,0,3,2,1,3,2,2,3,2,3,3,3,0,3,3,1,3,3,2,3,3,3,0,0,0,0,0,1,0,0,2,0,0,3,0,1,0,0,1,1,0,1,2,0,1,3,0,2,0,0,2,1,0,2,2,0,2,3,0,3,0,0,3,1,0,3,2,0,3,3,1,0,0,1,0,1,1,0,2,1,0,3,1,1,0,1,1,1,1,1,2,1,1,3,1,2,0,1,2,1,1,2,2,1,2,3,1,3,0,1,3,1,1,3,2,1,3,3,2,0,0,2,0,1,2,0,2,2,0,3,2,1,0,2,1,1,2,1,2,2,2,0,2,2,1,2,2,2,2,2,3,2,3,0,2,3,1,2,3,2,2,3,3,3,0,0,3,0,1,3,0,2,3,0,3,3,1,0,3,1,1,3,1,2,3,1,3,3,2,0,3,2,1,3,2,2,3,2,3,3,3,0,3,3,1,3,3,2,3,3,3,0,0,0,0,0,1,0,0,2,0,0,3,0,1,0,0,1,1,0,1,2,0,1,3,0,2,0,0,2,1,0,2,2,0,2,3,0,3,0,0,3,1,0,3,2,0,3,3,1,0,0,1,0,1,1,0,2,1,0,3,1,1,0,1,1,1,1,1,2,1,1,3,1,2,0,1,2,1,1,2,2,1,2,3,1,3,0,1,3,1,1,3,2,1,3,3,2,0,0,2,0,1,2,0,2,2,0,3,2,1,0,2,1,1,2,1,2,2,1,3,2,2,0,2,2,1,2,2,2,2,2,3,2,3,0,2,3,2,2,3,3,3,0,0,3,0,1,3,0,2,3,0,3,3,1,0,3,1,1,3,1,2,3,1,3,3,2,0,3,2,1,3,2,2,3,2,3,3,3,0,3,3,1,3,3,2,3,3,3,0,0,0,0,0,1,0,0,2,0,0,3,0,1,0,0,1,1,0,1,2,0,1,3,0,2,0,0,2,1,0,2,2,0,2,3,0,3,0,0,3,1,0,3,2,0,3,3,13,0,0,13,0,1,13,0,2,13,0,3,13,1,0,13,1,1,13,1,2,13,1,3,13,2,0,13,2,2,13,2,3,13,3,0,13,3,1,13,3,2,13,3,3,0,0,0,0,0,1,0,0,2,0,0,3,0,1,0,0,1,1,0,1,2,0,1,3,0,2,0,0,2,1,0,2,2,0,2,3,0,3,0,0,3,1,0,3,2,0,3,3,1,0,0,1,0,1,1,0,2,1,0,3,1,1,0,1,1,1,1,1,2,1,1,3,1,2,0,1,2,1,1,2,2,1,2,3,1,3,0,1,3,1,1,3,2,1,3,3,2,0,0,2,0,1,2,0,2,2,0,3,2,1,0,2,1,1,2,1,2,2,1,3,2,2,0,2,2,1,2,2,2,2,2,3,2,3,0,2,3,2,2,3,3,3,0,0,3,0,1,3,0,2,3,0,3,3,1,0,3,1,1,3,1,2,3,1,3,3,2,0,3,2,1,3,2,2,3,2,3,3,3,0,3,3,1,3,3,2,3,3,3,0,0,0,0,0,1,0,0,2,0,0,3,0,1,0,0,1,1,0,1,2,0,1,3,0,2,0,0,2,1,0,2,2,0,2,3,0,3,0,0,3,1,0,3,2,0,3,3,1,0,0,1,0,1,1,0,2,1,0,3,1,1,0,1,1,1,1,1,2,1,1,3,1,2,0,1,2,1,1,2,2,1,2,3,1,3,0,1,3,1,1,3,2,1,3,3,2,0,0,2,0,1,2,0,2,2,0,3,2,1,0,2,1,1,2,1,2,2,1,3,2,2,0,2,2,1,2,2,2,2,2,3,2,3,0,2,3,1,2,3,2,2,3,3,3,0,0,3,0,1,3,0,2,3,0,3,3,1,0,3,1,1,3,1,2,3,1,3,3,2,0,3,2,2,3,2,3,3,3,0,3,3,1,3,3,2,3,3,3,0,0,0,0,0,1,0,0,2,0,0,3,0,1,0,0,1,1,0,1,2,0,1,3,0,2,0,0,2,1,0,2,2,0,2,3,0,3,0,0,3,1,0,3,2,0,3,3,1,0,0,1,0,1,1,0,2,1,0,3,1,1,0,1,1,1,1,1,2,1,1,3,1,2,0,1,2,1,1,2,2,1,2,3,1,3,0,1,3,1,1,3,2,1,3,3,2,0,0,2,0,1,2,0,2,2,0,3,2,1,0,2,1,1,2,1,2,2,1,3,2,2,0,2,2,1,2,2,2,2,2,3,2,3,0,2,3,2,2,3,3,3,0,0,3,0,1,3,0,2,3,0,3,3,1,0,3,1,1,3,1,2,3,1,3,3,2,0,3,2,1,3,2,2,3,2,3,3,3,0,3,3,1,3,3,2,3,3,3,0,0,0,0,0,1,0,0,2,0,0,3,0,1,0,0,1,1,0,1,2,0,1,3,0,2,0,0,2,1,0,2,2,0,2,3,0,3,0,0,3,1,0,3,2,0,3,3,13,0,0,13,0,1,13,0,2,13,0,3,13,1,0,13,1,1,13,1,2,13,1,3,13,2,0,13,2,2,13,2,3,13,3,0,13,3,1,13,3,2,13,3,3,0,0,0,0,0,1,0,0,2,0,0,3,0,1,0,0,1,1,0,1,2,0,1,3,0,2,0,0,2,1,0,2,2,0,2,3,0,3,0,0,3,1,0,3,2,0,3,3,1,0,0,1,0,1,1,0,2,1,0,3,1,1,0,1,1,1,1,1,2,1,1,3,1,2,0,1,2,1,1,2,2,1,2,3,1,3,0,1,3,1,1,3,2,1,3,3,2,0,0,2,0,1,2,0,2,2,0,3,2,1,0,2,1,1,2,1,2,2,1,3,2,2,0,2,2,1,2,2,2,2,2,3,2,3,0,2,3,2,2,3,3,3,0,0,3,0,1,3,0,2,3,0,3,3,1,0,3,1,1,3,1,2,3,1,3,3,2,0,3,2,1,3,2,2,3,2,3,3,3,0,3,3,1,3,3,2,3,3,3,0,0,0,0,0,1,0,0,2,0,0,3,0,1,0,0,1,1,0,1,2,0,1,3,0,2,0,0,2,1,0,2,2,0,2,3,0,3,0,0,3,1,0,3,2,0,3,3,1,0,0,1,0,1,1,0,2,1,0,3,1,1,0,1,1,1,1,1,2,1,1,3,1,2,0,1,2,1,1,2,2,1,2,3,1,3,0,1,3,1,1,3,2,1,3,3,2,0,0,2,0,1,2,0,2,2,0,3,2,1,0,2,1,1,2,1,2,2,1,3,2,2,0,2,2,1,2,2,2,2,2,3,2,3,0,2,3,2,2,3,3,3,0,0,3,0,1,3,0,2,3,0,3,3,1,0,3,1,1,3,1,2,3,1,3,3,2,0,3,2,1,3,2,2,3,2,3,3,3,0,3,3,1,3,3,2,3,3,3,0,0,0,0,0,1,0,0,2,0,0,3,0,1,0,0,1,1,0,1,2,0,1,3,0,2,0,0,2,1,0,2,2,0,2,3,0,3,0,0,3,1,0,3,2,0,3,3,1,0,0,1,0,1,1,0,2,1,0,3,1,1,0,1,1,1,1,1,2,1,1,3,1,2,0,1,2,1,1,2,2,1,2,3,1,3,0,1,3,1,1,3,2,1,3,3,2,0,0,2,0,1,2,0,2,2,0,3,2,1,0,2,1,1,2,1,2,2,1,3,2,2,0,2,2,1,2,2,2,2,2,3,2,3,0,2,3,1,2,3,2,2,3,3,3,0,0,3,0,1,3,0,2,3,0,3,3,1,0,3,1,1,3,1,2,3,1,3,3,2,0,3,2,2,3,2,3,3,3,0,3,3,1,3,3,2,3,3,3,0,0,0,0,0,1,0,0,2,0,0,3,0,1,0,0,1,1,0,1,2,0,1,3,0,2,0,0,2,1,0,2,2,0,2,3,0,3,0,0,3,1,0,3,2,0,3,3,1,0,0,1,0,1,1,0,2,1,0,3,1,1,0,1,1,1,1,1,2,1,1,3,1,2,0,1,2,1,1,2,2,1,2,3,1,3,0,1,3,1,1,3,2,1,3,3,2,0,0,2,0,1,2,0,2,2,0,3,2,1,0,2,1,1,2,1,2,2,1,3,2,2,0,2,2,1,2,2,2,2,2,3,2,3,0,2,3,2,2,3,3,3,0,0,3,0,1,3,0,2,3,0,3,3,1,0,3,1,1,3,1,2,3,1,3,3,2,0,3,2,1,3,2,2,3,2,3,3,3,0,3,3,1,3,3,2,3,3,3,0,0,0,0,0,1,0,0,2,0,0,3,0,1,0,0,1,1,0,1,2,0,1,3,0,2,0,0,2,1,0,2,2,0,2,3,0,3,0,0,3,1,0,3,2,0,3,3,1,0,0,1,0,1,1,0,2,1,0,3,1,1,0,1,1,1,1,1,2,1,1,3,1,2,0,1,2,1,1,2,2,1,2,3,1,3,0,1,3,1,1,3,2,1,3,3,2,0,0,2,0,1,2,0,2,2,0,3,2,1,0,2,1,1,2,1,2,2,1,3,2,2,0,2,2,1,2,2,2,2,2,3,2,3,0,2,3,2,2,3,3,3,0,0,3,0,1,3,0,2,3,0,3,3,1,0,3,1,1,3,1,2,3,1,3,3,2,0,3,2,1,3,2,2,3,2,3,3,3,0,3,3,1,3,3,2,3,3,3,0,0,0,0,0,1,0,0,2,0,0,3,0,1,0,0,1,1,0,1,2,0,1,3,0,2,0,0,2,1,0,2,2,0,2,3,0,3,0,0,3,1,0,3,2,0,3,3,1,0,0,1,0,1,1,0,2,1,0,3,1,1,0,1,1,1,1,1,2,1,1,3,1,2,0,1,2,1,1,2,2,1,2,3,1,3,0,1,3,1,1,3,2,1,3,3,2,0,0,2,0,1,2,0,2,2,0,3,2,1,0,2,1,1,2,1,2,2,1,3,2,2,0,2,2,1,2,2,2,2,2,3,2,3,0,2,3,2,2,3,3,3,0,0,3,0,1,3,0,2,3,0,3,3,1,0,3,1,1,3,1,2,3,1,3,3,2,0,3,2,1,3,2,2,3,2,3,3,3,0,3,3,1,3,3,2,3,3,3,0,0,0,0,0,1,0,0,2,0,0,3,0,1,0,0,1,1,0,1,2,0,1,3,0,2,0,0,2,1,0,2,2,0,2,3,0,3,0,0,3,1,0,3,2,0,3,3,1,0,0,1,0,1,1,0,2,1,0,3,1,1,0,1,1,1,1,1,2,1,1,3,1,2,0,1,2,1,1,2,2,1,2,3,1,3,0,1,3,1,1,3,2,1,3,3,2,0,0,2,0,1,2,0,2,2,0,3,2,1,0,2,1,1,2,1,2,2,2,0,2,2,1,2,2,2,2,2,3,2,3,0,2,3,1,2,3,2,2,3,3,3,0,0,3,0,1,3,0,2,3,0,3,3,1,0,3,1,1,3,1,2,3,1,3,3,2,0,3,2,1,3,2,2,3,2,3,3,3,0,3,3,1,3,3,2,3,3,3,0,0,0,0,0,1,0,0,2,0,0,3,0,1,0,0,1,1,0,1,2,0,1,3,0,2,0,0,2,1,0,2,2,0,2,3,0,3,0,0,3,1,0,3,2,0,3,3,1,0,0,1,0,1,1,0,2,1,0,3,1,1,0,1,1,1,1,1,2,1,1,3,1,2,0,1,2,1,1,2,2,1,2,3,1,3,0,1,3,1,1,3,2,1,3,3,2,0,0,2,0,1,2,0,2,2,0,3,2,1,0,2,1,1,2,1,2,2,2,0,2,2,1,2,2,2,2,2,3,2,3,0,2,3,1,2,3,2,2,3,3,3,0,0,3,0,1,3,0,2,3,0,3,3,1,0,3,1,1,3,1,2,3,1,3,3,2,0,3,2,1,3,2,2,3,2,3,3,3,0,3,3,1,3,3,2,3,3,3,0,0,0,0,0,1,0,0,2,0,0,3,0,1,0,0,1,1,0,1,2,0,1,3,0,2,0,0,2,1,0,2,2,0,2,3,0,3,0,0,3,1,0,3,2,0,3,3,1,0,0,1,0,1,1,0,2,1,0,3,1,1,0,1,1,1,1,1,2,1,1,3,1,2,0,1,2,1,1,2,2,1,2,3,1,3,0,1,3,1,1,3,2,1,3,3,2,0,0,2,0,1,2,0,2,2,0,3,2,1,0,2,1,1,2,1,2,2,1,3,2,2,0,2,2,1,2,2,2,2,2,3,2,3,0,2,3,2,2,3,3,3,0,0,3,0,1,3,0,2,3,0,3,3,1,0,3,1,1,3,1,2,3,1,3,3,2,0,3,2,1,3,2,2,3,2,3,3,3,0,3,3,1,3,3,2,3,3,3,0,0,0,0,0,1,0,0,2,0,0,3,0,1,0,0,1,1,0,1,2,0,1,3,0,2,0,0,2,1,0,2,2,0,2,3,0,3,0,0,3,1,0,3,2,0,3,3,1,0,0,1,0,1,1,0,2,1,0,3,1,1,0,1,1,1,1,1,2,1,1,3,1,2,0,1,2,1,1,2,2,1,2,3,1,3,0,1,3,1,1,3,2,1,3,3,2,0,0,2,0,1,2,0,2,2,0,3,2,1,0,2,1,1,2,1,2,2,1,3,2,2,0,2,2,1,2,2,2,2,2,3,2,3,0,2,3,2,2,3,3,3,0,0,3,0,1,3,0,2,3,0,3,3,1,0,3,1,1,3,1,2,3,1,3,3,2,0,3,2,1,3,2,2,3,2,3,3,3,0,3,3,1,3,3,2,3,3,3,0,0,0,0,0,1,0,0,2,0,0,3,0,1,0,0,1,1,0,1,2,0,1,3,0,2,0,0,2,1,0,2,2,0,2,3,0,3,0,0,3,1,0,3,2,0,3,3,1,0,0,1,0,1,1,0,2,1,0,3,1,1,0,1,1,1,1,1,2,1,1,3,1,2,0,1,2,1,1,2,2,1,2,3,1,3,0,1,3,1,1,3,3,2,0,0,2,0,1,2,0,2,2,0,3,2,1,0,2,1,1,2,1,2,2,1,3,2,2,0,2,2,1,2,2,2,2,2,3,2,3,0,2,3,1,2,3,2,2,3,3,3,0,0,3,0,1,3,0,2,3,0,3,3,1,0,3,1,1,3,1,2,3,1,3,3,2,0,3,2,1,3,2,2,3,2,3,3,3,0,3,3,1,3,3,2,3,3,3,0,0,0,0,0,1,0,0,2,0,0,3,0,1,0,0,1,1,0,1,2,0,1,3,0,2,0,0,2,1,0,2,2,0,2,3,0,3,0,0,3,1,0,3,2,0,3,3,13,0,0,13,0,1,13,0,2,13,0,3,13,1,0,13,1,1,13,1,2,13,1,3,13,2,0,13,2,2,13,2,3,13,3,0,13,3,1,13,3,2,13,3,3,0,0,0,0,0,1,0,0,2,0,0,3,0,1,0,0,1,1,0,1,2,0,1,3,0,2,0,0,2,1,0,2,2,0,2,3,0,3,0,0,3,1,0,3,2,0,3,3,1,0,0,1,0,1,1,0,2,1,0,3,1,1,0,1,1,1,1,1,2,1,1,3,1,2,0,1,2,1,1,2,2,1,2,3,1,3,0,1,3,1,1,3,2,1,3,3,2,0,0,2,0,1,2,0,2,2,0,3,2,1,0,2,1,1,2,1,2,2,1,3,2,2,0,2,2,1,2,2,2,2,2,3,2,3,0,2,3,2,2,3,3,3,0,0,3,0,1,3,0,2,3,0,3,3,1,0,3,1,1,3,1,2,3,1,3,3,2,0,3,2,1,3,2,2,3,2,3,3,3,0,3,3,1,3,3,2,3,3,3,0,0,0,0,0,1,0,0,2,0,0,3,0,2,0,0,2,1,0,2,2,0,2,3,1,0,0,1,0,1,1,0,2,1,0,3,1,2,0,1,2,1,1,2,2,1,2,3,2,0,0,2,0,1,2,0,2,2,0,3,2,2,0,2,2,1,2,2,2,2,2,3,3,0,0,3,0,1,3,0,2,3,0,3,3,2,0,3,2,2,3,2,3,0,0,0,0,0,1,0,0,2,0,0,3,0,1,0,0,1,1,0,1,2,0,1,3,0,2,0,0,2,1,0,2,2,0,2,3,0,3,0,0,3,1,0,3,2,0,3,3,1,0,0,1,0,1,1,0,2,1,0,3,1,1,0,1,1,1,1,1,2,1,1,3,1,2,0,1,2,1,1,2,2,1,2,3,1,3,0,1,3,1,1,3,2,1,3,3,2,0,0,2,0,1,2,0,2,2,0,3,2,1,0,2,1,1,2,1,2,2,2,0,2,2,1,2,2,2,2,2,3,2,3,0,2,3,1,2,3,2,2,3,3,3,0,0,3,0,1,3,0,2,3,0,3,3,1,0,3,1,1,3,1,2,3,1,3,3,2,0,3,2,1,3,2,2,3,2,3,3,3,0,3,3,1,3,3,2,3,3,3,0,0,0,0,0,1,0,0,2,0,0,3,0,1,0,0,1,1,0,1,2,0,1,3,0,2,0,0,2,1,0,2,2,0,2,3,0,3,0,0,3,1,0,3,2,0,3,3,1,0,0,1,0,1,1,0,2,1,0,3,1,1,0,1,1,1,1,1,2,1,1,3,1,2,0,1,2,1,1,2,2,1,2,3,1,3,0,1,3,1,1,3,3,2,0,0,2,0,1,2,0,2,2,0,3,2,1,0,2,1,1,2,1,2,2,1,3,2,2,0,2,2,1,2,2,2,2,2,3,2,3,0,2,3,1,2,3,2,2,3,3,3,0,0,3,0,1,3,0,2,3,0,3,3,1,0,3,1,1,3,1,2,3,1,3,3,2,0,3,2,1,3,2,2,3,2,3,3,3,0,3,3,1,3,3,2,3,3,3,0,0,0,0,0,1,0,0,2,0,0,3,0,1,0,0,1,1,0,1,2,0,1,3,0,2,0,0,2,1,0,2,2,0,2,3,0,3,0,0,3,1,0,3,2,0,3,3,1,0,0,1,0,1,1,0,2,1,0,3,1,1,0,1,1,1,1,1,2,1,1,3,1,2,0,1,2,1,1,2,2,1,2,3,1,3,0,1,3,1,1,3,2,1,3,3,2,0,0,2,0,1,2,0,2,2,0,3,2,1,0,2,1,1,2,1,2,2,1,3,2,2,0,2,2,1,2,2,2,2,2,3,2,3,0,2,3,2,2,3,3,3,0,0,3,0,1,3,0,2,3,0,3,3,1,0,3,1,1,3,1,2,3,1,3,3,2,0,3,2,1,3,2,2,3,2,3,3,3,0,3,3,1,3,3,2,3,3,3,0,0,0,0,0,1,0,0,2,0,0,3,0,1,0,0,1,1,0,1,2,0,1,3,0,2,0,0,2,1,0,2,2,0,2,3,0,3,0,0,3,1,0,3,2,0,3,3,1,0,0,1,0,1,1,0,2,1,0,3,1,1,0,1,1,1,1,1,2,1,1,3,1,2,0,1,2,1,1,2,2,1,2,3,1,3,0,1,3,1,1,3,2,1,3,3,2,0,0,2,0,1,2,0,2,2,0,3,2,1,0,2,1,1,2,1,2,2,1,3,2,2,0,2,2,1,2,2,2,2,2,3,2,3,0,2,3,2,2,3,3,3,0,0,3,0,1,3,0,2,3,0,3,3,1,0,3,1,1,3,1,2,3,1,3,3,2,0,3,2,1,3,2,2,3,2,3,3,3,0,3,3,1,3,3,2,3,3,3,0,0,0,0,0,1,0,0,2,0,0,3,0,1,0,0,1,1,0,1,2,0,1,3,0,2,0,0,2,1,0,2,2,0,2,3,0,3,0,0,3,1,0,3,2,0,3,3,13,0,0,13,0,1,13,0,2,13,0,3,13,1,0,13,1,1,13,1,2,13,1,3,13,2,0,13,2,2,13,2,3,13,3,0,13,3,1,13,3,2,13,3,3,0,0,0,0,0,1,0,0,2,0,0,3,0,2,0,0,2,1,0,2,2,0,2,3,1,0,0,1,0,1,1,0,2,1,0,3,1,2,0,1,2,1,1,2,2,1,2,3,2,0,0,2,0,1,2,0,2,2,0,3,2,2,0,2,2,1,2,2,2,2,2,3,3,0,0,3,0,1,3,0,2,3,0,3,3,2,0,3,2,2,3,2,3,0,0,0,0,0,2,0,1,0,0,1,2,0,2,0,0,2,2,0,3,0,0,3,2,1,0,0,1,0,2,1,1,0,1,1,2,1,2,0,1,2,2,1,3,0,1,3,2,2,0,0,2,0,2,2,1,0,2,1,2,2,2,0,2,2,2,2,3,0,2,3,2,3,0,0,3,0,2,3,1,0,3,2,0,3,2,2,3,3,0,3,3,2,0,0,0,0,0,1,0,0,2,0,0,3,0,2,0,0,2,1,0,2,2,0,2,3,1,0,0,1,0,1,1,0,2,1,0,3,1,2,0,1,2,1,1,2,2,1,2,3,2,0,0,2,0,1,2,0,2,2,0,3,2,2,0,2,2,1,2,2,2,2,2,3,3,0,0,3,0,1,3,0,2,3,0,3,3,2,0,3,2,2,3,2,3,0,0,0,0,0,1,0,0,2,0,0,3,0,1,0,0,1,1,0,1,2,0,1,3,0,2,0,0,2,1,0,2,2,0,2,3,0,3,0,0,3,1,0,3,2,0,3,3,1,0,0,1,0,1,1,0,2,1,0,3,1,1,0,1,1,1,1,1,2,1,1,3,1,2,0,1,2,1,1,2,2,1,2,3,1,3,0,1,3,1,1,3,3,2,0,0,2,0,1,2,0,2,2,0,3,2,1,0,2,1,1,2,1,2,2,1,3,2,2,0,2,2,1,2,2,2,2,2,3,2,3,0,2,3,1,2,3,2,2,3,3,3,0,0,3,0,1,3,0,2,3,0,3,3,1,0,3,1,1,3,1,2,3,1,3,3,2,0,3,2,1,3,2,2,3,2,3,3,3,0,3,3,1,3,3,2,3,3,3,0,0,0,0,0,1,0,0,2,0,0,3,0,1,0,0,1,1,0,1,2,0,1,3,0,2,0,0,2,1,0,2,2,0,2,3,0,3,0,0,3,1,0,3,2,0,3,3,1,0,0,1,0,1,1,0,2,1,0,3,1,1,0,1,1,1,1,1,2,1,1,3,1,2,0,1,2,1,1,2,2,1,2,3,1,3,0,1,3,1,1,3,2,1,3,3,2,0,0,2,0,1,2,0,2,2,0,3,2,1,0,2,1,1,2,1,2,2,1,3,2,2,0,2,2,1,2,2,2,2,2,3,2,3,0,2,3,2,2,3,3,3,0,0,3,0,1,3,0,2,3,0,3,3,1,0,3,1,1,3,1,2,3,1,3,3,2,0,3,2,1,3,2,2,3,2,3,3,3,0,3,3,1,3,3,2,3,3,3,0,0,0,0,0,1,0,0,2,0,0,3,0,1,0,0,1,1,0,1,2,0,1,3,0,2,0,0,2,1,0,2,2,0,2,3,0,3,0,0,3,1,0,3,2,0,3,3,1,0,0,1,0,1,1,0,2,1,0,3,1,1,0,1,1,1,1,1,2,1,1,3,1,2,0,1,2,1,1,2,2,1,2,3,1,3,0,1,3,1,1,3,2,1,3,3,2,0,0,2,0,1,2,0,2,2,0,3,2,1,0,2,1,1,2,1,2,2,2,0,2,2,1,2,2,2,2,2,3,2,3,0,2,3,1,2,3,2,2,3,3,3,0,0,3,0,1,3,0,2,3,0,3,3,1,0,3,1,1,3,1,2,3,1,3,3,2,0,3,2,1,3,2,2,3,2,3,3,3,0,3,3,1,3,3,2,3,3,3,0,0,0,0,0,1,0,0,2,0,0,3,0,1,0,0,1,1,0,1,2,0,1,3,0,2,0,0,2,1,0,2,2,0,2,3,0,3,0,0,3,1,0,3,2,0,3,3,1,0,0,1,0,1,1,0,2,1,0,3,1,1,0,1,1,1,1,1,2,1,1,3,1,2,0,1,2,1,1,2,2,1,2,3,1,3,0,1,3,1,1,3,2,1,3,3,2,0,0,2,0,1,2,0,2,2,0,3,2,1,0,2,1,1,2,1,2,2,1,3,2,2,0,2,2,1,2,2,2,2,2,3,2,3,0,2,3,2,2,3,3,3,0,0,3,0,1,3,0,2,3,0,3,3,1,0,3,1,1,3,1,2,3,1,3,3,2,0,3,2,1,3,2,2,3,2,3,3,3,0,3,3,1,3,3,2,3,3,3,0,0,0,0,0,1,0,0,2,0,0,3,0,1,0,0,1,1,0,1,2,0,1,3,0,2,0,0,2,1,0,2,2,0,2,3,0,3,0,0,3,1,0,3,2,0,3,3,1,0,0,1,0,1,1,0,2,1,0,3,1,1,0,1,1,1,1,1,2,1,1,3,1,2,0,1,2,1,1,2,2,1,2,3,1,3,0,1,3,1,1,3,3,2,0,0,2,0,1,2,0,2,2,0,3,2,1,0,2,1,1,2,1,2,2,1,3,2,2,0,2,2,1,2,2,2,2,2,3,2,3,0,2,3,1,2,3,2,2,3,3,3,0,0,3,0,1,3,0,2,3,0,3,3,1,0,3,1,1,3,1,2,3,1,3,3,2,0,3,2,1,3,2,2,3,2,3,3,3,0,3,3,1,3,3,2,3,3,3,0,0,0,0,0,1,0,0,2,0,0,3,0,1,0,0,1,1,0,1,2,0,1,3,0,2,0,0,2,1,0,2,2,0,2,3,0,3,0,0,3,1,0,3,2,0,3,3,1,0,0,1,0,1,1,0,2,1,0,3,1,1,0,1,1,1,1,1,2,1,1,3,1,2,0,1,2,1,1,2,2,1,2,3,1,3,0,1,3,1,1,3,2,1,3,3,2,0,0,2,0,1,2,0,2,2,0,3,2,1,0,2,1,1,2,1,2,2,1,3,2,2,0,2,2,1,2,2,2,2,2,3,2,3,0,2,3,2,2,3,3,3,0,0,3,0,1,3,0,2,3,0,3,3,1,0,3,1,1,3,1,2,3,1,3,3,2,0,3,2,1,3,2,2,3,2,3,3,3,0,3,3,1,3,3,2,3,3,3,0,0,0,0,0,1,0,0,2,0,0,3,0,2,0,0,2,1,0,2,2,0,2,3,1,0,0,1,0,1,1,0,2,1,0,3,1,2,0,1,2,1,1,2,2,1,2,3,2,0,0,2,0,1,2,0,2,2,0,3,2,2,0,2,2,1,2,2,2,2,2,3,3,0,0,3,0,1,3,0,2,3,0,3,3,2,0,3,2,2,3,2,3,0,0,0,0,0,1,0,0,2,0,0,3,0,1,0,0,1,1,0,1,2,0,1,3,0,2,0,0,2,1,0,2,2,0,2,3,0,3,0,0,3,1,0,3,2,0,3,3,13,0,0,13,0,1,13,0,2,13,0,3,13,1,0,13,1,1,13,1,2,13,1,3,13,2,0,13,2,2,13,2,3,13,3,0,13,3,1,13,3,2,13,3,3,0,0,0,0,0,1,0,0,2,0,0,3,0,2,0,0,2,1,0,2,2,0,2,3,1,0,0,1,0,1,1,0,2,1,0,3,1,2,0,1,2,1,1,2,2,1,2,3,2,0,0,2,0,1,2,0,2,2,0,3,2,2,0,2,2,1,2,2,2,2,2,3,3,0,0,3,0,1,3,0,2,3,0,3,3,2,0,3,2,2,3,2,3,0,0,0,0,0,1,0,0,2,0,0,3,0,1,0,0,1,1,0,1,2,0,1,3,0,2,0,0,2,1,0,2,2,0,2,3,0,3,0,0,3,1,0,3,2,0,3,3,1,0,0,1,0,1,1,0,2,1,0,3,1,1,0,1,1,1,1,1,2,1,1,3,1,2,0,1,2,1,1,2,2,1,2,3,1,3,0,1,3,1,1,3,2,1,3,3,2,0,0,2,0,1,2,0,2,2,0,3,2,1,0,2,1,1,2,1,2,2,1,3,2,2,0,2,2,1,2,2,2,2,2,3,2,3,0,2,3,2,2,3,3,3,0,0,3,0,1,3,0,2,3,0,3,3,1,0,3,1,1,3,1,2,3,1,3,3,2,0,3,2,1,3,2,2,3,2,3,3,3,0,3,3,1,3,3,2,3,3,3,0,0,0,0,0,1,0,0,2,0,0,3,0,1,0,0,1,1,0,1,2,0,1,3,0,2,0,0,2,1,0,2,2,0,2,3,0,3,0,0,3,1,0,3,2,0,3,3,13,0,0,13,0,1,13,0,2,13,0,3,13,1,0,13,1,1,13,1,2,13,1,3,13,2,0,13,2,2,13,2,3,13,3,0,13,3,1,13,3,2,13,3,3,0,0,0,0,0,1,0,0,2,0,0,3,0,1,0,0,1,1,0,1,2,0,1,3,0,2,0,0,2,1,0,2,2,0,2,3,0,3,0,0,3,1,0,3,2,0,3,3,1,0,0,1,0,1,1,0,2,1,0,3,1,1,0,1,1,1,1,1,2,1,1,3,1,2,0,1,2,1,1,2,2,1,2,3,1,3,0,1,3,1,1,3,2,1,3,3,2,0,0,2,0,1,2,0,2,2,0,3,2,1,0,2,1,1,2,1,2,2,1,3,2,2,0,2,2,1,2,2,2,2,2,3,2,3,0,2,3,2,2,3,3,3,0,0,3,0,1,3,0,2,3,0,3,3,1,0,3,1,1,3,1,2,3,1,3,3,2,0,3,2,1,3,2,2,3,2,3,3,3,0,3,3,1,3,3,2,3,3,3,0,0,0,0,0,1,0,0,2,0,0,3,0,1,0,0,1,1,0,1,2,0,1,3,0,2,0,0,2,1,0,2,2,0,2,3,0,3,0,0,3,1,0,3,2,0,3,3,1,0,0,1,0,1,1,0,2,1,0,3,1,1,0,1,1,1,1,1,2,1,1,3,1,2,0,1,2,1,1,2,2,1,2,3,1,3,0,1,3,1,1,3,2,1,3,3,2,0,0,2,0,1,2,0,2,2,0,3,2,1,0,2,1,1,2,1,2,2,2,0,2,2,1,2,2,2,2,2,3,2,3,0,2,3,1,2,3,2,2,3,3,3,0,0,3,0,1,3,0,2,3,0,3,3,1,0,3,1,1,3,1,2,3,1,3,3,2,0,3,2,1,3,2,2,3,2,3,3,3,0,3,3,1,3,3,2,3,3,3,0,0,0,0,0,1,0,0,2,0,0,3,0,1,0,0,1,1,0,1,2,0,1,3,0,2,0,0,2,1,0,2,2,0,2,3,0,3,0,0,3,1,0,3,2,0,3,3,1,0,0,1,0,1,1,0,2,1,0,3,1,1,0,1,1,1,1,1,2,1,1,3,1,2,0,1,2,1,1,2,2,1,3,0,1,3,1,1,3,2,1,3,3,2,0,0,2,0,1,2,0,2,2,0,3,2,1,0,2,1,1,2,1,2,2,1,3,2,2,0,2,2,1,2,2,2,2,2,3,2,3,0,2,3,1,2,3,2,2,3,3,3,0,0,3,0,1,3,0,2,3,0,3,3,1,0,3,1,1,3,1,2,3,1,3,3,2,0,3,2,1,3,2,2,3,2,3,3,3,0,3,3,1,3,3,2,3,3,3,0,0,0,0,0,1,0,0,2,0,0,3,0,1,0,0,1,1,0,1,2,0,1,3,0,2,0,0,2,1,0,2,2,0,2,3,0,3,0,0,3,1,0,3,2,0,3,3,13,0,0,13,0,1,13,0,2,13,0,3,13,1,0,13,1,1,13,1,2,13,1,3,13,2,0,13,2,2,13,2,3,13,3,0,13,3,1,13,3,2,13,3,3,0,0,0,0,0,1,0,0,2,0,0,3,0,1,0,0,1,1,0,1,2,0,1,3,0,2,0,0,2,1,0,2,2,0,2,3,0,3,0,0,3,1,0,3,2,0,3,3,1,0,0,1,0,1,1,0,2,1,0,3,1,1,0,1,1,1,1,1,2,1,1,3,1,2,0,1,2,1,1,2,2,1,2,3,1,3,0,1,3,1,1,3,2,1,3,3,2,0,0,2,0,1,2,0,2,2,0,3,2,1,0,2,1,1,2,1,2,2,1,3,2,2,0,2,2,1,2,2,2,2,2,3,2,3,0,2,3,2,2,3,3,3,0,0,3,0,1,3,0,2,3,0,3,3,1,0,3,1,1,3,1,2,3,1,3,3,2,0,3,2,1,3,2,2,3,2,3,3,3,0,3,3,1,3,3,2,3,3,3,0,0,0,0,0,1,0,0,2,0,0,3,0,1,0,0,1,1,0,1,2,0,1,3,0,2,0,0,2,1,0,2,2,0,2,3,0,3,0,0,3,1,0,3,2,0,3,3,1,0,0,1,0,1,1,0,2,1,0,3,1,1,0,1,1,1,1,1,2,1,1,3,1,2,0,1,2,1,1,2,2,1,3,0,1,3,1,1,3,2,1,3,3,2,0,0,2,0,1,2,0,2,2,0,3,2,1,0,2,1,1,2,1,2,2,1,3,2,2,0,2,2,1,2,2,2,2,2,3,2,3,0,2,3,1,2,3,2,2,3,3,3,0,0,3,0,1,3,0,2,3,0,3,3,1,0,3,1,1,3,1,2,3,1,3,3,2,0,3,2,1,3,2,2,3,2,3,3,3,0,3,3,1,3,3,2,3,3,3,0,0,0,0,0,1,0,0,2,0,0,3,0,1,0,0,1,1,0,1,2,0,1,3,0,2,0,0,2,1,0,2,2,0,2,3,0,3,0,0,3,1,0,3,2,0,3,3,1,0,0,1,0,1,1,0,2,1,0,3,1,1,0,1,1,1,1,1,2,1,1,3,1,2,0,1,2,1,1,2,2,1,2,3,1,3,0,1,3,1,1,3,2,1,3,3,2,0,0,2,0,1,2,0,2,2,0,3,2,1,0,2,1,1,2,1,2,2,1,3,2,2,0,2,2,1,2,2,2,2,2,3,2,3,0,2,3,1,2,3,2,2,3,3,3,0,0,3,0,1,3,0,2,3,0,3,3,1,0,3,1,1,3,1,3,3,2,0,3,2,1,3,2,2,3,2,3,3,3,0,3,3,1,3,3,2,3,3,3,0,0,0,0,0,1,0,0,2,0,0,3,0,1,0,0,1,1,0,1,2,0,1,3,0,2,0,0,2,1,0,2,2,0,2,3,0,3,0,0,3,1,0,3,2,0,3,3,1,0,0,1,0,1,1,0,2,1,0,3,1,1,0,1,1,1,1,1,2,1,1,3,1,2,0,1,2,1,1,2,2,1,2,3,1,3,0,1,3,1,1,3,2,1,3,3,2,0,0,2,0,1,2,0,2,2,0,3,2,1,0,2,1,1,2,1,2,2,1,3,2,2,0,2,2,1,2,2,2,2,2,3,2,3,0,2,3,2,2,3,3,3,0,0,3,0,1,3,0,2,3,0,3,3,1,0,3,1,1,3,1,2,3,1,3,3,2,0,3,2,1,3,2,2,3,2,3,3,3,0,3,3,1,3,3,2,3,3,3,0,0,0,0,0,1,0,0,2,0,0,3,0,1,0,0,1,1,0,1,2,0,1,3,0,2,0,0,2,1,0,2,2,0,2,3,0,3,0,0,3,1,0,3,2,0,3,3,1,0,0,1,0,1,1,0,2,1,0,3,1,1,0,1,1,1,1,1,2,1,1,3,1,2,0,1,2,1,1,2,2,1,2,3,1,3,0,1,3,1,1,3,2,1,3,3,2,0,0,2,0,1,2,0,2,2,0,3,2,1,0,2,1,1,2,1,2,2,1,3,2,2,0,2,2,1,2,2,2,2,2,3,2,3,0,2,3,2,2,3,3,3,0,0,3,0,1,3,0,2,3,0,3,3,1,0,3,1,1,3,1,2,3,1,3,3,2,0,3,2,1,3,2,2,3,2,3,3,3,0,3,3,1,3,3,2,3,3,3,0,0,0,0,0,1,0,0,2,0,0,3,0,1,0,0,1,1,0,1,2,0,1,3,0,2,0,0,2,1,0,2,2,0,2,3,0,3,0,0,3,1,0,3,2,0,3,3,1,0,0,1,0,1,1,0,2,1,0,3,1,1,0,1,1,1,1,1,2,1,1,3,1,2,0,1,2,1,1,2,2,1,2,3,1,3,0,1,3,1,1,3,2,1,3,3,2,0,0,2,0,1,2,0,2,2,0,3,2,1,0,2,1,1,2,1,2,2,1,3,2,2,0,2,2,1,2,2,2,2,2,3,2,3,0,2,3,2,2,3,3,3,0,0,3,0,1,3,0,2,3,0,3,3,1,0,3,1,1,3,1,2,3,1,3,3,2,0,3,2,1,3,2,2,3,2,3,3,3,0,3,3,1,3,3,2,3,3,3,0,0,0,0,0,1,0,0,2,0,0,3,0,1,0,0,1,1,0,1,2,0,1,3,0,2,0,0,2,1,0,2,2,0,2,3,0,3,0,0,3,1,0,3,2,0,3,3,1,0,0,1,0,1,1,0,2,1,0,3,1,1,0,1,1,1,1,1,2,1,1,3,1,2,0,1,2,1,1,2,2,1,2,3,1,3,0,1,3,1,1,3,2,1,3,3,2,0,0,2,0,1,2,0,2,2,0,3,2,1,0,2,1,1,2,1,2,2,1,3,2,2,0,2,2,1,2,2,2,2,2,3,2,3,0,2,3,2,2,3,3,3,0,0,3,0,1,3,0,2,3,0,3,3,1,0,3,1,1,3,1,2,3,1,3,3,2,0,3,2,1,3,2,2,3,2,3,3,3,0,3,3,1,3,3,2,3,3,3,0,0,0,0,0,1,0,0,2,0,0,3,0,1,0,0,1,1,0,1,2,0,1,3,0,2,0,0,2,1,0,2,2,0,2,3,0,3,0,0,3,1,0,3,2,0,3,3,1,0,0,1,0,1,1,0,2,1,0,3,1,1,0,1,1,1,1,1,2,1,1,3,1,2,0,1,2,1,1,2,2,1,2,3,1,3,0,1,3,1,1,3,2,1,3,3,2,0,0,2,0,1,2,0,2,2,0,3,2,1,0,2,1,1,2,1,2,2,1,3,2,2,0,2,2,1,2,2,2,2,2,3,2,3,0,2,3,2,2,3,3,3,0,0,3,0,1,3,0,2,3,0,3,3,1,0,3,1,1,3,1,2,3,1,3,3,2,0,3,2,1,3,2,2,3,2,3,3,3,0,3,3,1,3,3,2,3,3,3,0,0,0,0,0,1,0,0,2,0,0,3,0,1,0,0,1,1,0,1,2,0,1,3,0,2,0,0,2,1,0,2,2,0,2,3,0,3,0,0,3,1,0,3,2,0,3,3,1,0,0,1,0,1,1,0,2,1,0,3,1,1,0,1,1,1,1,1,2,1,1,3,1,2,0,1,2,1,1,2,2,1,2,3,1,3,0,1,3,1,1,3,2,1,3,3,2,0,0,2,0,1,2,0,2,2,0,3,2,1,0,2,1,1,2,1,2,2,1,3,2,2,0,2,2,1,2,2,2,2,2,3,2,3,0,2,3,2,2,3,3,3,0,0,3,0,1,3,0,2,3,0,3,3,1,0,3,1,1,3,1,2,3,1,3,3,2,0,3,2,1,3,2,2,3,2,3,3,3,0,3,3,1,3,3,2,3,3,3,0,0,0,0,0,1,0,0,2,0,0,3,0,1,0,0,1,1,0,1,2,0,1,3,0,2,0,0,2,1,0,2,2,0,2,3,0,3,0,0,3,1,0,3,2,0,3,3,1,0,0,1,0,1,1,0,2,1,0,3,1,1,0,1,1,1,1,1,2,1,1,3,1,2,0,1,2,1,1,2,2,1,2,3,1,3,0,1,3,1,1,3,2,1,3,3,2,0,0,2,0,1,2,0,2,2,0,3,2,1,0,2,1,1,2,1,2,2,1,3,2,2,0,2,2,1,2,2,2,2,2,3,2,3,0,2,3,2,2,3,3,3,0,0,3,0,1,3,0,2,3,0,3,3,1,0,3,1,1,3,1,2,3,1,3,3,2,0,3,2,1,3,2,2,3,2,3,3,3,0,3,3,1,3,3,2,3,3,3,0,0,0,0,0,1,0,0,2,0,0,3,0,1,0,0,1,1,0,1,2,0,1,3,0,2,0,0,2,1,0,2,2,0,2,3,0,3,0,0,3,1,0,3,2,0,3,3,1,0,0,1,0,1,1,0,2,1,0,3,1,1,0,1,1,1,1,1,2,1,1,3,1,2,0,1,2,1,1,2,2,1,2,3,1,3,0,1,3,1,1,3,2,1,3,3,2,0,0,2,0,1,2,0,2,2,0,3,2,1,0,2,1,1,2,1,2,2,1,3,2,2,0,2,2,1,2,2,2,2,2,3,2,3,0,2,3,1,2,3,2,2,3,3,3,0,0,3,0,1,3,0,2,3,0,3,3,1,0,3,1,1,3,1,3,3,2,0,3,2,1,3,2,2,3,2,3,3,3,0,3,3,1,3,3,2,3,3,3,0,0,0,0,0,1,0,0,2,0,0,3,0,1,0,0,1,1,0,1,2,0,1,3,0,2,0,0,2,1,0,2,2,0,2,3,0,3,0,0,3,1,0,3,2,0,3,3,1,0,0,1,0,1,1,0,2,1,0,3,1,1,0,1,1,1,1,1,2,1,1,3,1,2,0,1,2,1,1,2,2,1,2,3,1,3,0,1,3,1,1,3,2,1,3,3,2,0,0,2,0,1,2,0,2,2,0,3,2,1,0,2,1,1,2,1,2,2,1,3,2,2,0,2,2,1,2,2,2,2,2,3,2,3,0,2,3,2,2,3,3,3,0,0,3,0,1,3,0,2,3,0,3,3,1,0,3,1,1,3,1,2,3,1,3,3,2,0,3,2,1,3,2,2,3,2,3,3,3,0,3,3,1,3,3,2,3,3,3,0,0,0,0,0,1,0,0,2,0,0,3,0,1,0,0,1,1,0,1,2,0,1,3,0,2,0,0,2,1,0,2,2,0,2,3,0,3,0,0,3,1,0,3,2,0,3,3,13,0,0,13,0,1,13,0,2,13,0,3,13,1,0,13,1,1,13,1,2,13,1,3,13,2,0,13,2,2,13,2,3,13,3,0,13,3,1,13,3,2,13,3,3,0,0,0,0,0,1,0,0,2,0,0,3,0,1,0,0,1,1,0,1,2,0,1,3,0,2,0,0,2,1,0,2,2,0,2,3,0,3,0,0,3,1,0,3,2,0,3,3,1,0,0,1,0,1,1,0,2,1,0,3,1,1,0,1,1,1,1,1,2,1,1,3,1,2,0,1,2,1,1,2,2,1,2,3,1,3,0,1,3,1,1,3,3,2,0,0,2,0,1,2,0,2,2,0,3,2,1,0,2,1,1,2,1,2,2,1,3,2,2,0,2,2,1,2,2,2,2,2,3,2,3,0,2,3,1,2,3,2,2,3,3,3,0,0,3,0,1,3,0,2,3,0,3,3,1,0,3,1,1,3,1,2,3,1,3,3,2,0,3,2,1,3,2,2,3,2,3,3,3,0,3,3,1,3,3,2,3,3,3,0,0,0,0,0,1,0,0,2,0,0,3,0,1,0,0,1,1,0,1,2,0,1,3,0,2,0,0,2,1,0,2,2,0,2,3,0,3,0,0,3,1,0,3,2,0,3,3,13,0,0,13,0,1,13,0,2,13,0,3,13,1,0,13,1,1,13,1,2,13,1,3,13,2,0,13,2,2,13,2,3,13,3,0,13,3,1,13,3,2,13,3,3,0,0,0,0,0,1,0,0,2,0,0,3,0,1,0,0,1,1,0,1,2,0,1,3,0,2,0,0,2,1,0,2,2,0,2,3,0,3,0,0,3,1,0,3,2,0,3,3,1,0,0,1,0,1,1,0,2,1,0,3,1,1,0,1,1,1,1,1,2,1,1,3,1,2,0,1,2,1,1,2,2,1,2,3,1,3,0,1,3,1,1,3,2,1,3,3,2,0,0,2,0,1,2,0,2,2,0,3,2,1,0,2,1,1,2,1,2,2,1,3,2,2,0,2,2,1,2,2,2,2,2,3,2,3,0,2,3,2,2,3,3,3,0,0,3,0,1,3,0,2,3,0,3,3,1,0,3,1,1,3,1,2,3,1,3,3,2,0,3,2,1,3,2,2,3,2,3,3,3,0,3,3,1,3,3,2,3,3,3,0,0,0,0,0,1,0,0,2,0,0,3,0,1,0,0,1,1,0,1,2,0,1,3,0,2,0,0,2,1,0,2,2,0,2,3,0,3,0,0,3,1,0,3,2,0,3,3,1,0,0,1,0,1,1,0,2,1,0,3,1,1,0,1,1,1,1,1,2,1,1,3,1,2,0,1,2,1,1,2,2,1,2,3,1,3,0,1,3,1,1,3,2,1,3,3,2,0,0,2,0,1,2,0,2,2,0,3,2,1,0,2,1,1,2,1,2,2,2,0,2,2,1,2,2,2,2,2,3,2,3,0,2,3,1,2,3,2,2,3,3,3,0,0,3,0,1,3,0,2,3,0,3,3,1,0,3,1,1,3,1,2,3,1,3,3,2,0,3,2,1,3,2,2,3,2,3,3,3,0,3,3,1,3,3,2,3,3,3,0,0,0,0,0,1,0,0,2,0,0,3,0,1,0,0,1,1,0,1,2,0,1,3,0,2,0,0,2,1,0,2,2,0,2,3,0,3,0,0,3,1,0,3,2,0,3,3,1,0,0,1,0,1,1,0,2,1,0,3,1,1,0,1,1,1,1,1,2,1,1,3,1,2,0,1,2,1,1,2,2,1,2,3,1,3,0,1,3,1,1,3,2,1,3,3,2,0,0,2,0,1,2,0,2,2,0,3,2,1,0,2,1,1,2,1,2,2,1,3,2,2,0,2,2,1,2,2,2,2,2,3,2,3,0,2,3,2,2,3,3,3,0,0,3,0,1,3,0,2,3,0,3,3,1,0,3,1,1,3,1,2,3,1,3,3,2,0,3,2,1,3,2,2,3,2,3,3,3,0,3,3,1,3,3,2,3,3,3,0,0,0,0,0,1,0,0,2,0,0,3,0,1,0,0,1,1,0,1,2,0,1,3,0,2,0,0,2,1,0,2,2,0,2,3,0,3,0,0,3,1,0,3,2,0,3,3,1,0,0,1,0,1,1,0,2,1,0,3,1,1,0,1,1,1,1,1,2,1,1,3,1,2,0,1,2,1,1,2,2,1,2,3,1,3,0,1,3,1,1,3,2,1,3,3,2,0,0,2,0,1,2,0,2,2,0,3,2,1,0,2,1,1,2,1,2,2,1,3,2,2,0,2,2,1,2,2,2,2,2,3,2,3,0,2,3,2,2,3,3,3,0,0,3,0,1,3,0,2,3,0,3,3,1,0,3,1,1,3,1,2,3,1,3,3,2,0,3,2,1,3,2,2,3,2,3,3,3,0,3,3,1,3,3,2,3,3,3,0,0,0,0,0,1,0,0,2,0,0,3,0,1,0,0,1,1,0,1,2,0,1,3,0,2,0,0,2,1,0,2,2,0,2,3,0,3,0,0,3,1,0,3,2,0,3,3,13,0,0,13,0,1,13,0,2,13,0,3,13,1,0,13,1,1,13,1,2,13,1,3,13,2,0,13,2,2,13,2,3,13,3,0,13,3,1,13,3,2,13,3,3,0,0,0,0,0,1,0,0,2,0,0,3,0,1,0,0,1,1,0,1,2,0,1,3,0,2,0,0,2,1,0,2,2,0,2,3,0,3,0,0,3,1,0,3,2,0,3,3,13,0,0,13,0,1,13,0,2,13,0,3,13,1,0,13,1,1,13,1,2,13,1,3,13,2,0,13,2,2,13,2,3,13,3,0,13,3,1,13,3,2,13,3,3,0,0,0,0,0,1,0,0,2,0,0,3,0,1,0,0,1,1,0,1,2,0,1,3,0,2,0,0,2,1,0,2,2,0,2,3,0,3,0,0,3,1,0,3,2,0,3,3,1,0,0,1,0,1,1,0,2,1,0,3,1,1,0,1,1,1,1,1,2,1,1,3,1,2,0,1,2,1,1,2,2,1,2,3,1,3,0,1,3,1,1,3,2,1,3,3,2,0,0,2,0,1,2,0,2,2,0,3,2,1,0,2,1,1,2,1,2,2,1,3,2,2,0,2,2,1,2,2,2,2,2,3,2,3,0,2,3,2,2,3,3,3,0,0,3,0,1,3,0,2,3,0,3,3,1,0,3,1,1,3,1,2,3,1,3,3,2,0,3,2,1,3,2,2,3,2,3,3,3,0,3,3,1,3,3,2,3,3,3,0,0,0,0,0,1,0,0,2,0,0,3,0,1,0,0,1,1,0,1,2,0,1,3,0,2,0,0,2,1,0,2,2,0,2,3,0,3,0,0,3,1,0,3,2,0,3,3,13,0,0,13,0,1,13,0,2,13,0,3,13,1,0,13,1,1,13,1,2,13,1,3,13,2,0,13,2,2,13,2,3,13,3,0,13,3,1,13,3,2,13,3,3,0,0,0,0,0,1,0,0,2,0,0,3,0,1,0,0,1,1,0,1,2,0,1,3,0,2,0,0,2,1,0,2,2,0,2,3,0,3,0,0,3,1,0,3,2,0,3,3,1,0,0,1,0,1,1,0,2,1,0,3,1,1,0,1,1,1,1,1,2,1,1,3,1,2,0,1,2,1,1,2,2,1,2,3,1,3,0,1,3,1,1,3,2,1,3,3,2,0,0,2,0,1,2,0,2,2,0,3,2,1,0,2,1,1,2,1,2,2,1,3,2,2,0,2,2,1,2,2,2,2,2,3,2,3,0,2,3,1,2,3,2,2,3,3,3,0,0,3,0,1,3,0,2,3,0,3,3,1,0,3,1,1,3,1,3,3,2,0,3,2,1,3,2,2,3,2,3,3,3,0,3,3,1,3,3,2,3,3,3,0,0,0,0,0,1,0,0,2,0,0,3,0,1,0,0,1,1,0,1,2,0,1,3,0,2,0,0,2,1,0,2,2,0,2,3,0,3,0,0,3,1,0,3,2,0,3,3,1,0,0,1,0,1,1,0,2,1,0,3,1,1,0,1,1,1,1,1,2,1,1,3,1,2,0,1,2,1,1,2,2,1,2,3,1,3,0,1,3,1,1,3,2,1,3,3,2,0,0,2,0,1,2,0,2,2,0,3,2,1,0,2,1,1,2,1,2,2,1,3,2,2,0,2,2,1,2,2,2,2,2,3,2,3,0,2,3,1,2,3,2,2,3,3,3,0,0,3,0,1,3,0,2,3,0,3,3,1,0,3,1,1,3,1,3,3,2,0,3,2,1,3,2,2,3,2,3,3,3,0,3,3,1,3,3,2,3,3,3,0,0,0,0,0,1,0,0,2,0,0,3,0,1,0,0,1,1,0,1,2,0,1,3,0,2,0,0,2,1,0,2,2,0,2,3,0,3,0,0,3,1,0,3,2,0,3,3,13,0,0,13,0,1,13,0,2,13,0,3,13,1,0,13,1,1,13,1,2,13,1,3,13,2,0,13,2,2,13,2,3,13,3,0,13,3,1,13,3,2,13,3,3,0,0,0,0,0,1,0,0,2,0,0,3,0,1,0,0,1,1,0,1,2,0,1,3,0,2,0,0,2,1,0,2,2,0,2,3,0,3,0,0,3,1,0,3,2,0,3,3,1,0,0,1,0,1,1,0,2,1,0,3,1,1,0,1,1,1,1,1,2,1,1,3,1,2,0,1,2,1,1,2,2,1,2,3,1,3,0,1,3,1,1,3,2,1,3,3,2,0,0,2,0,1,2,0,2,2,0,3,2,1,0,2,1,1,2,1,2,2,2,0,2,2,1,2,2,2,2,2,3,2,3,0,2,3,1,2,3,2,2,3,3,3,0,0,3,0,1,3,0,2,3,0,3,3,1,0,3,1,1,3,1,2,3,1,3,3,2,0,3,2,1,3,2,2,3,2,3,3,3,0,3,3,1,3,3,2,3,3,3,0,0,0,0,0,1,0,0,2,0,0,3,0,1,0,0,1,1,0,1,2,0,1,3,0,2,0,0,2,1,0,2,2,0,2,3,0,3,0,0,3,1,0,3,2,0,3,3,13,0,0,13,0,1,13,0,2,13,0,3,13,1,0,13,1,1,13,1,2,13,1,3,13,2,0,13,2,2,13,2,3,13,3,0,13,3,1,13,3,2,13,3,3,0,0,0,0,0,1,0,0,2,0,0,3,0,1,0,0,1,1,0,1,2,0,1,3,0,2,0,0,2,1,0,2,2,0,2,3,0,3,0,0,3,1,0,3,2,0,3,3,13,0,0,13,0,1,13,0,2,13,0,3,13,1,0,13,1,1,13,1,2,13,1,3,13,2,0,13,2,2,13,2,3,13,3,0,13,3,1,13,3,2,13,3,3,0,0,0,0,0,1,0,0,2,0,0,3,0,1,0,0,1,1,0,1,2,0,1,3,0,2,0,0,2,1,0,2,2,0,2,3,0,3,0,0,3,1,0,3,2,0,3,3,1,0,0,1,0,1,1,0,2,1,0,3,1,1,0,1,1,1,1,1,2,1,1,3,1,2,0,1,2,1,1,2,2,1,3,0,1,3,1,1,3,2,1,3,3,2,0,0,2,0,1,2,0,2,2,0,3,2,1,0,2,1,1,2,1,2,2,1,3,2,2,0,2,2,1,2,2,2,2,2,3,2,3,0,2,3,1,2,3,2,2,3,3,3,0,0,3,0,1,3,0,2,3,0,3,3,1,0,3,1,1,3,1,2,3,1,3,3,2,0,3,2,1,3,2,2,3,2,3,3,3,0,3,3,1,3,3,2,3,3,3,0,0,0,0,0,1,0,0,2,0,0,3,0,1,0,0,1,1,0,1,2,0,1,3,0,2,0,0,2,1,0,2,2,0,2,3,0,3,0,0,3,1,0,3,2,0,3,3,1,0,0,1,0,1,1,0,2,1,0,3,1,1,0,1,1,1,1,1,2,1,1,3,1,2,0,1,2,1,1,2,2,1,2,3,1,3,0,1,3,1,1,3,2,1,3,3,2,0,0,2,0,1,2,0,2,2,0,3,2,1,0,2,1,1,2,1,2,2,1,3,2,2,0,2,2,1,2,2,2,2,2,3,2,3,0,2,3,2,2,3,3,3,0,0,3,0,1,3,0,2,3,0,3,3,1,0,3,1,1,3,1,2,3,1,3,3,2,0,3,2,1,3,2,2,3,2,3,3,3,0,3,3,1,3,3,2,3,3,3,0,0,0,0,0,1,0,0,2,0,0,3,0,1,0,0,1,1,0,1,2,0,1,3,0,2,0,0,2,1,0,2,2,0,2,3,0,3,0,0,3,1,0,3,2,0,3,3,1,0,0,1,0,1,1,0,2,1,0,3,1,1,0,1,1,1,1,1,2,1,1,3,1,2,0,1,2,1,1,2,2,1,2,3,1,3,0,1,3,1,1,3,2,1,3,3,2,0,0,2,0,1,2,0,2,2,0,3,2,1,0,2,1,1,2,1,2,2,1,3,2,2,0,2,2,1,2,2,2,2,2,3,2,3,0,2,3,2,2,3,3,3,0,0,3,0,1,3,0,2,3,0,3,3,1,0,3,1,1,3,1,2,3,1,3,3,2,0,3,2,1,3,2,2,3,2,3,3,3,0,3,3,1,3,3,2,3,3,3,0,0,0,0,0,1,0,0,2,0,0,3,0,1,0,0,1,1,0,1,2,0,1,3,0,2,0,0,2,1,0,2,2,0,2,3,0,3,0,0,3,1,0,3,2,0,3,3,1,0,0,1,0,1,1,0,2,1,0,3,1,1,0,1,1,1,1,1,2,1,1,3,1,2,0,1,2,1,1,2,2,1,2,3,1,3,0,1,3,1,1,3,2,1,3,3,2,0,0,2,0,1,2,0,2,2,0,3,2,1,0,2,1,1,2,1,2,2,1,3,2,2,0,2,2,1,2,2,2,2,2,3,2,3,0,2,3,2,2,3,3,3,0,0,3,0,1,3,0,2,3,0,3,3,1,0,3,1,1,3,1,2,3,1,3,3,2,0,3,2,1,3,2,2,3,2,3,3,3,0,3,3,1,3,3,2,3,3,3,0,0,0,0,0,1,0,0,2,0,0,3,0,1,0,0,1,1,0,1,2,0,1,3,0,2,0,0,2,1,0,2,2,0,2,3,0,3,0,0,3,1,0,3,2,0,3,3,13,0,0,13,0,1,13,0,2,13,0,3,13,1,0,13,1,1,13,1,2,13,1,3,13,2,0,13,2,2,13,2,3,13,3,0,13,3,1,13,3,2,13,3,3,0,0,0,0,0,1,0,0,2,0,0,3,0,1,0,0,1,1,0,1,2,0,1,3,0,2,0,0,2,1,0,2,2,0,2,3,0,3,0,0,3,1,0,3,2,0,3,3,1,0,0,1,0,1,1,0,2,1,0,3,1,1,0,1,1,1,1,1,2,1,1,3,1,2,0,1,2,1,1,2,2,1,2,3,1,3,0,1,3,1,1,3,2,1,3,3,2,0,0,2,0,1,2,0,2,2,0,3,2,1,0,2,1,1,2,1,2,2,1,3,2,2,0,2,2,1,2,2,2,2,2,3,2,3,0,2,3,2,2,3,3,3,0,0,3,0,1,3,0,2,3,0,3,3,1,0,3,1,1,3,1,2,3,1,3,3,2,0,3,2,1,3,2,2,3,2,3,3,3,0,3,3,1,3,3,2,3,3,3,0,0,0,0,0,1,0,0,2,0,0,3,0,1,0,0,1,1,0,1,2,0,1,3,0,2,0,0,2,1,0,2,2,0,2,3,0,3,0,0,3,1,0,3,2,0,3,3,1,0,0,1,0,1,1,0,2,1,0,3,1,1,0,1,1,1,1,1,2,1,1,3,1,2,0,1,2,1,1,2,2,1,2,3,1,3,0,1,3,1,1,3,2,1,3,3,2,0,0,2,0,1,2,0,2,2,0,3,2,1,0,2,1,1,2,1,2,2,2,0,2,2,1,2,2,2,2,2,3,2,3,0,2,3,1,2,3,2,2,3,3,3,0,0,3,0,1,3,0,2,3,0,3,3,1,0,3,1,1,3,1,2,3,1,3,3,2,0,3,2,1,3,2,2,3,2,3,3,3,0,3,3,1,3,3,2,3,3,3,0,0,0,0,0,1,0,0,2,0,0,3,0,1,0,0,1,1,0,1,2,0,1,3,0,2,0,0,2,1,0,2,2,0,2,3,0,3,0,0,3,1,0,3,2,0,3,3,1,0,0,1,0,1,1,0,2,1,0,3,1,1,0,1,1,1,1,1,2,1,1,3,1,2,0,1,2,1,1,2,2,1,2,3,1,3,0,1,3,1,1,3,2,1,3,3,2,0,0,2,0,1,2,0,2,2,0,3,2,1,0,2,1,1,2,1,2,2,1,3,2,2,0,2,2,1,2,2,2,2,2,3,2,3,0,2,3,2,2,3,3,3,0,0,3,0,1,3,0,2,3,0,3,3,1,0,3,1,1,3,1,2,3,1,3,3,2,0,3,2,1,3,2,2,3,2,3,3,3,0,3,3,1,3,3,2,3,3,3,0,0,0,0,0,1,0,0,2,0,0,3,0,1,0,0,1,1,0,1,2,0,1,3,0,2,0,0,2,1,0,2,2,0,2,3,0,3,0,0,3,1,0,3,2,0,3,3,1,0,0,1,0,1,1,0,2,1,0,3,1,1,0,1,1,1,1,1,2,1,1,3,1,2,0,1,2,1,1,2,2,1,2,3,1,3,0,1,3,1,1,3,2,1,3,3,2,0,0,2,0,1,2,0,2,2,0,3,2,1,0,2,1,1,2,1,2,2,1,3,2,2,0,2,2,1,2,2,2,2,2,3,2,3,0,2,3,2,2,3,3,3,0,0,3,0,1,3,0,2,3,0,3,3,1,0,3,1,1,3,1,2,3,1,3,3,2,0,3,2,1,3,2,2,3,2,3,3,3,0,3,3,1,3,3,2,3,3,3,0,0,0,0,0,1,0,0,2,0,0,3,0,1,0,0,1,1,0,1,2,0,1,3,0,2,0,0,2,1,0,2,2,0,2,3,0,3,0,0,3,1,0,3,2,0,3,3,1,0,0,1,0,1,1,0,2,1,0,3,1,1,0,1,1,1,1,1,2,1,1,3,1,2,0,1,2,1,1,2,2,1,3,0,1,3,1,1,3,2,1,3,3,2,0,0,2,0,1,2,0,2,2,0,3,2,1,0,2,1,1,2,1,2,2,1,3,2,2,0,2,2,1,2,2,2,2,2,3,2,3,0,2,3,1,2,3,2,2,3,3,3,0,0,3,0,1,3,0,2,3,0,3,3,1,0,3,1,1,3,1,2,3,1,3,3,2,0,3,2,1,3,2,2,3,2,3,3,3,0,3,3,1,3,3,2,3,3,3,0,0,0,0,0,1,0,0,2,0,0,3,0,1,0,0,1,1,0,1,2,0,1,3,0,2,0,0,2,1,0,2,2,0,2,3,0,3,0,0,3,1,0,3,2,0,3,3,1,0,0,1,0,1,1,0,2,1,0,3,1,1,0,1,1,1,1,1,2,1,1,3,1,2,0,1,2,1,1,2,2,1,3,0,1,3,1,1,3,2,1,3,3,2,0,0,2,0,1,2,0,2,2,0,3,2,1,0,2,1,1,2,1,2,2,1,3,2,2,0,2,2,1,2,2,2,2,2,3,2,3,0,2,3,1,2,3,2,2,3,3,3,0,0,3,0,1,3,0,2,3,0,3,3,1,0,3,1,1,3,1,2,3,1,3,3,2,0,3,2,1,3,2,2,3,2,3,3,3,0,3,3,1,3,3,2,3,3,3,0,0,0,0,0,1,0,0,2,0,0,3,0,1,0,0,1,1,0,1,2,0,1,3,0,2,0,0,2,1,0,2,2,0,2,3,0,3,0,0,3,1,0,3,2,0,3,3,1,0,0,1,0,1,1,0,2,1,0,3,1,1,0,1,1,1,1,1,2,1,1,3,1,2,0,1,2,1,1,2,2,1,2,3,1,3,0,1,3,1,1,3,2,1,3,3,2,0,0,2,0,1,2,0,2,2,0,3,2,1,0,2,1,1,2,1,2,2,1,3,2,2,0,2,2,1,2,2,2,2,2,3,2,3,0,2,3,2,2,3,3,3,0,0,3,0,1,3,0,2,3,0,3,3,1,0,3,1,1,3,1,2,3,1,3,3,2,0,3,2,1,3,2,2,3,2,3,3,3,0,3,3,1,3,3,2,3,3,3,0,0,0,0,0,1,0,0,2,0,0,3,0,1,0,0,1,1,0,1,2,0,1,3,0,2,0,0,2,1,0,2,2,0,2,3,0,3,0,0,3,1,0,3,2,0,3,3,1,0,0,1,0,1,1,0,2,1,0,3,1,1,0,1,1,1,1,1,2,1,1,3,1,2,0,1,2,1,1,2,2,1,2,3,1,3,0,1,3,1,1,3,2,1,3,3,2,0,0,2,0,1,2,0,2,2,0,3,2,1,0,2,1,1,2,1,2,2,2,0,2,2,1,2,2,2,2,2,3,2,3,0,2,3,1,2,3,2,2,3,3,3,0,0,3,0,1,3,0,2,3,0,3,3,1,0,3,1,1,3,1,2,3,1,3,3,2,0,3,2,1,3,2,2,3,2,3,3,3,0,3,3,1,3,3,2,3,3,3,0,0,0,0,0,1,0,0,2,0,0,3,0,1,0,0,1,1,0,1,2,0,1,3,0,2,0,0,2,1,0,2,2,0,2,3,0,3,0,0,3,1,0,3,2,0,3,3,1,0,0,1,0,1,1,0,2,1,0,3,1,1,0,1,1,1,1,1,2,1,1,3,1,2,0,1,2,1,1,2,2,1,2,3,1,3,0,1,3,1,1,3,2,1,3,3,2,0,0,2,0,1,2,0,2,2,0,3,2,1,0,2,1,1,2,1,2,2,1,3,2,2,0,2,2,1,2,2,2,2,2,3,2,3,0,2,3,2,2,3,3,3,0,0,3,0,1,3,0,2,3,0,3,3,1,0,3,1,1,3,1,2,3,1,3,3,2,0,3,2,1,3,2,2,3,2,3,3,3,0,3,3,1,3,3,2,3,3,3,0,0,0,0,0,1,0,0,2,0,0,3,0,1,0,0,1,1,0,1,2,0,1,3,0,2,0,0,2,1,0,2,2,0,2,3,0,3,0,0,3,1,0,3,2,0,3,3,13,0,0,13,0,1,13,0,2,13,0,3,13,1,0,13,1,1,13,1,2,13,1,3,13,2,0,13,2,2,13,2,3,13,3,0,13,3,1,13,3,2,13,3,3,0,0,0,0,0,1,0,0,2,0,0,3,0,1,0,0,1,1,0,1,2,0,1,3,0,2,0,0,2,1,0,2,2,0,2,3,0,3,0,0,3,1,0,3,2,0,3,3,13,0,0,13,0,1,13,0,2,13,0,3,13,1,0,13,1,1,13,1,2,13,1,3,13,2,0,13,2,2,13,2,3,13,3,0,13,3,1,13,3,2,13,3,3,0,0,0,0,0,1,0,0,2,0,0,3,0,1,0,0,1,1,0,1,2,0,1,3,0,2,0,0,2,1,0,2,2,0,2,3,0,3,0,0,3,1,0,3,2,0,3,3,13,0,0,13,0,1,13,0,2,13,0,3,13,1,0,13,1,1,13,1,2,13,1,3,13,2,0,13,2,2,13,2,3,13,3,0,13,3,1,13,3,2,13,3,3,0,0,0,0,0,1,0,0,2,0,0,3,0,1,0,0,1,1,0,1,2,0,1,3,0,2,0,0,2,1,0,2,2,0,2,3,0,3,0,0,3,1,0,3,2,0,3,3,13,0,0,13,0,1,13,0,2,13,0,3,13,1,0,13,1,1,13,1,2,13,1,3,13,2,0,13,2,2,13,2,3,13,3,0,13,3,1,13,3,2,13,3,3,0,0,0,0,0,1,0,0,2,0,0,3,0,1,0,0,1,1,0,1,2,0,1,3,0,2,0,0,2,1,0,2,2,0,2,3,0,3,0,0,3,1,0,3,2,0,3,3,1,0,0,1,0,1,1,0,2,1,0,3,1,1,0,1,1,1,1,1,2,1,1,3,1,2,0,1,2,1,1,2,2,1,2,3,1,3,0,1,3,1,1,3,2,1,3,3,2,0,0,2,0,1,2,0,2,2,0,3,2,1,0,2,1,1,2,1,2,2,1,3,2,2,0,2,2,1,2,2,2,2,2,3,2,3,0,2,3,2,2,3,3,3,0,0,3,0,1,3,0,2,3,0,3,3,1,0,3,1,1,3,1,2,3,1,3,3,2,0,3,2,1,3,2,2,3,2,3,3,3,0,3,3,1,3,3,2,3,3,3,0,0,0,0,0,1,0,0,2,0,0,3,0,1,0,0,1,1,0,1,2,0,1,3,0,2,0,0,2,1,0,2,2,0,2,3,0,3,0,0,3,1,0,3,2,0,3,3,1,0,0,1,0,1,1,0,2,1,0,3,1,1,0,1,1,1,1,1,2,1,1,3,1,2,0,1,2,1,1,2,2,1,2,3,1,3,0,1,3,1,1,3,2,1,3,3,2,0,0,2,0,1,2,0,2,2,0,3,2,1,0,2,1,1,2,1,2,2,1,3,2,2,0,2,2,1,2,2,2,2,2,3,2,3,0,2,3,2,2,3,3,3,0,0,3,0,1,3,0,2,3,0,3,3,1,0,3,1,1,3,1,2,3,1,3,3,2,0,3,2,1,3,2,2,3,2,3,3,3,0,3,3,1,3,3,2,3,3,3,0,0,0,0,0,1,0,0,2,0,0,3,0,1,0,0,1,1,0,1,2,0,1,3,0,2,0,0,2,1,0,2,2,0,2,3,0,3,0,0,3,1,0,3,2,0,3,3,1,0,0,1,0,1,1,0,2,1,0,3,1,1,0,1,1,1,1,1,2,1,1,3,1,2,0,1,2,1,1,2,2,1,2,3,1,3,0,1,3,1,1,3,2,1,3,3,2,0,0,2,0,1,2,0,2,2,0,3,2,1,0,2,1,1,2,1,2,2,1,3,2,2,0,2,2,1,2,2,2,2,2,3,2,3,0,2,3,2,2,3,3,3,0,0,3,0,1,3,0,2,3,0,3,3,1,0,3,1,1,3,1,2,3,1,3,3,2,0,3,2,1,3,2,2,3,2,3,3,3,0,3,3,1,3,3,2,3,3,3,0,0,0,0,0,1,0,0,2,0,0,3,0,1,0,0,1,1,0,1,2,0,1,3,0,2,0,0,2,1,0,2,2,0,2,3,0,3,0,0,3,1,0,3,2,0,3,3,1,0,0,1,0,1,1,0,2,1,0,3,1,1,0,1,1,1,1,1,2,1,1,3,1,2,0,1,2,1,1,2,2,1,3,0,1,3,1,1,3,2,1,3,3,2,0,0,2,0,1,2,0,2,2,0,3,2,1,0,2,1,1,2,1,2,2,1,3,2,2,0,2,2,1,2,2,2,2,2,3,2,3,0,2,3,1,2,3,2,2,3,3,3,0,0,3,0,1,3,0,2,3,0,3,3,1,0,3,1,1,3,1,2,3,1,3,3,2,0,3,2,1,3,2,2,3,2,3,3,3,0,3,3,1,3,3,2,3,3,3,0,0,0,0,0,1,0,0,2,0,0,3,0,1,0,0,1,1,0,1,2,0,1,3,0,2,0,0,2,1,0,2,2,0,2,3,0,3,0,0,3,1,0,3,2,0,3,3,1,0,0,1,0,1,1,0,2,1,0,3,1,1,0,1,1,1,1,1,2,1,1,3,1,2,0,1,2,1,1,2,2,1,2,3,1,3,0,1,3,1,1,3,2,1,3,3,2,0,0,2,0,1,2,0,2,2,0,3,2,1,0,2,1,1,2,1,2,2,1,3,2,2,0,2,2,1,2,2,2,2,2,3,2,3,0,2,3,2,2,3,3,3,0,0,3,0,1,3,0,2,3,0,3,3,1,0,3,1,1,3,1,2,3,1,3,3,2,0,3,2,1,3,2,2,3,2,3,3,3,0,3,3,1,3,3,2,3,3,3,0,0,0,0,0,1,0,0,2,0,0,3,0,1,0,0,1,1,0,1,2,0,1,3,0,2,0,0,2,1,0,2,2,0,2,3,0,3,0,0,3,1,0,3,2,0,3,3,1,0,0,1,0,1,1,0,2,1,0,3,1,1,0,1,1,1,1,1,2,1,1,3,1,2,0,1,2,1,1,2,2,1,2,3,1,3,0,1,3,1,1,3,2,1,3,3,2,0,0,2,0,1,2,0,2,2,0,3,2,1,0,2,1,1,2,1,2,2,1,3,2,2,0,2,2,1,2,2,2,2,2,3,2,3,0,2,3,1,2,3,2,2,3,3,3,0,0,3,0,1,3,0,2,3,0,3,3,1,0,3,1,1,3,1,3,3,2,0,3,2,1,3,2,2,3,2,3,3,3,0,3,3,1,3,3,2,3,3,3,0,0,0,0,0,1,0,0,2,0,0,3,0,1,0,0,1,1,0,1,2,0,1,3,0,2,0,0,2,1,0,2,2,0,2,3,0,3,0,0,3,1,0,3,2,0,3,3,1,0,0,1,0,1,1,0,2,1,0,3,1,1,0,1,1,1,1,1,2,1,1,3,1,2,0,1,2,1,1,2,2,1,2,3,1,3,0,1,3,1,1,3,2,1,3,3,2,0,0,2,0,1,2,0,2,2,0,3,2,1,0,2,1,1,2,1,2,2,1,3,2,2,0,2,2,1,2,2,2,2,2,3,2,3,0,2,3,2,2,3,3,3,0,0,3,0,1,3,0,2,3,0,3,3,1,0,3,1,1,3,1,2,3,1,3,3,2,0,3,2,1,3,2,2,3,2,3,3,3,0,3,3,1,3,3,2,3,3,3,0,0,0,0,0,1,0,0,2,0,0,3,0,1,0,0,1,1,0,1,2,0,1,3,0,2,0,0,2,1,0,2,2,0,2,3,0,3,0,0,3,1,0,3,2,0,3,3,1,0,0,1,0,1,1,0,2,1,0,3,1,1,0,1,1,1,1,1,2,1,1,3,1,2,0,1,2,1,1,2,2,1,2,3,1,3,0,1,3,1,1,3,2,1,3,3,2,0,0,2,0,1,2,0,2,2,0,3,2,1,0,2,1,1,2,1,2,2,2,0,2,2,1,2,2,2,2,2,3,2,3,0,2,3,1,2,3,2,2,3,3,3,0,0,3,0,1,3,0,2,3,0,3,3,1,0,3,1,1,3,1,2,3,1,3,3,2,0,3,2,1,3,2,2,3,2,3,3,3,0,3,3,1,3,3,2,3,3,3,0,0,0,0,0,1,0,0,2,0,0,3,0,1,0,0,1,1,0,1,2,0,1,3,0,2,0,0,2,1,0,2,2,0,2,3,0,3,0,0,3,1,0,3,2,0,3,3,13,0,0,13,0,1,13,0,2,13,0,3,13,1,0,13,1,1,13,1,2,13,1,3,13,2,0,13,2,2,13,2,3,13,3,0,13,3,1,13,3,2,13,3,3,0,0,0,0,0,1,0,0,2,0,0,3,0,1,0,0,1,1,0,1,2,0,1,3,0,2,0,0,2,1,0,2,2,0,2,3,0,3,0,0,3,1,0,3,2,0,3,3,1,0,0,1,0,1,1,0,2,1,0,3,1,1,0,1,1,1,1,1,2,1,1,3,1,2,0,1,2,1,1,2,2,1,2,3,1,3,0,1,3,1,1,3,2,1,3,3,2,0,0,2,0,1,2,0,2,2,0,3,2,1,0,2,1,1,2,1,2,2,1,3,2,2,0,2,2,1,2,2,2,2,2,3,2,3,0,2,3,2,2,3,3,3,0,0,3,0,1,3,0,2,3,0,3,3,1,0,3,1,1,3,1,2,3,1,3,3,2,0,3,2,1,3,2,2,3,2,3,3,3,0,3,3,1,3,3,2,3,3,3,0,0,0,0,0,1,0,0,2,0,0,3,0,1,0,0,1,1,0,1,2,0,1,3,0,2,0,0,2,1,0,2,2,0,2,3,0,3,0,0,3,1,0,3,2,0,3,3,1,0,0,1,0,1,1,0,2,1,0,3,1,1,0,1,1,1,1,1,2,1,1,3,1,2,0,1,2,1,1,2,2,1,2,3,1,3,0,1,3,1,1,3,2,1,3,3,2,0,0,2,0,1,2,0,2,2,0,3,2,1,0,2,1,1,2,1,2,2,1,3,2,2,0,2,2,1,2,2,2,2,2,3,2,3,0,2,3,2,2,3,3,3,0,0,3,0,1,3,0,2,3,0,3,3,1,0,3,1,1,3,1,2,3,1,3,3,2,0,3,2,1,3,2,2,3,2,3,3,3,0,3,3,1,3,3,2,3,3,3,0,0,0,0,0,1,0,0,2,0,0,3,0,1,0,0,1,1,0,1,2,0,1,3,0,2,0,0,2,1,0,2,2,0,2,3,0,3,0,0,3,1,0,3,2,0,3,3,1,0,0,1,0,1,1,0,2,1,0,3,1,1,0,1,1,1,1,1,2,1,1,3,1,2,0,1,2,1,1,2,2,1,2,3,1,3,0,1,3,1,1,3,2,1,3,3,2,0,0,2,0,1,2,0,2,2,0,3,2,1,0,2,1,1,2,1,2,2,1,3,2,2,0,2,2,1,2,2,2,2,2,3,2,3,0,2,3,2,2,3,3,3,0,0,3,0,1,3,0,2,3,0,3,3,1,0,3,1,1,3,1,2,3,1,3,3,2,0,3,2,1,3,2,2,3,2,3,3,3,0,3,3,1,3,3,2,3,3,3,0,0,0,0,0,1,0,0,2,0,0,3,0,1,0,0,1,1,0,1,2,0,1,3,0,2,0,0,2,1,0,2,2,0,2,3,0,3,0,0,3,1,0,3,2,0,3,3,1,0,0,1,0,1,1,0,2,1,0,3,1,1,0,1,1,1,1,1,2,1,1,3,1,2,0,1,2,1,1,2,2,1,3,0,1,3,1,1,3,2,1,3,3,2,0,0,2,0,1,2,0,2,2,0,3,2,1,0,2,1,1,2,1,2,2,1,3,2,2,0,2,2,1,2,2,2,2,2,3,2,3,0,2,3,1,2,3,2,2,3,3,3,0,0,3,0,1,3,0,2,3,0,3,3,1,0,3,1,1,3,1,2,3,1,3,3,2,0,3,2,1,3,2,2,3,2,3,3,3,0,3,3,1,3,3,2,3,3,3,0,0,0,0,0,1,0,0,2,0,0,3,0,1,0,0,1,1,0,1,2,0,1,3,0,2,0,0,2,1,0,2,2,0,2,3,0,3,0,0,3,1,0,3,2,0,3,3,1,0,0,1,0,1,1,0,2,1,0,3,1,1,0,1,1,1,1,1,2,1,1,3,1,2,0,1,2,1,1,2,2,1,2,3,1,3,0,1,3,1,1,3,2,1,3,3,2,0,0,2,0,1,2,0,2,2,0,3,2,1,0,2,1,1,2,1,2,2,1,3,2,2,0,2,2,1,2,2,2,2,2,3,2,3,0,2,3,2,2,3,3,3,0,0,3,0,1,3,0,2,3,0,3,3,1,0,3,1,1,3,1,2,3,1,3,3,2,0,3,2,1,3,2,2,3,2,3,3,3,0,3,3,1,3,3,2,3,3,3,0,0,0,0,0,1,0,0,2,0,0,3,0,1,0,0,1,1,0,1,2,0,1,3,0,2,0,0,2,1,0,2,2,0,2,3,0,3,0,0,3,1,0,3,2,0,3,3,13,0,0,13,0,1,13,0,2,13,0,3,13,1,0,13,1,1,13,1,2,13,1,3,13,2,0,13,2,2,13,2,3,13,3,0,13,3,1,13,3,2,13,3,3,0,0,0,0,0,1,0,0,2,0,0,3,0,1,0,0,1,1,0,1,2,0,1,3,0,2,0,0,2,1,0,2,2,0,2,3,0,3,0,0,3,1,0,3,2,0,3,3,13,0,0,13,0,1,13,0,2,13,0,3,13,1,0,13,1,1,13,1,2,13,1,3,13,2,0,13,2,2,13,2,3,13,3,0,13,3,1,13,3,2,13,3,3,0,0,0,0,0,1,0,0,2,0,0,3,0,1,0,0,1,1,0,1,2,0,1,3,0,2,0,0,2,1,0,2,2,0,2,3,0,3,0,0,3,1,0,3,2,0,3,3,1,0,0,1,0,1,1,0,2,1,0,3,1,1,0,1,1,1,1,1,2,1,1,3,1,2,0,1,2,1,1,2,2,1,2,3,1,3,0,1,3,1,1,3,2,1,3,3,2,0,0,2,0,1,2,0,2,2,0,3,2,1,0,2,1,1,2,1,2,2,1,3,2,2,0,2,2,1,2,2,2,2,2,3,2,3,0,2,3,2,2,3,3,3,0,0,3,0,1,3,0,2,3,0,3,3,1,0,3,1,1,3,1,2,3,1,3,3,2,0,3,2,1,3,2,2,3,2,3,3,3,0,3,3,1,3,3,2,3,3,3,0,0,0,0,0,1,0,0,2,0,0,3,0,1,0,0,1,1,0,1,2,0,1,3,0,2,0,0,2,1,0,2,2,0,2,3,0,3,0,0,3,1,0,3,2,0,3,3,1,0,0,1,0,1,1,0,2,1,0,3,1,1,0,1,1,1,1,1,2,1,1,3,1,2,0,1,2,1,1,2,2,1,2,3,1,3,0,1,3,1,1,3,2,1,3,3,2,0,0,2,0,1,2,0,2,2,0,3,2,1,0,2,1,1,2,1,2,2,1,3,2,2,0,2,2,1,2,2,2,2,2,3,2,3,0,2,3,1,2,3,2,2,3,3,3,0,0,3,0,1,3,0,2,3,0,3,3,1,0,3,1,1,3,1,3,3,2,0,3,2,1,3,2,2,3,2,3,3,3,0,3,3,1,3,3,2,3,3,3,0,0,0,0,0,1,0,0,2,0,0,3,0,1,0,0,1,1,0,1,2,0,1,3,0,2,0,0,2,1,0,2,2,0,2,3,0,3,0,0,3,1,0,3,2,0,3,3,1,0,0,1,0,1,1,0,2,1,0,3,1,1,0,1,1,1,1,1,2,1,1,3,1,2,0,1,2,1,1,2,2,1,2,3,1,3,0,1,3,1,1,3,2,1,3,3,2,0,0,2,0,1,2,0,2,2,0,3,2,1,0,2,1,1,2,1,2,2,1,3,2,2,0,2,2,1,2,2,2,2,2,3,2,3,0,2,3,2,2,3,3,3,0,0,3,0,1,3,0,2,3,0,3,3,1,0,3,1,1,3,1,2,3,1,3,3,2,0,3,2,1,3,2,2,3,2,3,3,3,0,3,3,1,3,3,2,3,3,3,0,0,0,0,0,1,0,0,2,0,0,3,0,1,0,0,1,1,0,1,2,0,1,3,0,2,0,0,2,1,0,2,2,0,2,3,0,3,0,0,3,1,0,3,2,0,3,3,1,0,0,1,0,1,1,0,2,1,0,3,1,1,0,1,1,1,1,1,2,1,1,3,1,2,0,1,2,1,1,2,2,1,2,3,1,3,0,1,3,1,1,3,2,1,3,3,2,0,0,2,0,1,2,0,2,2,0,3,2,1,0,2,1,1,2,1,2,2,2,0,2,2,1,2,2,2,2,2,3,2,3,0,2,3,1,2,3,2,2,3,3,3,0,0,3,0,1,3,0,2,3,0,3,3,1,0,3,1,1,3,1,2,3,1,3,3,2,0,3,2,1,3,2,2,3,2,3,3,3,0,3,3,1,3,3,2,3,3,3,0,0,0,0,0,1,0,0,2,0,0,3,0,2,0,0,2,1,0,2,2,0,2,3,1,0,0,1,0,1,1,0,2,1,0,3,1,2,0,1,2,1,1,2,2,1,2,3,2,0,0,2,0,1,2,0,2,2,0,3,2,2,0,2,2,1,2,2,2,2,2,3,3,0,0,3,0,1,3,0,2,3,0,3,3,2,0,3,2,2,3,2,3,0,0,0,0,0,1,0,0,2,0,0,3,0,1,0,0,1,1,0,1,2,0,1,3,0,2,0,0,2,1,0,2,2,0,2,3,0,3,0,0,3,1,0,3,2,0,3,3,1,0,0,1,0,1,1,0,2,1,0,3,1,1,0,1,1,1,1,1,2,1,1,3,1,2,0,1,2,1,1,2,2,1,2,3,1,3,0,1,3,1,1,3,2,1,3,3,2,0,0,2,0,1,2,0,2,2,0,3,2,1,0,2,1,1,2,1,2,2,1,3,2,2,0,2,2,1,2,2,2,2,2,3,2,3,0,2,3,1,2,3,2,2,3,3,3,0,0,3,0,1,3,0,2,3,0,3,3,1,0,3,1,1,3,1,3,3,2,0,3,2,1,3,2,2,3,2,3,3,3,0,3,3,1,3,3,2,3,3,3,0,0,0,0,0,2,0,1,0,0,1,2,0,2,0,0,2,2,0,3,0,0,3,2,1,0,0,1,0,2,1,1,0,1,1,2,1,2,0,1,2,2,1,3,0,1,3,2,2,0,0,2,0,2,2,1,0,2,1,2,2,2,0,2,2,2,2,3,0,2,3,2,3,0,0,3,0,2,3,1,0,3,2,0,3,2,2,3,3,0,3,3,2,0,0,0,0,0,1,0,0,2,0,0,3,0,1,0,0,1,1,0,1,2,0,1,3,0,2,0,0,2,1,0,2,2,0,2,3,0,3,0,0,3,1,0,3,2,0,3,3,13,0,0,13,0,1,13,0,2,13,0,3,13,1,0,13,1,1,13,1,2,13,1,3,13,2,0,13,2,2,13,2,3,13,3,0,13,3,1,13,3,2,13,3,3,0,0,0,0,0,1,0,0,2,0,0,3,0,1,0,0,1,1,0,1,2,0,1,3,0,2,0,0,2,1,0,2,2,0,2,3,0,3,0,0,3,1,0,3,2,0,3,3,1,0,0,1,0,1,1,0,2,1,0,3,1,1,0,1,1,1,1,1,2,1,1,3,1,2,0,1,2,1,1,2,2,1,2,3,1,3,0,1,3,1,1,3,2,1,3,3,2,0,0,2,0,1,2,0,2,2,0,3,2,1,0,2,1,1,2,1,2,2,2,0,2,2,1,2,2,2,2,2,3,2,3,0,2,3,1,2,3,2,2,3,3,3,0,0,3,0,1,3,0,2,3,0,3,3,1,0,3,1,1,3,1,2,3,1,3,3,2,0,3,2,1,3,2,2,3,2,3,3,3,0,3,3,1,3,3,2,3,3,3,0,0,0,0,0,1,0,0,2,0,0,3,0,1,0,0,1,1,0,1,2,0,1,3,0,2,0,0,2,1,0,2,2,0,2,3,0,3,0,0,3,1,0,3,2,0,3,3,1,0,0,1,0,1,1,0,2,1,0,3,1,1,0,1,1,1,1,1,2,1,1,3,1,2,0,1,2,1,1,2,2,1,2,3,1,3,0,1,3,1,1,3,2,1,3,3,2,0,0,2,0,1,2,0,2,2,0,3,2,1,0,2,1,1,2,1,2,2,1,3,2,2,0,2,2,1,2,2,2,2,2,3,2,3,0,2,3,2,2,3,3,3,0,0,3,0,1,3,0,2,3,0,3,3,1,0,3,1,1,3,1,2,3,1,3,3,2,0,3,2,1,3,2,2,3,2,3,3,3,0,3,3,1,3,3,2,3,3,3,0,0,0,0,0,1,0,0,2,0,0,3,0,1,0,0,1,1,0,1,2,0,1,3,0,2,0,0,2,1,0,2,2,0,2,3,0,3,0,0,3,1,0,3,2,0,3,3,1,0,0,1,0,1,1,0,2,1,0,3,1,1,0,1,1,1,1,1,2,1,1,3,1,2,0,1,2,1,1,2,2,1,2,3,1,3,0,1,3,1,1,3,2,1,3,3,2,0,0,2,0,1,2,0,2,2,0,3,2,1,0,2,1,1,2,1,2,2,2,0,2,2,1,2,2,2,2,2,3,2,3,0,2,3,1,2,3,2,2,3,3,3,0,0,3,0,1,3,0,2,3,0,3,3,1,0,3,1,1,3,1,2,3,1,3,3,2,0,3,2,1,3,2,2,3,2,3,3,3,0,3,3,1,3,3,2,3,3,3,0,0,0,0,0,1,0,0,2,0,0,3,0,2,0,0,2,1,0,2,2,0,2,3,1,0,0,1,0,1,1,0,2,1,0,3,1,2,0,1,2,1,1,2,2,1,2,3,2,0,0,2,0,1,2,0,2,2,0,3,2,2,0,2,2,1,2,2,2,2,2,3,3,0,0,3,0,1,3,0,2,3,0,3,3,2,0,3,2,2,3,2,3,0,0,0,0,0,1,0,0,2,0,0,3,0,1,0,0,1,1,0,1,2,0,1,3,0,2,0,0,2,1,0,2,2,0,2,3,0,3,0,0,3,1,0,3,2,0,3,3,1,0,0,1,0,1,1,0,2,1,0,3,1,1,0,1,1,1,1,1,2,1,1,3,1,2,0,1,2,1,1,2,2,1,2,3,1,3,0,1,3,1,1,3,2,1,3,3,2,0,0,2,0,1,2,0,2,2,0,3,2,1,0,2,1,1,2,1,2,2,1,3,2,2,0,2,2,1,2,2,2,2,2,3,2,3,0,2,3,2,2,3,3,3,0,0,3,0,1,3,0,2,3,0,3,3,1,0,3,1,1,3,1,2,3,1,3,3,2,0,3,2,1,3,2,2,3,2,3,3,3,0,3,3,1,3,3,2,3,3,3,0,0,0,0,0,1,0,0,2,0,0,3,0,1,0,0,1,1,0,1,2,0,1,3,0,2,0,0,2,1,0,2,2,0,2,3,0,3,0,0,3,1,0,3,2,0,3,3,13,0,0,13,0,1,13,0,2,13,0,3,13,1,0,13,1,1,13,1,2,13,1,3,13,2,0,13,2,2,13,2,3,13,3,0,13,3,1,13,3,2,13,3,3,0,0,0,0,0,1,0,0,2,0,0,3,0,1,0,0,1,1,0,1,2,0,1,3,0,2,0,0,2,1,0,2,2,0,2,3,0,3,0,0,3,1,0,3,2,0,3,3,2,0,0,2,0,1,2,0,2,2,0,3,2,1,0,2,1,1,2,1,2,2,1,3,2,2,0,2,2,1,2,2,2,2,2,3,2,3,0,2,3,2,2,3,3,0,0,0,0,0,1,0,0,2,0,0,3,0,2,0,0,2,1,0,2,2,0,2,3,1,0,0,1,0,1,1,0,2,1,0,3,1,2,0,1,2,1,1,2,2,1,2,3,2,0,0,2,0,1,2,0,2,2,0,3,2,2,0,2,2,1,2,2,2,2,2,3,3,0,0,3,0,1,3,0,2,3,0,3,3,2,0,3,2,2,3,2,3,0,0,0,0,0,1,0,0,2,0,0,3,0,1,0,0,1,1,0,1,2,0,1,3,0,2,0,0,2,1,0,2,2,0,2,3,0,3,0,0,3,1,0,3,2,0,3,3,1,0,0,1,0,1,1,0,2,1,0,3,1,1,0,1,1,1,1,1,2,1,1,3,1,2,0,1,2,1,1,2,2,1,2,3,1,3,0,1,3,1,1,3,2,1,3,3,2,0,0,2,0,1,2,0,2,2,0,3,2,1,0,2,1,1,2,1,2,2,1,3,2,2,0,2,2,1,2,2,2,2,2,3,2,3,0,2,3,2,2,3,3,3,0,0,3,0,1,3,0,2,3,0,3,3,1,0,3,1,1,3,1,2,3,1,3,3,2,0,3,2,1,3,2,2,3,2,3,3,3,0,3,3,1,3,3,2,3,3,3,0,0,0,0,0,2,0,1,0,0,1,2,0,2,0,0,2,2,0,3,0,0,3,2,1,0,0,1,0,2,1,1,0,1,1,2,1,2,0,1,2,2,1,3,0,1,3,2,2,0,0,2,0,2,2,1,0,2,1,2,2,2,0,2,2,2,2,3,0,2,3,2,3,0,0,3,0,2,3,1,0,3,2,0,3,2,2,3,3,0,3,3,2,0,0,0,0,0,1,0,0,2,0,0,3,0,1,0,0,1,1,0,1,2,0,1,3,0,2,0,0,2,1,0,2,2,0,2,3,0,3,0,0,3,1,0,3,2,0,3,3,1,0,0,1,0,1,1,0,2,1,0,3,1,1,0,1,1,1,1,1,2,1,1,3,1,2,0,1,2,1,1,2,2,1,2,3,1,3,0,1,3,1,1,3,2,1,3,3,2,0,0,2,0,1,2,0,2,2,0,3,2,1,0,2,1,1,2,1,2,2,1,3,2,2,0,2,2,1,2,2,2,2,2,3,2,3,0,2,3,2,2,3,3,3,0,0,3,0,1,3,0,2,3,0,3,3,1,0,3,1,1,3,1,2,3,1,3,3,2,0,3,2,1,3,2,2,3,2,3,3,3,0,3,3,1,3,3,2,3,3,3,0,0,0,0,0,1,0,0,2,0,0,3,0,1,0,0,1,1,0,1,2,0,1,3,0,2,0,0,2,1,0,2,2,0,2,3,0,3,0,0,3,1,0,3,2,0,3,3,1,0,0,1,0,1,1,0,2,1,0,3,1,1,0,1,1,1,1,1,2,1,1,3,1,2,0,1,2,1,1,2,2,1,2,3,1,3,0,1,3,1,1,3,2,1,3,3,2,0,0,2,0,1,2,0,2,2,0,3,2,1,0,2,1,1,2,1,2,2,1,3,2,2,0,2,2,1,2,2,2,2,2,3,2,3,0,2,3,2,2,3,3,3,0,0,3,0,1,3,0,2,3,0,3,3,1,0,3,1,1,3,1,2,3,1,3,3,2,0,3,2,1,3,2,2,3,2,3,3,3,0,3,3,1,3,3,2,3,3,3,0,0,0,0,0,1,0,0,2,0,0,3,0,1,0,0,1,1,0,1,2,0,1,3,0,2,0,0,2,1,0,2,2,0,2,3,0,3,0,0,3,1,0,3,2,0,3,3,1,0,0,1,0,1,1,0,2,1,0,3,1,1,0,1,1,1,1,1,2,1,1,3,1,2,0,1,2,1,1,2,2,1,2,3,1,3,0,1,3,1,1,3,2,1,3,3,2,0,0,2,0,1,2,0,2,2,0,3,2,1,0,2,1,1,2,1,2,2,1,3,2,2,0,2,2,1,2,2,2,2,2,3,2,3,0,2,3,2,2,3,3,3,0,0,3,0,1,3,0,2,3,0,3,3,1,0,3,1,1,3,1,2,3,1,3,3,2,0,3,2,1,3,2,2,3,2,3,3,3,0,3,3,1,3,3,2,3,3,3,0,0,0,0,0,1,0,0,2,0,0,3,0,1,0,0,1,1,0,1,2,0,1,3,0,2,0,0,2,1,0,2,2,0,2,3,0,3,0,0,3,1,0,3,2,0,3,3,1,0,0,1,0,1,1,0,2,1,0,3,1,1,0,1,1,1,1,1,2,1,1,3,1,2,0,1,2,1,1,2,2,1,2,3,1,3,0,1,3,1,1,3,2,1,3,3,2,0,0,2,0,1,2,0,2,2,0,3,2,1,0,2,1,1,2,1,2,2,1,3,2,2,0,2,2,1,2,2,2,2,2,3,2,3,0,2,3,2,2,3,3,3,0,0,3,0,1,3,0,2,3,0,3,3,1,0,3,1,1,3,1,2,3,1,3,3,2,0,3,2,1,3,2,2,3,2,3,3,3,0,3,3,1,3,3,2,3,3,3,0,0,0,0,0,1,0,0,2,0,0,3,0,2,0,0,2,1,0,2,2,0,2,3,1,0,0,1,0,1,1,0,2,1,0,3,1,2,0,1,2,1,1,2,2,1,2,3,2,0,0,2,0,1,2,0,2,2,0,3,2,2,0,2,2,1,2,2,2,2,2,3,3,0,0,3,0,1,3,0,2,3,0,3,3,2,0,3,2,2,3,2,3,0,0,0,0,0,1,0,0,2,0,0,3,0,1,0,0,1,1,0,1,2,0,1,3,0,2,0,0,2,1,0,2,2,0,2,3,0,3,0,0,3,1,0,3,2,0,3,3,13,0,0,13,0,1,13,0,2,13,0,3,13,1,0,13,1,1,13,1,2,13,1,3,13,2,0,13,2,2,13,2,3,13,3,0,13,3,1,13,3,2,13,3,3,0,0,0,0,0,1,0,0,2,0,0,3,0,1,0,0,1,1,0,1,2,0,1,3,0,2,0,0,2,1,0,2,2,0,2,3,0,3,0,0,3,1,0,3,2,0,3,3,1,0,0,1,0,1,1,0,2,1,0,3,1,1,0,1,1,1,1,1,2,1,1,3,1,2,0,1,2,1,1,2,2,1,2,3,1,3,0,1,3,1,1,3,2,1,3,3,2,0,0,2,0,1,2,0,2,2,0,3,2,1,0,2,1,1,2,1,2,2,1,3,2,2,0,2,2,1,2,2,2,2,2,3,2,3,0,2,3,2,2,3,3,3,0,0,3,0,1,3,0,2,3,0,3,3,1,0,3,1,1,3,1,2,3,1,3,3,2,0,3,2,1,3,2,2,3,2,3,3,3,0,3,3,1,3,3,2,3,3,3,0,0,0,0,0,1,0,0,2,0,0,3,0,1,0,0,1,1,0,1,2,0,1,3,0,2,0,0,2,1,0,2,2,0,2,3,0,3,0,0,3,1,0,3,2,0,3,3,1,0,0,1,0,1,1,0,2,1,0,3,1,1,0,1,1,1,1,1,2,1,1,3,1,2,0,1,2,1,1,2,2,1,2,3,1,3,0,1,3,1,1,3,2,1,3,3,2,0,0,2,0,1,2,0,2,2,0,3,2,1,0,2,1,1,2,1,2,2,1,3,2,2,0,2,2,1,2,2,2,2,2,3,2,3,0,2,3,2,2,3,3,3,0,0,3,0,1,3,0,2,3,0,3,3,1,0,3,1,1,3,1,2,3,1,3,3,2,0,3,2,1,3,2,2,3,2,3,3,3,0,3,3,1,3,3,2,3,3,3,0,0,0,0,0,1,0,0,2,0,0,3,0,1,0,0,1,1,0,1,2,0,1,3,0,2,0,0,2,1,0,2,2,0,2,3,0,3,0,0,3,1,0,3,2,0,3,3,1,0,0,1,0,1,1,0,2,1,0,3,1,1,0,1,1,1,1,1,2,1,1,3,1,2,0,1,2,1,1,2,2,1,3,0,1,3,1,1,3,2,1,3,3,2,0,0,2,0,1,2,0,2,2,0,3,2,1,0,2,1,1,2,1,2,2,1,3,2,2,0,2,2,1,2,2,2,2,2,3,2,3,0,2,3,1,2,3,2,2,3,3,3,0,0,3,0,1,3,0,2,3,0,3,3,1,0,3,1,1,3,1,2,3,1,3,3,2,0,3,2,1,3,2,2,3,2,3,3,3,0,3,3,1,3,3,2,3,3,3,0,0,0,0,0,2,0,13,0,0,13,2,13,0,0,13,0,2,13,13,0,0,0,0,0,0,1,0,0,2,0,0,3,0,1,0,0,1,1,0,1,2,0,1,3,0,2,0,0,2,1,0,2,2,0,2,3,0,3,0,0,3,1,0,3,2,0,3,3,1,0,0,1,0,1,1,0,2,1,0,3,1,1,0,1,1,1,1,1,2,1,1,3,1,2,0,1,2,1,1,2,2,1,2,3,1,3,0,1,3,1,1,3,2,1,3,3,2,0,0,2,0,1,2,0,2,2,0,3,2,1,0,2,1,1,2,1,2,2,1,3,2,2,0,2,2,1,2,2,2,2,2,3,2,3,0,2,3,2,2,3,3,3,0,0,3,0,1,3,0,2,3,0,3,3,1,0,3,1,1,3,1,2,3,1,3,3,2,0,3,2,1,3,2,2,3,2,3,3,3,0,3,3,1,3,3,2,3,3,3,0,0,0,0,0,1,0,0,2,0,0,3,0,1,0,0,1,1,0,1,2,0,1,3,0,2,0,0,2,1,0,2,2,0,2,3,0,3,0,0,3,1,0,3,2,0,3,3,1,0,0,1,0,1,1,0,2,1,0,3,1,1,0,1,1,1,1,1,2,1,1,3,1,2,0,1,2,1,1,2,2,1,2,3,1,3,0,1,3,1,1,3,2,1,3,3,2,0,0,2,0,1,2,0,2,2,0,3,2,1,0,2,1,1,2,1,2,2,1,3,2,2,0,2,2,1,2,2,2,2,2,3,2,3,0,2,3,2,2,3,3,3,0,0,3,0,1,3,0,2,3,0,3,3,1,0,3,1,1,3,1,2,3,1,3,3,2,0,3,2,1,3,2,2,3,2,3,3,3,0,3,3,1,3,3,2,3,3,3,0,0,0,0,0,1,0,0,2,0,0,3,0,2,0,0,2,1,0,2,2,0,2,3,1,0,0,1,0,1,1,0,2,1,0,3,1,2,0,1,2,1,1,2,2,1,2,3,2,0,0,2,0,1,2,0,2,2,0,3,2,2,0,2,2,1,2,2,2,2,2,3,3,0,0,3,0,1,3,0,2,3,0,3,3,2,0,3,2,2,3,2,3,0,0,0,0,0,1,0,0,2,0,0,3,0,1,0,0,1,1,0,1,2,0,1,3,0,2,0,0,2,1,0,2,2,0,2,3,0,3,0,0,3,1,0,3,2,0,3,3,13,0,0,13,0,1,13,0,2,13,0,3,13,1,0,13,1,1,13,1,2,13,1,3,13,2,0,13,2,2,13,2,3,13,3,0,13,3,1,13,3,2,13,3,3,0,0,0,0,0,1,0,0,2,0,0,3,0,1,0,0,1,1,0,1,2,0,1,3,0,2,0,0,2,1,0,2,2,0,2,3,0,3,0,0,3,1,0,3,2,0,3,3,1,0,0,1,0,1,1,0,2,1,0,3,1,1,0,1,1,1,1,1,2,1,1,3,1,2,0,1,2,1,1,2,2,1,2,3,1,3,0,1,3,1,1,3,2,1,3,3,2,0,0,2,0,1,2,0,2,2,0,3,2,1,0,2,1,1,2,1,2,2,2,0,2,2,1,2,2,2,2,2,3,2,3,0,2,3,1,2,3,2,2,3,3,3,0,0,3,0,1,3,0,2,3,0,3,3,1,0,3,1,1,3,1,2,3,1,3,3,2,0,3,2,1,3,2,2,3,2,3,3,3,0,3,3,1,3,3,2,3,3,3,0,0,0,0,0,1,0,0,2,0,0,3,0,1,0,0,1,1,0,1,2,0,1,3,0,2,0,0,2,1,0,2,2,0,2,3,0,3,0,0,3,1,0,3,2,0,3,3,1,0,0,1,0,1,1,0,2,1,0,3,1,1,0,1,1,1,1,1,2,1,1,3,1,2,0,1,2,1,1,2,2,1,2,3,1,3,0,1,3,1,1,3,2,1,3,3,2,0,0,2,0,1,2,0,2,2,0,3,2,1,0,2,1,1,2,1,2,2,1,3,2,2,0,2,2,1,2,2,2,2,2,3,2,3,0,2,3,1,2,3,2,2,3,3,3,0,0,3,0,1,3,0,2,3,0,3,3,1,0,3,1,1,3,1,2,3,1,3,3,2,0,3,2,2,3,2,3,3,3,0,3,3,1,3,3,2,3,3,3,0,0,0,0,0,1,0,0,2,0,0,3,0,1,0,0,1,1,0,1,2,0,1,3,0,2,0,0,2,1,0,2,2,0,2,3,0,3,0,0,3,1,0,3,2,0,3,3,1,0,0,1,0,1,1,0,2,1,0,3,1,1,0,1,1,1,1,1,2,1,1,3,1,2,0,1,2,1,1,2,2,1,2,3,1,3,0,1,3,1,1,3,2,1,3,3,2,0,0,2,0,1,2,0,2,2,0,3,2,1,0,2,1,1,2,1,2,2,1,3,2,2,0,2,2,1,2,2,2,2,2,3,2,3,0,2,3,2,2,3,3,3,0,0,3,0,1,3,0,2,3,0,3,3,1,0,3,1,1,3,1,2,3,1,3,3,2,0,3,2,1,3,2,2,3,2,3,3,3,0,3,3,1,3,3,2,3,3,3,0,0,0,0,0,1,0,0,2,0,0,3,0,1,0,0,1,1,0,1,2,0,1,3,0,2,0,0,2,1,0,2,2,0,2,3,0,3,0,0,3,1,0,3,2,0,3,3,1,0,0,1,0,1,1,0,2,1,0,3,1,1,0,1,1,1,1,1,2,1,1,3,1,2,0,1,2,1,1,2,2,1,2,3,1,3,0,1,3,1,1,3,2,1,3,3,2,0,0,2,0,1,2,0,2,2,0,3,2,1,0,2,1,1,2,1,2,2,1,3,2,2,0,2,2,1,2,2,2,2,2,3,2,3,0,2,3,2,2,3,3,3,0,0,3,0,1,3,0,2,3,0,3,3,1,0,3,1,1,3,1,2,3,1,3,3,2,0,3,2,1,3,2,2,3,2,3,3,3,0,3,3,1,3,3,2,3,3,3,0,0,0,0,0,1,0,0,2,0,0,3,0,1,0,0,1,1,0,1,2,0,1,3,0,2,0,0,2,1,0,2,2,0,2,3,0,3,0,0,3,1,0,3,2,0,3,3,1,0,0,1,0,1,1,0,2,1,0,3,1,1,0,1,1,1,1,1,2,1,1,3,1,2,0,1,2,1,1,2,2,1,2,3,1,3,0,1,3,1,1,3,2,1,3,3,2,0,0,2,0,1,2,0,2,2,0,3,2,1,0,2,1,1,2,1,2,2,1,3,2,2,0,2,2,1,2,2,2,2,2,3,2,3,0,2,3,2,2,3,3,3,0,0,3,0,1,3,0,2,3,0,3,3,1,0,3,1,1,3,1,2,3,1,3,3,2,0,3,2,1,3,2,2,3,2,3,3,3,0,3,3,1,3,3,2,3,3,3,0,0,0,0,0,1,0,0,2,0,0,3,0,1,0,0,1,1,0,1,2,0,1,3,0,2,0,0,2,1,0,2,2,0,2,3,0,3,0,0,3,1,0,3,2,0,3,3,1,0,0,1,0,1,1,0,2,1,0,3,1,1,0,1,1,1,1,1,2,1,1,3,1,2,0,1,2,1,1,2,2,1,2,3,1,3,0,1,3,1,1,3,2,1,3,3,2,0,0,2,0,1,2,0,2,2,0,3,2,1,0,2,1,1,2,1,2,2,1,3,2,2,0,2,2,1,2,2,2,2,2,3,2,3,0,2,3,1,2,3,2,2,3,3,3,0,0,3,0,1,3,0,2,3,0,3,3,1,0,3,1,1,3,1,2,3,1,3,3,2,0,3,2,2,3,2,3,3,3,0,3,3,1,3,3,2,3,3,3,0,0,0,0,0,1,0,0,2,0,0,3,0,1,0,0,1,1,0,1,2,0,1,3,0,2,0,0,2,1,0,2,2,0,2,3,0,3,0,0,3,1,0,3,2,0,3,3,1,0,0,1,0,1,1,0,2,1,0,3,1,1,0,1,1,1,1,1,2,1,1,3,1,2,0,1,2,1,1,2,2,1,2,3,1,3,0,1,3,1,1,3,2,1,3,3,2,0,0,2,0,1,2,0,2,2,0,3,2,1,0,2,1,1,2,1,2,2,2,0,2,2,1,2,2,2,2,2,3,2,3,0,2,3,1,2,3,2,2,3,3,3,0,0,3,0,1,3,0,2,3,0,3,3,1,0,3,1,1,3,1,2,3,1,3,3,2,0,3,2,1,3,2,2,3,2,3,3,3,0,3,3,1,3,3,2,3,3,3,0,0,0,0,0,1,0,0,2,0,0,3,0,1,0,0,1,1,0,1,2,0,1,3,0,2,0,0,2,1,0,2,2,0,2,3,0,3,0,0,3,1,0,3,2,0,3,3,1,0,0,1,0,1,1,0,2,1,0,3,1,1,0,1,1,1,1,1,2,1,1,3,1,2,0,1,2,1,1,2,2,1,2,3,1,3,0,1,3,1,1,3,2,1,3,3,2,0,0,2,0,1,2,0,2,2,0,3,2,1,0,2,1,1,2,1,2,2,2,0,2,2,1,2,2,2,2,2,3,2,3,0,2,3,1,2,3,2,2,3,3,3,0,0,3,0,1,3,0,2,3,0,3,3,1,0,3,1,1,3,1,2,3,1,3,3,2,0,3,2,1,3,2,2,3,2,3,3,3,0,3,3,1,3,3,2,3,3,3,0,0,0,0,0,1,0,0,2,0,0,3,0,1,0,0,1,1,0,1,2,0,1,3,0,2,0,0,2,1,0,2,2,0,2,3,0,3,0,0,3,1,0,3,2,0,3,3,1,0,0,1,0,1,1,0,2,1,0,3,1,1,0,1,1,1,1,1,2,1,1,3,1,2,0,1,2,1,1,2,2,1,2,3,1,3,0,1,3,1,1,3,2,1,3,3,2,0,0,2,0,1,2,0,2,2,0,3,2,1,0,2,1,1,2,1,2,2,2,0,2,2,1,2,2,2,2,2,3,2,3,0,2,3,1,2,3,2,2,3,3,3,0,0,3,0,1,3,0,2,3,0,3,3,1,0,3,1,1,3,1,2,3,1,3,3,2,0,3,2,1,3,2,2,3,2,3,3,3,0,3,3,1,3,3,2,3,3,3,0,0,0,0,0,1,0,0,2,0,0,3,0,1,0,0,1,1,0,1,2,0,1,3,0,2,0,0,2,1,0,2,2,0,2,3,0,3,0,0,3,1,0,3,2,0,3,3,1,0,0,1,0,1,1,0,2,1,0,3,1,1,0,1,1,1,1,1,2,1,1,3,1,2,0,1,2,1,1,2,2,1,3,0,1,3,1,1,3,2,1,3,3,2,0,0,2,0,1,2,0,2,2,0,3,2,1,0,2,1,1,2,1,2,2,1,3,2,2,0,2,2,1,2,2,2,2,2,3,2,3,0,2,3,1,2,3,2,2,3,3,3,0,0,3,0,1,3,0,2,3,0,3,3,1,0,3,1,1,3,1,2,3,1,3,3,2,0,3,2,1,3,2,2,3,2,3,3,3,0,3,3,1,3,3,2,3,3,3,0,0,0,0,0,1,0,0,2,0,0,3,0,1,0,0,1,1,0,1,2,0,1,3,0,2,0,0,2,1,0,2,2,0,2,3,0,3,0,0,3,1,0,3,2,0,3,3,1,0,0,1,0,1,1,0,2,1,0,3,1,1,0,1,1,1,1,1,2,1,1,3,1,2,0,1,2,1,1,2,2,1,2,3,1,3,0,1,3,1,1,3,2,1,3,3,2,0,0,2,0,1,2,0,2,2,0,3,2,1,0,2,1,1,2,1,2,2,1,3,2,2,0,2,2,1,2,2,2,2,2,3,2,3,0,2,3,2,2,3,3,3,0,0,3,0,1,3,0,2,3,0,3,3,1,0,3,1,1,3,1,2,3,1,3,3,2,0,3,2,1,3,2,2,3,2,3,3,3,0,3,3,1,3,3,2,3,3,3,0,0,0,0,0,2,0,1,0,0,1,2,0,2,0,0,2,2,0,3,0,0,3,2,1,0,0,1,0,2,1,1,0,1,1,2,1,2,0,1,2,2,1,3,0,1,3,2,2,0,0,2,0,2,2,1,0,2,1,2,2,2,0,2,2,2,2,3,0,2,3,2,3,0,0,3,0,2,3,1,0,3,2,0,3,2,2,3,3,0,3,3,2,0,0,0,0,0,1,0,0,2,0,0,3,0,1,0,0,1,1,0,1,2,0,1,3,0,2,0,0,2,1,0,2,2,0,2,3,0,3,0,0,3,1,0,3,2,0,3,3,1,0,0,1,0,1,1,0,2,1,0,3,1,1,0,1,1,1,1,1,2,1,1,3,1,2,0,1,2,1,1,2,2,1,2,3,1,3,0,1,3,1,1,3,2,1,3,3,2,0,0,2,0,1,2,0,2,2,0,3,2,1,0,2,1,1,2,1,2,2,1,3,2,2,0,2,2,1,2,2,2,2,2,3,2,3,0,2,3,2,2,3,3,3,0,0,3,0,1,3,0,2,3,0,3,3,1,0,3,1,1,3,1,2,3,1,3,3,2,0,3,2,1,3,2,2,3,2,3,3,3,0,3,3,1,3,3,2,3,3,3,0,0,0,0,0,2,0,13,0,0,13,2,13,0,0,13,0,2,13,13,0,0,0,0,0,0,1,0,0,2,0,0,3,0,1,0,0,1,1,0,1,2,0,1,3,0,2,0,0,2,1,0,2,2,0,2,3,0,3,0,0,3,1,0,3,2,0,3,3,1,0,0,1,0,1,1,0,2,1,0,3,1,1,0,1,1,1,1,1,2,1,1,3,1,2,0,1,2,1,1,2,2,1,2,3,1,3,0,1,3,1,1,3,2,1,3,3,2,0,0,2,0,1,2,0,2,2,0,3,2,1,0,2,1,1,2,1,2,2,1,3,2,2,0,2,2,1,2,2,2,2,2,3,2,3,0,2,3,1,2,3,2,2,3,3,3,0,0,3,0,1,3,0,2,3,0,3,3,1,0,3,1,1,3,1,2,3,1,3,3,2,0,3,2,2,3,2,3,3,3,0,3,3,1,3,3,2,3,3,3,0,0,0,0,0,1,0,0,2,0,0,3,0,1,0,0,1,1,0,1,2,0,1,3,0,2,0,0,2,1,0,2,2,0,2,3,0,3,0,0,3,1,0,3,2,0,3,3,1,0,0,1,0,1,1,0,2,1,0,3,1,1,0,1,1,1,1,1,2,1,1,3,1,2,0,1,2,1,1,2,2,1,2,3,1,3,0,1,3,1,1,3,2,1,3,3,2,0,0,2,0,1,2,0,2,2,0,3,2,1,0,2,1,1,2,1,2,2,2,0,2,2,1,2,2,2,2,2,3,2,3,0,2,3,1,2,3,2,2,3,3,3,0,0,3,0,1,3,0,2,3,0,3,3,1,0,3,1,1,3,1,2,3,1,3,3,2,0,3,2,1,3,2,2,3,2,3,3,3,0,3,3,1,3,3,2,3,3,3,0,0,0,0,0,1,0,0,2,0,0,3,0,1,0,0,1,1,0,1,2,0,1,3,0,2,0,0,2,1,0,2,2,0,2,3,0,3,0,0,3,1,0,3,2,0,3,3,1,0,0,1,0,1,1,0,2,1,0,3,1,1,0,1,1,1,1,1,2,1,1,3,1,2,0,1,2,1,1,2,2,1,2,3,1,3,0,1,3,1,1,3,2,1,3,3,2,0,0,2,0,1,2,0,2,2,0,3,2,1,0,2,1,1,2,1,2,2,2,0,2,2,1,2,2,2,2,2,3,2,3,0,2,3,1,2,3,2,2,3,3,3,0,0,3,0,1,3,0,2,3,0,3,3,1,0,3,1,1,3,1,2,3,1,3,3,2,0,3,2,1,3,2,2,3,2,3,3,3,0,3,3,1,3,3,2,3,3,3,0,0,0,0,0,2,0,13,0,0,13,2,1,0,0,1,0,2,1,13,0,2,0,0,2,0,2,2,13,0,2,13,2,3,0,0,3,0,2,3,13,0,3,13,2,0,0,0,0,0,1,0,0,2,0,0,3,0,2,0,0,2,1,0,2,2,0,2,3,1,0,0,1,0,1,1,0,2,1,0,3,1,2,0,1,2,1,1,2,2,1,2,3,2,0,0,2,0,1,2,0,2,2,0,3,2,2,0,2,2,1,2,2,2,2,2,3,3,0,0,3,0,1,3,0,2,3,0,3,3,2,0,3,2,2,3,2,3,0,0,0,0,0,1,0,0,2,0,0,3,0,1,0,0,1,1,0,1,2,0,1,3,0,2,0,0,2,1,0,2,2,0,2,3,0,3,0,0,3,1,0,3,2,0,3,3,1,0,0,1,0,1,1,0,2,1,0,3,1,1,0,1,1,1,1,1,2,1,1,3,1,2,0,1,2,1,1,2,2,1,2,3,1,3,0,1,3,1,1,3,2,1,3,3,2,0,0,2,0,1,2,0,2,2,0,3,2,1,0,2,1,1,2,1,2,2,1,3,2,2,0,2,2,1,2,2,2,2,2,3,2,3,0,2,3,2,2,3,3,3,0,0,3,0,1,3,0,2,3,0,3,3,1,0,3,1,1,3,1,2,3,1,3,3,2,0,3,2,1,3,2,2,3,2,3,3,3,0,3,3,1,3,3,2,3,3,3,0,0,0,0,0,2,0,13,0,0,13,2,1,0,0,1,0,2,1,13,0,2,0,0,2,0,2,2,13,0,2,13,2,3,0,0,3,0,2,3,13,0,3,13,2,0,0,0,0,0,1,0,0,2,0,0,3,0,2,0,0,2,1,0,2,2,0,2,3,1,0,0,1,0,1,1,0,2,1,0,3,1,2,0,1,2,1,1,2,2,1,2,3,2,0,0,2,0,1,2,0,2,2,0,3,2,2,0,2,2,1,2,2,2,2,2,3,3,0,0,3,0,1,3,0,2,3,0,3,3,2,0,3,2,2,3,2,3,0,0,0,0,0,1,0,0,2,0,0,3,0,1,0,0,1,1,0,1,2,0,1,3,0,2,0,0,2,1,0,2,2,0,2,3,0,3,0,0,3,1,0,3,2,0,3,3,1,0,0,1,0,1,1,0,2,1,0,3,1,1,0,1,1,1,1,1,2,1,1,3,1,2,0,1,2,1,1,2,2,1,2,3,1,3,0,1,3,1,1,3,2,1,3,3,2,0,0,2,0,1,2,0,2,2,0,3,2,1,0,2,1,1,2,1,2,2,1,3,2,2,0,2,2,1,2,2,2,2,2,3,2,3,0,2,3,2,2,3,3,3,0,0,3,0,1,3,0,2,3,0,3,3,1,0,3,1,1,3,1,2,3,1,3,3,2,0,3,2,1,3,2,2,3,2,3,3,3,0,3,3,1,3,3,2,3,3,3,0,0,0,0,0,2,0,13,0,0,13,2,1,0,0,1,0,2,1,13,0,2,0,0,2,0,2,2,13,0,2,13,2,3,0,0,3,0,2,3,13,0,3,13,2,0,0,0,0,0,1,0,0,2,0,0,3,0,1,0,0,1,1,0,1,2,0,1,3,0,2,0,0,2,1,0,2,2,0,2,3,0,3,0,0,3,1,0,3,2,0,3,3,1,0,0,1,0,1,1,0,2,1,0,3,1,1,0,1,1,1,1,1,2,1,1,3,1,2,0,1,2,1,1,2,2,1,2,3,1,3,0,1,3,1,1,3,2,1,3,3,2,0,0,2,0,1,2,0,2,2,0,3,2,1,0,2,1,1,2,1,2,2,1,3,2,2,0,2,2,1,2,2,2,2,2,3,2,3,0,2,3,2,2,3,3,3,0,0,3,0,1,3,0,2,3,0,3,3,1,0,3,1,1,3,1,2,3,1,3,3,2,0,3,2,1,3,2,2,3,2,3,3,3,0,3,3,1,3,3,2,3,3,3,0,0,0,0,0,1,0,0,2,0,0,3,0,1,0,0,1,1,0,1,2,0,1,3,0,2,0,0,2,1,0,2,2,0,2,3,0,3,0,0,3,1,0,3,2,0,3,3,1,0,0,1,0,1,1,0,2,1,0,3,1,1,0,1,1,1,1,1,2,1,1,3,1,2,0,1,2,1,1,2,2,1,2,3,1,3,0,1,3,1,1,3,3,2,0,0,2,0,1,2,0,2,2,0,3,2,1,0,2,1,1,2,1,2,2,1,3,2,2,0,2,2,1,2,2,2,2,2,3,2,3,0,2,3,1,2,3,2,2,3,3,3,0,0,3,0,1,3,0,2,3,0,3,3,1,0,3,1,1,3,1,2,3,1,3,3,2,0,3,2,1,3,2,2,3,2,3,3,3,0,3,3,1,3,3,2,3,3,3,0,0,0,0,0,1,0,0,2,0,0,3,0,2,0,0,2,1,0,2,2,0,2,3,1,0,0,1,0,1,1,0,2,1,0,3,1,2,0,1,2,1,1,2,2,1,2,3,2,0,0,2,0,1,2,0,2,2,0,3,2,2,0,2,2,1,2,2,2,2,2,3,3,0,0,3,0,1,3,0,2,3,0,3,3,2,0,3,2,2,3,2,3,0,0,0,0,0,1,0,0,2,0,0,3,0,1,0,0,1,1,0,1,2,0,1,3,0,2,0,0,2,1,0,2,2,0,2,3,0,3,0,0,3,1,0,3,2,0,3,3,1,0,0,1,0,1,1,0,2,1,0,3,1,1,0,1,1,1,1,1,2,1,1,3,1,2,0,1,2,1,1,2,2,1,2,3,1,3,0,1,3,1,1,3,2,1,3,3,2,0,0,2,0,1,2,0,2,2,0,3,2,1,0,2,1,1,2,1,2,2,1,3,2,2,0,2,2,1,2,2,2,2,2,3,2,3,0,2,3,2,2,3,3,3,0,0,3,0,1,3,0,2,3,0,3,3,1,0,3,1,1,3,1,2,3,1,3,3,2,0,3,2,1,3,2,2,3,2,3,3,3,0,3,3,1,3,3,2,3,3,3,0,0,0,0,0,1,0,0,2,0,0,3,0,1,0,0,1,1,0,1,2,0,1,3,0,2,0,0,2,1,0,2,2,0,2,3,0,3,0,0,3,1,0,3,2,0,3,3,1,0,0,1,0,1,1,0,2,1,0,3,1,1,0,1,1,1,1,1,2,1,1,3,1,2,0,1,2,1,1,2,2,1,2,3,1,3,0,1,3,1,1,3,2,1,3,3,2,0,0,2,0,1,2,0,2,2,0,3,2,1,0,2,1,1,2,1,2,2,1,3,2,2,0,2,2,1,2,2,2,2,2,3,2,3,0,2,3,1,2,3,2,2,3,3,3,0,0,3,0,1,3,0,2,3,0,3,3,1,0,3,1,1,3,1,3,3,2,0,3,2,1,3,2,2,3,2,3,3,3,0,3,3,1,3,3,2,3,3,3,0,0,0,0,0,1,0,0,2,0,0,3,0,1,0,0,1,1,0,1,2,0,1,3,0,2,0,0,2,1,0,2,2,0,2,3,0,3,0,0,3,1,0,3,2,0,3,3,1,0,0,1,0,1,1,0,2,1,0,3,1,1,0,1,1,1,1,1,2,1,1,3,1,2,0,1,2,1,1,2,2,1,2,3,1,3,0,1,3,1,1,3,2,1,3,3,2,0,0,2,0,1,2,0,2,2,0,3,2,1,0,2,1,1,2,1,2,2,1,3,2,2,0,2,2,1,2,2,2,2,2,3,2,3,0,2,3,2,2,3,3,3,0,0,3,0,1,3,0,2,3,0,3,3,1,0,3,1,1,3,1,2,3,1,3,3,2,0,3,2,1,3,2,2,3,2,3,3,3,0,3,3,1,3,3,2,3,3,3,0,0,0,0,0,1,0,0,2,0,0,3,0,1,0,0,1,1,0,1,2,0,1,3,0,2,0,0,2,1,0,2,2,0,2,3,0,3,0,0,3,1,0,3,2,0,3,3,1,0,0,1,0,1,1,0,2,1,0,3,1,1,0,1,1,1,1,1,2,1,1,3,1,2,0,1,2,1,1,2,2,1,2,3,1,3,0,1,3,1,1,3,2,1,3,3,2,0,0,2,0,1,2,0,2,2,0,3,2,1,0,2,1,1,2,1,2,2,1,3,2,2,0,2,2,1,2,2,2,2,2,3,2,3,0,2,3,2,2,3,3,3,0,0,3,0,1,3,0,2,3,0,3,3,1,0,3,1,1,3,1,2,3,1,3,3,2,0,3,2,1,3,2,2,3,2,3,3,3,0,3,3,1,3,3,2,3,3,3,0,0,0,0,0,1,0,0,2,0,0,3,0,1,0,0,1,1,0,1,2,0,1,3,0,2,0,0,2,1,0,2,2,0,2,3,0,3,0,0,3,1,0,3,2,0,3,3,13,0,0,13,0,1,13,0,2,13,0,3,13,1,0,13,1,1,13,1,2,13,1,3,13,2,0,13,2,2,13,2,3,13,3,0,13,3,1,13,3,2,13,3,3,0,0,0,0,0,1,0,0,2,0,0,3,0,1,0,0,1,1,0,1,2,0,1,3,0,2,0,0,2,1,0,2,2,0,2,3,0,3,0,0,3,1,0,3,2,0,3,3,13,0,0,13,0,1,13,0,2,13,0,3,13,1,0,13,1,1,13,1,2,13,1,3,13,2,0,13,2,2,13,2,3,13,3,0,13,3,1,13,3,2,13,3,3,0,0,0,0,0,1,0,0,2,0,0,3,0,1,0,0,1,1,0,1,2,0,1,3,0,2,0,0,2,1,0,2,2,0,2,3,0,3,0,0,3,1,0,3,2,0,3,3,1,0,0,1,0,1,1,0,2,1,0,3,1,1,0,1,1,1,1,1,2,1,1,3,1,2,0,1,2,1,1,2,2,1,2,3,1,3,0,1,3,1,1,3,2,1,3,3,2,0,0,2,0,1,2,0,2,2,0,3,2,1,0,2,1,1,2,1,2,2,1,3,2,2,0,2,2,1,2,2,2,2,2,3,2,3,0,2,3,2,2,3,3,3,0,0,3,0,1,3,0,2,3,0,3,3,1,0,3,1,1,3,1,2,3,1,3,3,2,0,3,2,1,3,2,2,3,2,3,3,3,0,3,3,1,3,3,2,3,3,3,0,0,0,0,0,1,0,0,2,0,0,3,0,1,0,0,1,1,0,1,2,0,1,3,0,2,0,0,2,1,0,2,2,0,2,3,0,3,0,0,3,1,0,3,2,0,3,3,1,0,0,1,0,1,1,0,2,1,0,3,1,1,0,1,1,1,1,1,2,1,1,3,1,2,0,1,2,1,1,2,2,1,2,3,1,3,0,1,3,1,1,3,2,1,3,3,2,0,0,2,0,1,2,0,2,2,0,3,2,1,0,2,1,1,2,1,2,2,1,3,2,2,0,2,2,1,2,2,2,2,2,3,2,3,0,2,3,2,2,3,3,3,0,0,3,0,1,3,0,2,3,0,3,3,1,0,3,1,1,3,1,2,3,1,3,3,2,0,3,2,1,3,2,2,3,2,3,3,3,0,3,3,1,3,3,2,3,3,3,0,0,0,0,0,1,0,0,2,0,0,3,0,1,0,0,1,1,0,1,2,0,1,3,0,2,0,0,2,1,0,2,2,0,2,3,0,3,0,0,3,1,0,3,2,0,3,3,1,0,0,1,0,1,1,0,2,1,0,3,1,1,0,1,1,1,1,1,2,1,1,3,1,2,0,1,2,1,1,2,2,1,2,3,1,3,0,1,3,1,1,3,2,1,3,3,2,0,0,2,0,1,2,0,2,2,0,3,2,1,0,2,1,1,2,1,2,2,1,3,2,2,0,2,2,1,2,2,2,2,2,3,2,3,0,2,3,1,2,3,2,2,3,3,3,0,0,3,0,1,3,0,2,3,0,3,3,1,0,3,1,1,3,1,3,3,2,0,3,2,1,3,2,2,3,2,3,3,3,0,3,3,1,3,3,2,3,3,3,0,0,0,0,0,1,0,0,2,0,0,3,0,1,0,0,1,1,0,1,2,0,1,3,0,2,0,0,2,1,0,2,2,0,2,3,0,3,0,0,3,1,0,3,2,0,3,3,13,0,0,13,0,1,13,0,2,13,0,3,13,1,0,13,1,1,13,1,2,13,1,3,13,2,0,13,2,2,13,2,3,13,3,0,13,3,1,13,3,2,13,3,3,0,0,0,0,0,1,0,0,2,0,0,3,0,1,0,0,1,1,0,1,2,0,1,3,0,2,0,0,2,1,0,2,2,0,2,3,0,3,0,0,3,1,0,3,2,0,3,3,13,0,0,13,0,1,13,0,2,13,0,3,13,1,0,13,1,1,13,1,2,13,1,3,13,2,0,13,2,2,13,2,3,13,3,0,13,3,1,13,3,2,13,3,3,0,0,0,0,0,1,0,0,2,0,0,3,0,1,0,0,1,1,0,1,2,0,1,3,0,2,0,0,2,1,0,2,2,0,2,3,0,3,0,0,3,1,0,3,2,0,3,3,1,0,0,1,0,1,1,0,2,1,0,3,1,1,0,1,1,1,1,1,2,1,1,3,1,2,0,1,2,1,1,2,2,1,2,3,1,3,0,1,3,1,1,3,2,1,3,3,2,0,0,2,0,1,2,0,2,2,0,3,2,1,0,2,1,1,2,1,2,2,2,0,2,2,1,2,2,2,2,2,3,2,3,0,2,3,1,2,3,2,2,3,3,3,0,0,3,0,1,3,0,2,3,0,3,3,1,0,3,1,1,3,1,2,3,1,3,3,2,0,3,2,1,3,2,2,3,2,3,3,3,0,3,3,1,3,3,2,3,3,3,0,0,0,0,0,1,0,0,2,0,0,3,0,1,0,0,1,1,0,1,2,0,1,3,0,2,0,0,2,1,0,2,2,0,2,3,0,3,0,0,3,1,0,3,2,0,3,3,1,0,0,1,0,1,1,0,2,1,0,3,1,1,0,1,1,1,1,1,2,1,1,3,1,2,0,1,2,1,1,2,2,1,2,3,1,3,0,1,3,1,1,3,2,1,3,3,2,0,0,2,0,1,2,0,2,2,0,3,2,1,0,2,1,1,2,1,2,2,1,3,2,2,0,2,2,1,2,2,2,2,2,3,2,3,0,2,3,2,2,3,3,3,0,0,3,0,1,3,0,2,3,0,3,3,1,0,3,1,1,3,1,2,3,1,3,3,2,0,3,2,1,3,2,2,3,2,3,3,3,0,3,3,1,3,3,2,3,3,3,0,0,0,0,0,1,0,0,2,0,0,3,0,1,0,0,1,1,0,1,2,0,1,3,0,2,0,0,2,1,0,2,2,0,2,3,0,3,0,0,3,1,0,3,2,0,3,3,1,0,0,1,0,1,1,0,2,1,0,3,1,1,0,1,1,1,1,1,2,1,1,3,1,2,0,1,2,1,1,2,2,1,2,3,1,3,0,1,3,1,1,3,2,1,3,3,2,0,0,2,0,1,2,0,2,2,0,3,2,1,0,2,1,1,2,1,2,2,1,3,2,2,0,2,2,1,2,2,2,2,2,3,2,3,0,2,3,1,2,3,2,2,3,3,3,0,0,3,0,1,3,0,2,3,0,3,3,1,0,3,1,1,3,1,2,3,1,3,3,2,0,3,2,2,3,2,3,3,3,0,3,3,1,3,3,2,3,3,3,0,0,0,0,0,1,0,0,2,0,0,3,0,1,0,0,1,1,0,1,2,0,1,3,0,2,0,0,2,1,0,2,2,0,2,3,0,3,0,0,3,1,0,3,2,0,3,3,1,0,0,1,0,1,1,0,2,1,0,3,1,1,0,1,1,1,1,1,2,1,1,3,1,2,0,1,2,1,1,2,2,1,2,3,1,3,0,1,3,1,1,3,2,1,3,3,2,0,0,2,0,1,2,0,2,2,0,3,2,1,0,2,1,1,2,1,2,2,1,3,2,2,0,2,2,1,2,2,2,2,2,3,2,3,0,2,3,1,2,3,2,2,3,3,3,0,0,3,0,1,3,0,2,3,0,3,3,1,0,3,1,1,3,1,3,3,2,0,3,2,1,3,2,2,3,2,3,3,3,0,3,3,1,3,3,2,3,3,3,0,0,0,0,0,1,0,0,2,0,0,3,0,1,0,0,1,1,0,1,2,0,1,3,0,2,0,0,2,1,0,2,2,0,2,3,0,3,0,0,3,1,0,3,2,0,3,3,13,0,0,13,0,1,13,0,2,13,0,3,13,1,0,13,1,1,13,1,2,13,1,3,13,2,0,13,2,2,13,2,3,13,3,0,13,3,1,13,3,2,13,3,3,0,0,0,0,0,1,0,0,2,0,0,3,0,1,0,0,1,1,0,1,2,0,1,3,0,2,0,0,2,1,0,2,2,0,2,3,0,3,0,0,3,1,0,3,2,0,3,3,1,0,0,1,0,1,1,0,2,1,0,3,1,1,0,1,1,1,1,1,2,1,1,3,1,2,0,1,2,1,1,2,2,1,2,3,1,3,0,1,3,1,1,3,2,1,3,3,2,0,0,2,0,1,2,0,2,2,0,3,2,1,0,2,1,1,2,1,2,2,1,3,2,2,0,2,2,1,2,2,2,2,2,3,2,3,0,2,3,2,2,3,3,3,0,0,3,0,1,3,0,2,3,0,3,3,1,0,3,1,1,3,1,2,3,1,3,3,2,0,3,2,1,3,2,2,3,2,3,3,3,0,3,3,1,3,3,2,3,3,3,0,0,0,0,0,1,0,0,2,0,0,3,0,1,0,0,1,1,0,1,2,0,1,3,0,2,0,0,2,1,0,2,2,0,2,3,0,3,0,0,3,1,0,3,2,0,3,3,13,0,0,13,0,1,13,0,2,13,0,3,13,1,0,13,1,1,13,1,2,13,1,3,13,2,0,13,2,2,13,2,3,13,3,0,13,3,1,13,3,2,13,3,3,0,0,0,0,0,1,0,0,2,0,0,3,0,1,0,0,1,1,0,1,2,0,1,3,0,2,0,0,2,1,0,2,2,0,2,3,0,3,0,0,3,1,0,3,2,0,3,3,1,0,0,1,0,1,1,0,2,1,0,3,1,1,0,1,1,1,1,1,2,1,1,3,1,2,0,1,2,1,1,2,2,1,2,3,1,3,0,1,3,1,1,3,2,1,3,3,2,0,0,2,0,1,2,0,2,2,0,3,2,1,0,2,1,1,2,1,2,2,1,3,2,2,0,2,2,1,2,2,2,2,2,3,2,3,0,2,3,1,2,3,2,2,3,3,3,0,0,3,0,1,3,0,2,3,0,3,3,1,0,3,1,1,3,1,2,3,1,3,3,2,0,3,2,2,3,2,3,3,3,0,3,3,1,3,3,2,3,3,3,0,0,0,0,0,1,0,0,2,0,0,3,0,1,0,0,1,1,0,1,2,0,1,3,0,2,0,0,2,1,0,2,2,0,2,3,0,3,0,0,3,1,0,3,2,0,3,3,1,0,0,1,0,1,1,0,2,1,0,3,1,1,0,1,1,1,1,1,2,1,1,3,1,2,0,1,2,1,1,2,2,1,2,3,1,3,0,1,3,1,1,3,2,1,3,3,2,0,0,2,0,1,2,0,2,2,0,3,2,1,0,2,1,1,2,1,2,2,1,3,2,2,0,2,2,1,2,2,2,2,2,3,2,3,0,2,3,1,2,3,2,2,3,3,3,0,0,3,0,1,3,0,2,3,0,3,3,1,0,3,1,1,3,1,2,3,1,3,3,2,0,3,2,2,3,2,3,3,3,0,3,3,1,3,3,2,3,3,3,0,0,0,0,0,1,0,0,2,0,0,3,0,1,0,0,1,1,0,1,2,0,1,3,0,2,0,0,2,1,0,2,2,0,2,3,0,3,0,0,3,1,0,3,2,0,3,3,1,0,0,1,0,1,1,0,2,1,0,3,1,1,0,1,1,1,1,1,2,1,1,3,1,2,0,1,2,1,1,2,2,1,2,3,1,3,0,1,3,1,1,3,2,1,3,3,2,0,0,2,0,1,2,0,2,2,0,3,2,1,0,2,1,1,2,1,2,2,1,3,2,2,0,2,2,1,2,2,2,2,2,3,2,3,0,2,3,2,2,3,3,3,0,0,3,0,1,3,0,2,3,0,3,3,1,0,3,1,1,3,1,2,3,1,3,3,2,0,3,2,1,3,2,2,3,2,3,3,3,0,3,3,1,3,3,2,3,3,3,0,0,0,0,0,1,0,0,2,0,0,3,0,1,0,0,1,1,0,1,2,0,1,3,0,2,0,0,2,1,0,2,2,0,2,3,0,3,0,0,3,1,0,3,2,0,3,3,1,0,0,1,0,1,1,0,2,1,0,3,1,1,0,1,1,1,1,1,2,1,1,3,1,2,0,1,2,1,1,2,2,1,2,3,1,3,0,1,3,1,1,3,2,1,3,3,2,0,0,2,0,1,2,0,2,2,0,3,2,1,0,2,1,1,2,1,2,2,1,3,2,2,0,2,2,1,2,2,2,2,2,3,2,3,0,2,3,2,2,3,3,3,0,0,3,0,1,3,0,2,3,0,3,3,1,0,3,1,1,3,1,2,3,1,3,3,2,0,3,2,1,3,2,2,3,2,3,3,3,0,3,3,1,3,3,2,3,3,3,0,0,0,0,0,1,0,0,2,0,0,3,0,1,0,0,1,1,0,1,2,0,1,3,0,2,0,0,2,1,0,2,2,0,2,3,0,3,0,0,3,1,0,3,2,0,3,3,13,0,0,13,0,1,13,0,2,13,0,3,13,1,0,13,1,1,13,1,2,13,1,3,13,2,0,13,2,2,13,2,3,13,3,0,13,3,1,13,3,2,13,3,3,0,0,0,0,0,1,0,0,2,0,0,3,0,1,0,0,1,1,0,1,2,0,1,3,0,2,0,0,2,1,0,2,2,0,2,3,0,3,0,0,3,1,0,3,2,0,3,3,1,0,0,1,0,1,1,0,2,1,0,3,1,1,0,1,1,1,1,1,2,1,1,3,1,2,0,1,2,1,1,2,2,1,2,3,1,3,0,1,3,1,1,3,2,1,3,3,2,0,0,2,0,1,2,0,2,2,0,3,2,1,0,2,1,1,2,1,2,2,1,3,2,2,0,2,2,1,2,2,2,2,2,3,2,3,0,2,3,2,2,3,3,3,0,0,3,0,1,3,0,2,3,0,3,3,1,0,3,1,1,3,1,2,3,1,3,3,2,0,3,2,1,3,2,2,3,2,3,3,3,0,3,3,1,3,3,2,3,3,3,0,0,0,0,0,1,0,0,2,0,0,3,0,1,0,0,1,1,0,1,2,0,1,3,0,2,0,0,2,1,0,2,2,0,2,3,0,3,0,0,3,1,0,3,2,0,3,3,1,0,0,1,0,1,1,0,2,1,0,3,1,1,0,1,1,1,1,1,2,1,1,3,1,2,0,1,2,1,1,2,2,1,2,3,1,3,0,1,3,1,1,3,2,1,3,3,2,0,0,2,0,1,2,0,2,2,0,3,2,1,0,2,1,1,2,1,2,2,1,3,2,2,0,2,2,1,2,2,2,2,2,3,2,3,0,2,3,2,2,3,3,3,0,0,3,0,1,3,0,2,3,0,3,3,1,0,3,1,1,3,1,2,3,1,3,3,2,0,3,2,1,3,2,2,3,2,3,3,3,0,3,3,1,3,3,2,3,3,3,0,0,0,0,0,1,0,0,2,0,0,3,0,1,0,0,1,1,0,1,2,0,1,3,0,2,0,0,2,1,0,2,2,0,2,3,0,3,0,0,3,1,0,3,2,0,3,3,1,0,0,1,0,1,1,0,2,1,0,3,1,1,0,1,1,1,1,1,2,1,1,3,1,2,0,1,2,1,1,2,2,1,2,3,1,3,0,1,3,1,1,3,2,1,3,3,2,0,0,2,0,1,2,0,2,2,0,3,2,1,0,2,1,1,2,1,2,2,1,3,2,2,0,2,2,1,2,2,2,2,2,3,2,3,0,2,3,1,2,3,2,2,3,3,3,0,0,3,0,1,3,0,2,3,0,3,3,1,0,3,1,1,3,1,3,3,2,0,3,2,1,3,2,2,3,2,3,3,3,0,3,3,1,3,3,2,3,3,3,0,0,0,0,0,1,0,0,2,0,0,3,0,1,0,0,1,1,0,1,2,0,1,3,0,2,0,0,2,1,0,2,2,0,2,3,0,3,0,0,3,1,0,3,2,0,3,3,1,0,0,1,0,1,1,0,2,1,0,3,1,1,0,1,1,1,1,1,2,1,1,3,1,2,0,1,2,1,1,2,2,1,2,3,1,3,0,1,3,1,1,3,2,1,3,3,2,0,0,2,0,1,2,0,2,2,0,3,2,1,0,2,1,1,2,1,2,2,1,3,2,2,0,2,2,1,2,2,2,2,2,3,2,3,0,2,3,2,2,3,3,3,0,0,3,0,1,3,0,2,3,0,3,3,1,0,3,1,1,3,1,2,3,1,3,3,2,0,3,2,1,3,2,2,3,2,3,3,3,0,3,3,1,3,3,2,3,3,3,0,0,0,0,0,1,0,0,2,0,0,3,0,1,0,0,1,1,0,1,2,0,1,3,0,2,0,0,2,1,0,2,2,0,2,3,0,3,0,0,3,1,0,3,2,0,3,3,1,0,0,1,0,1,1,0,2,1,0,3,1,1,0,1,1,1,1,1,2,1,1,3,1,2,0,1,2,1,1,2,2,1,2,3,1,3,0,1,3,1,1,3,2,1,3,3,2,0,0,2,0,1,2,0,2,2,0,3,2,1,0,2,1,1,2,1,2,2,1,3,2,2,0,2,2,1,2,2,2,2,2,3,2,3,0,2,3,1,2,3,2,2,3,3,3,0,0,3,0,1,3,0,2,3,0,3,3,1,0,3,1,1,3,1,2,3,1,3,3,2,0,3,2,2,3,2,3,3,3,0,3,3,1,3,3,2,3,3,3,0,0,0,0,0,1,0,0,2,0,0,3,0,1,0,0,1,1,0,1,2,0,1,3,0,2,0,0,2,1,0,2,2,0,2,3,0,3,0,0,3,1,0,3,2,0,3,3,1,0,0,1,0,1,1,0,2,1,0,3,1,1,0,1,1,1,1,1,2,1,1,3,1,2,0,1,2,1,1,2,2,1,2,3,1,3,0,1,3,1,1,3,2,1,3,3,2,0,0,2,0,1,2,0,2,2,0,3,2,1,0,2,1,1,2,1,2,2,1,3,2,2,0,2,2,1,2,2,2,2,2,3,2,3,0,2,3,1,2,3,2,2,3,3,3,0,0,3,0,1,3,0,2,3,0,3,3,1,0,3,1,1,3,1,3,3,2,0,3,2,1,3,2,2,3,2,3,3,3,0,3,3,1,3,3,2,3,3,3,0,0,0,0,0,1,0,0,2,0,0,3,0,1,0,0,1,1,0,1,2,0,1,3,0,2,0,0,2,1,0,2,2,0,2,3,0,3,0,0,3,1,0,3,2,0,3,3,1,0,0,1,0,1,1,0,2,1,0,3,1,1,0,1,1,1,1,1,2,1,1,3,1,2,0,1,2,1,1,2,2,1,2,3,1,3,0,1,3,1,1,3,2,1,3,3,2,0,0,2,0,1,2,0,2,2,0,3,2,1,0,2,1,1,2,1,2,2,1,3,2,2,0,2,2,1,2,2,2,2,2,3,2,3,0,2,3,2,2,3,3,3,0,0,3,0,1,3,0,2,3,0,3,3,1,0,3,1,1,3,1,2,3,1,3,3,2,0,3,2,1,3,2,2,3,2,3,3,3,0,3,3,1,3,3,2,3,3,3,0,0,0,0,0,1,0,0,2,0,0,3,0,1,0,0,1,1,0,1,2,0,1,3,0,2,0,0,2,1,0,2,2,0,2,3,0,3,0,0,3,1,0,3,2,0,3,3,13,0,0,13,0,1,13,0,2,13,0,3,13,1,0,13,1,1,13,1,2,13,1,3,13,2,0,13,2,2,13,2,3,13,3,0,13,3,1,13,3,2,13,3,3,0,0,0,0,0,1,0,0,2,0,0,3,0,1,0,0,1,1,0,1,2,0,1,3,0,2,0,0,2,1,0,2,2,0,2,3,0,3,0,0,3,1,0,3,2,0,3,3,13,0,0,13,0,1,13,0,2,13,0,3,13,1,0,13,1,1,13,1,2,13,1,3,13,2,0,13,2,2,13,2,3,13,3,0,13,3,1,13,3,2,13,3,3,0,0,0,0,0,1,0,0,2,0,0,3,0,1,0,0,1,1,0,1,2,0,1,3,0,2,0,0,2,1,0,2,2,0,2,3,0,3,0,0,3,1,0,3,2,0,3,3,1,0,0,1,0,1,1,0,2,1,0,3,1,1,0,1,1,1,1,1,2,1,1,3,1,2,0,1,2,1,1,2,2,1,2,3,1,3,0,1,3,1,1,3,2,1,3,3,2,0,0,2,0,1,2,0,2,2,0,3,2,1,0,2,1,1,2,1,2,2,2,0,2,2,1,2,2,2,2,2,3,2,3,0,2,3,1,2,3,2,2,3,3,3,0,0,3,0,1,3,0,2,3,0,3,3,1,0,3,1,1,3,1,2,3,1,3,3,2,0,3,2,1,3,2,2,3,2,3,3,3,0,3,3,1,3,3,2,3,3,3,0,0,0,0,0,1,0,0,2,0,0,3,0,1,0,0,1,1,0,1,2,0,1,3,0,2,0,0,2,1,0,2,2,0,2,3,0,3,0,0,3,1,0,3,2,0,3,3,1,0,0,1,0,1,1,0,2,1,0,3,1,1,0,1,1,1,1,1,2,1,1,3,1,2,0,1,2,1,1,2,2,1,2,3,1,3,0,1,3,1,1,3,2,1,3,3,2,0,0,2,0,1,2,0,2,2,0,3,2,1,0,2,1,1,2,1,2,2,1,3,2,2,0,2,2,1,2,2,2,2,2,3,2,3,0,2,3,2,2,3,3,3,0,0,3,0,1,3,0,2,3,0,3,3,1,0,3,1,1,3,1,2,3,1,3,3,2,0,3,2,1,3,2,2,3,2,3,3,3,0,3,3,1,3,3,2,3,3,3,0,0,0,0,0,1,0,0,2,0,0,3,0,1,0,0,1,1,0,1,2,0,1,3,0,2,0,0,2,1,0,2,2,0,2,3,0,3,0,0,3,1,0,3,2,0,3,3,13,0,0,13,0,1,13,0,2,13,0,3,13,1,0,13,1,1,13,1,2,13,1,3,13,2,0,13,2,2,13,2,3,13,3,0,13,3,1,13,3,2,13,3,3,0,0,0,0,0,1,0,0,2,0,0,3,0,1,0,0,1,1,0,1,2,0,1,3,0,2,0,0,2,1,0,2,2,0,2,3,0,3,0,0,3,1,0,3,2,0,3,3,1,0,0,1,0,1,1,0,2,1,0,3,1,1,0,1,1,1,1,1,2,1,1,3,1,2,0,1,2,1,1,2,2,1,2,3,1,3,0,1,3,1,1,3,2,1,3,3,2,0,0,2,0,1,2,0,2,2,0,3,2,1,0,2,1,1,2,1,2,2,1,3,2,2,0,2,2,1,2,2,2,2,2,3,2,3,0,2,3,2,2,3,3,3,0,0,3,0,1,3,0,2,3,0,3,3,1,0,3,1,1,3,1,2,3,1,3,3,2,0,3,2,1,3,2,2,3,2,3,3,3,0,3,3,1,3,3,2,3,3,3,0,0,0,0,0,1,0,0,2,0,0,3,0,1,0,0,1,1,0,1,2,0,1,3,0,2,0,0,2,1,0,2,2,0,2,3,0,3,0,0,3,1,0,3,2,0,3,3,1,0,0,1,0,1,1,0,2,1,0,3,1,1,0,1,1,1,1,1,2,1,1,3,1,2,0,1,2,1,1,2,2,1,2,3,1,3,0,1,3,1,1,3,2,1,3,3,2,0,0,2,0,1,2,0,2,2,0,3,2,1,0,2,1,1,2,1,2,2,1,3,2,2,0,2,2,1,2,2,2,2,2,3,2,3,0,2,3,1,2,3,2,2,3,3,3,0,0,3,0,1,3,0,2,3,0,3,3,1,0,3,1,1,3,1,2,3,1,3,3,2,0,3,2,2,3,2,3,3,3,0,3,3,1,3,3,2,3,3,3,0,0,0,0,0,1,0,0,2,0,0,3,0,1,0,0,1,1,0,1,2,0,1,3,0,2,0,0,2,1,0,2,2,0,2,3,0,3,0,0,3,1,0,3,2,0,3,3,1,0,0,1,0,1,1,0,2,1,0,3,1,1,0,1,1,1,1,1,2,1,1,3,1,2,0,1,2,1,1,2,2,1,2,3,1,3,0,1,3,1,1,3,3,2,0,0,2,0,1,2,0,2,2,0,3,2,1,0,2,1,1,2,1,2,2,1,3,2,2,0,2,2,1,2,2,2,2,2,3,2,3,0,2,3,1,2,3,2,2,3,3,3,0,0,3,0,1,3,0,2,3,0,3,3,1,0,3,1,1,3,1,2,3,1,3,3,2,0,3,2,1,3,2,2,3,2,3,3,3,0,3,3,1,3,3,2,3,3,3,0,0,0,0,0,1,0,0,2,0,0,3,0,1,0,0,1,1,0,1,2,0,1,3,0,2,0,0,2,1,0,2,2,0,2,3,0,3,0,0,3,1,0,3,2,0,3,3,13,0,0,13,0,1,13,0,2,13,0,3,13,1,0,13,1,1,13,1,2,13,1,3,13,2,0,13,2,2,13,2,3,13,3,0,13,3,1,13,3,2,13,3,3,0,0,0,0,0,1,0,0,2,0,0,3,0,1,0,0,1,1,0,1,2,0,1,3,0,2,0,0,2,1,0,2,2,0,2,3,0,3,0,0,3,1,0,3,2,0,3,3,1,0,0,1,0,1,1,0,2,1,0,3,1,1,0,1,1,1,1,1,2,1,1,3,1,2,0,1,2,1,1,2,2,1,2,3,1,3,0,1,3,1,1,3,2,1,3,3,2,0,0,2,0,1,2,0,2,2,0,3,2,1,0,2,1,1,2,1,2,2,1,3,2,2,0,2,2,1,2,2,2,2,2,3,2,3,0,2,3,2,2,3,3,3,0,0,3,0,1,3,0,2,3,0,3,3,1,0,3,1,1,3,1,2,3,1,3,3,2,0,3,2,1,3,2,2,3,2,3,3,3,0,3,3,1,3,3,2,3,3,3,0,0,0,0,0,1,0,0,2,0,0,3,0,1,0,0,1,1,0,1,2,0,1,3,0,2,0,0,2,1,0,2,2,0,2,3,0,3,0,0,3,1,0,3,2,0,3,3,1,0,0,1,0,1,1,0,2,1,0,3,1,1,0,1,1,1,1,1,2,1,1,3,1,2,0,1,2,1,1,2,2,1,2,3,1,3,0,1,3,1,1,3,2,1,3,3,2,0,0,2,0,1,2,0,2,2,0,3,2,1,0,2,1,1,2,1,2,2,1,3,2,2,0,2,2,1,2,2,2,2,2,3,2,3,0,2,3,2,2,3,3,3,0,0,3,0,1,3,0,2,3,0,3,3,1,0,3,1,1,3,1,2,3,1,3,3,2,0,3,2,1,3,2,2,3,2,3,3,3,0,3,3,1,3,3,2,3,3,3,0,0,0,0,0,1,0,0,2,0,0,3,0,1,0,0,1,1,0,1,2,0,1,3,0,2,0,0,2,1,0,2,2,0,2,3,0,3,0,0,3,1,0,3,2,0,3,3,1,0,0,1,0,1,1,0,2,1,0,3,1,1,0,1,1,1,1,1,2,1,1,3,1,2,0,1,2,1,1,2,2,1,2,3,1,3,0,1,3,1,1,3,3,2,0,0,2,0,1,2,0,2,2,0,3,2,1,0,2,1,1,2,1,2,2,1,3,2,2,0,2,2,1,2,2,2,2,2,3,2,3,0,2,3,1,2,3,2,2,3,3,3,0,0,3,0,1,3,0,2,3,0,3,3,1,0,3,1,1,3,1,2,3,1,3,3,2,0,3,2,1,3,2,2,3,2,3,3,3,0,3,3,1,3,3,2,3,3,3,0,0,0,0,0,1,0,0,2,0,0,3,0,1,0,0,1,1,0,1,2,0,1,3,0,2,0,0,2,1,0,2,2,0,2,3,0,3,0,0,3,1,0,3,2,0,3,3,1,0,0,1,0,1,1,0,2,1,0,3,1,1,0,1,1,1,1,1,2,1,1,3,1,2,0,1,2,1,1,2,2,1,2,3,1,3,0,1,3,1,1,3,2,1,3,3,2,0,0,2,0,1,2,0,2,2,0,3,2,1,0,2,1,1,2,1,2,2,1,3,2,2,0,2,2,1,2,2,2,2,2,3,2,3,0,2,3,1,2,3,2,2,3,3,3,0,0,3,0,1,3,0,2,3,0,3,3,1,0,3,1,1,3,1,2,3,1,3,3,2,0,3,2,2,3,2,3,3,3,0,3,3,1,3,3,2,3,3,3,0,0,0,0,0,1,0,0,2,0,0,3,0,1,0,0,1,1,0,1,2,0,1,3,0,2,0,0,2,1,0,2,2,0,2,3,0,3,0,0,3,1,0,3,2,0,3,3,1,0,0,1,0,1,1,0,2,1,0,3,1,1,0,1,1,1,1,1,2,1,1,3,1,2,0,1,2,1,1,2,2,1,2,3,1,3,0,1,3,1,1,3,2,1,3,3,2,0,0,2,0,1,2,0,2,2,0,3,2,1,0,2,1,1,2,1,2,2,2,0,2,2,1,2,2,2,2,2,3,2,3,0,2,3,1,2,3,2,2,3,3,3,0,0,3,0,1,3,0,2,3,0,3,3,1,0,3,1,1,3,1,2,3,1,3,3,2,0,3,2,1,3,2,2,3,2,3,3,3,0,3,3,1,3,3,2,3,3,3,0,0,0,0,0,1,0,0,2,0,0,3,0,1,0,0,1,1,0,1,2,0,1,3,0,2,0,0,2,1,0,2,2,0,2,3,0,3,0,0,3,1,0,3,2,0,3,3,1,0,0,1,0,1,1,0,2,1,0,3,1,1,0,1,1,1,1,1,2,1,1,3,1,2,0,1,2,1,1,2,2,1,2,3,1,3,0,1,3,1,1,3,2,1,3,3,2,0,0,2,0,1,2,0,2,2,0,3,2,1,0,2,1,1,2,1,2,2,1,3,2,2,0,2,2,1,2,2,2,2,2,3,2,3,0,2,3,2,2,3,3,3,0,0,3,0,1,3,0,2,3,0,3,3,1,0,3,1,1,3,1,2,3,1,3,3,2,0,3,2,1,3,2,2,3,2,3,3,3,0,3,3,1,3,3,2,3,3,3,0,0,0,0,0,1,0,0,2,0,0,3,0,1,0,0,1,1,0,1,2,0,1,3,0,2,0,0,2,1,0,2,2,0,2,3,0,3,0,0,3,1,0,3,2,0,3,3,1,0,0,1,0,1,1,0,2,1,0,3,1,1,0,1,1,1,1,1,2,1,1,3,1,2,0,1,2,1,1,2,2,1,2,3,1,3,0,1,3,1,1,3,3,2,0,0,2,0,1,2,0,2,2,0,3,2,1,0,2,1,1,2,1,2,2,1,3,2,2,0,2,2,1,2,2,2,2,2,3,2,3,0,2,3,1,2,3,2,2,3,3,3,0,0,3,0,1,3,0,2,3,0,3,3,1,0,3,1,1,3,1,2,3,1,3,3,2,0,3,2,1,3,2,2,3,2,3,3,3,0,3,3,1,3,3,2,3,3,3,0,0,0,0,0,1,0,0,2,0,0,3,0,1,0,0,1,1,0,1,2,0,1,3,0,2,0,0,2,1,0,2,2,0,2,3,0,3,0,0,3,1,0,3,2,0,3,3,1,0,0,1,0,1,1,0,2,1,0,3,1,1,0,1,1,1,1,1,2,1,1,3,1,2,0,1,2,1,1,2,2,1,2,3,1,3,0,1,3,1,1,3,2,1,3,3,2,0,0,2,0,1,2,0,2,2,0,3,2,1,0,2,1,1,2,1,2,2,1,3,2,2,0,2,2,1,2,2,2,2,2,3,2,3,0,2,3,2,2,3,3,3,0,0,3,0,1,3,0,2,3,0,3,3,1,0,3,1,1,3,1,2,3,1,3,3,2,0,3,2,1,3,2,2,3,2,3,3,3,0,3,3,1,3,3,2,3,3,3,0,0,0,0,0,1,0,0,2,0,0,3,0,1,0,0,1,1,0,1,2,0,1,3,0,2,0,0,2,1,0,2,2,0,2,3,0,3,0,0,3,1,0,3,2,0,3,3,1,0,0,1,0,1,1,0,2,1,0,3,1,1,0,1,1,1,1,1,2,1,1,3,1,2,0,1,2,1,1,2,2,1,2,3,1,3,0,1,3,1,1,3,2,1,3,3,2,0,0,2,0,1,2,0,2,2,0,3,2,1,0,2,1,1,2,1,2,2,1,3,2,2,0,2,2,1,2,2,2,2,2,3,2,3,0,2,3,2,2,3,3,3,0,0,3,0,1,3,0,2,3,0,3,3,1,0,3,1,1,3,1,2,3,1,3,3,2,0,3,2,1,3,2,2,3,2,3,3,3,0,3,3,1,3,3,2,3,3,3,0,0,0,0,0,1,0,0,2,0,0,3,0,1,0,0,1,1,0,1,2,0,1,3,0,2,0,0,2,1,0,2,2,0,2,3,0,3,0,0,3,1,0,3,2,0,3,3,1,0,0,1,0,1,1,0,2,1,0,3,1,1,0,1,1,1,1,1,2,1,1,3,1,2,0,1,2,1,1,2,2,1,2,3,1,3,0,1,3,1,1,3,2,1,3,3,2,0,0,2,0,1,2,0,2,2,0,3,2,1,0,2,1,1,2,1,2,2,1,3,2,2,0,2,2,1,2,2,2,2,2,3,2,3,0,2,3,2,2,3,3,3,0,0,3,0,1,3,0,2,3,0,3,3,1,0,3,1,1,3,1,2,3,1,3,3,2,0,3,2,1,3,2,2,3,2,3,3,3,0,3,3,1,3,3,2,3,3,3,0,0,0,0,0,1,0,0,2,0,0,3,0,1,0,0,1,1,0,1,2,0,1,3,0,2,0,0,2,1,0,2,2,0,2,3,0,3,0,0,3,1,0,3,2,0,3,3,1,0,0,1,0,1,1,0,2,1,0,3,1,1,0,1,1,1,1,1,2,1,1,3,1,2,0,1,2,1,1,2,2,1,2,3,1,3,0,1,3,1,1,3,2,1,3,3,2,0,0,2,0,1,2,0,2,2,0,3,2,1,0,2,1,1,2,1,2,2,1,3,2,2,0,2,2,1,2,2,2,2,2,3,2,3,0,2,3,1,2,3,2,2,3,3,3,0,0,3,0,1,3,0,2,3,0,3,3,1,0,3,1,1,3,1,3,3,2,0,3,2,1,3,2,2,3,2,3,3,3,0,3,3,1,3,3,2,3,3,3,0,0,0,0,0,1,0,0,2,0,0,3,0,1,0,0,1,1,0,1,2,0,1,3,0,2,0,0,2,1,0,2,2,0,2,3,0,3,0,0,3,1,0,3,2,0,3,3,13,0,0,13,0,1,13,0,2,13,0,3,13,1,0,13,1,1,13,1,2,13,1,3,13,2,0,13,2,2,13,2,3,13,3,0,13,3,1,13,3,2,13,3,3,0,0,0,0,0,1,0,0,2,0,0,3,0,1,0,0,1,1,0,1,2,0,1,3,0,2,0,0,2,1,0,2,2,0,2,3,0,3,0,0,3,1,0,3,2,0,3,3,1,0,0,1,0,1,1,0,2,1,0,3,1,1,0,1,1,1,1,1,2,1,1,3,1,2,0,1,2,1,1,2,2,1,2,3,1,3,0,1,3,1,1,3,2,1,3,3,2,0,0,2,0,1,2,0,2,2,0,3,2,1,0,2,1,1,2,1,2,2,1,3,2,2,0,2,2,1,2,2,2,2,2,3,2,3,0,2,3,2,2,3,3,3,0,0,3,0,1,3,0,2,3,0,3,3,1,0,3,1,1,3,1,2,3,1,3,3,2,0,3,2,1,3,2,2,3,2,3,3,3,0,3,3,1,3,3,2,3,3,3,0,0,0,0,0,1,0,0,2,0,0,3,0,1,0,0,1,1,0,1,2,0,1,3,0,2,0,0,2,1,0,2,2,0,2,3,0,3,0,0,3,1,0,3,2,0,3,3,1,0,0,1,0,1,1,0,2,1,0,3,1,1,0,1,1,1,1,1,2,1,1,3,1,2,0,1,2,1,1,2,2,1,2,3,1,3,0,1,3,1,1,3,2,1,3,3,2,0,0,2,0,1,2,0,2,2,0,3,2,1,0,2,1,1,2,1,2,2,2,0,2,2,1,2,2,2,2,2,3,2,3,0,2,3,1,2,3,2,2,3,3,3,0,0,3,0,1,3,0,2,3,0,3,3,1,0,3,1,1,3,1,2,3,1,3,3,2,0,3,2,1,3,2,2,3,2,3,3,3,0,3,3,1,3,3,2,3,3,3,0,0,0,0,0,1,0,0,2,0,0,3,0,1,0,0,1,1,0,1,2,0,1,3,0,2,0,0,2,1,0,2,2,0,2,3,0,3,0,0,3,1,0,3,2,0,3,3,1,0,0,1,0,1,1,0,2,1,0,3,1,1,0,1,1,1,1,1,2,1,1,3,1,2,0,1,2,1,1,2,2,1,2,3,1,3,0,1,3,1,1,3,2,1,3,3,2,0,0,2,0,1,2,0,2,2,0,3,2,1,0,2,1,1,2,1,2,2,1,3,2,2,0,2,2,1,2,2,2,2,2,3,2,3,0,2,3,2,2,3,3,3,0,0,3,0,1,3,0,2,3,0,3,3,1,0,3,1,1,3,1,2,3,1,3,3,2,0,3,2,1,3,2,2,3,2,3,3,3,0,3,3,1,3,3,2,3,3,3,0,0,0,0,0,1,0,0,2,0,0,3,0,1,0,0,1,1,0,1,2,0,1,3,0,2,0,0,2,1,0,2,2,0,2,3,0,3,0,0,3,1,0,3,2,0,3,3,1,0,0,1,0,1,1,0,2,1,0,3,1,1,0,1,1,1,1,1,2,1,1,3,1,2,0,1,2,1,1,2,2,1,2,3,1,3,0,1,3,1,1,3,2,1,3,3,2,0,0,2,0,1,2,0,2,2,0,3,2,1,0,2,1,1,2,1,2,2,1,3,2,2,0,2,2,1,2,2,2,2,2,3,2,3,0,2,3,2,2,3,3,3,0,0,3,0,1,3,0,2,3,0,3,3,1,0,3,1,1,3,1,2,3,1,3,3,2,0,3,2,1,3,2,2,3,2,3,3,3,0,3,3,1,3,3,2,3,3,3,0,0,0,0,0,1,0,0,2,0,0,3,0,1,0,0,1,1,0,1,2,0,1,3,0,2,0,0,2,1,0,2,2,0,2,3,0,3,0,0,3,1,0,3,2,0,3,3,1,0,0,1,0,1,1,0,2,1,0,3,1,1,0,1,1,1,1,1,2,1,1,3,1,2,0,1,2,1,1,2,2,1,2,3,1,3,0,1,3,1,1,3,2,1,3,3,2,0,0,2,0,1,2,0,2,2,0,3,2,1,0,2,1,1,2,1,2,2,1,3,2,2,0,2,2,1,2,2,2,2,2,3,2,3,0,2,3,2,2,3,3,3,0,0,3,0,1,3,0,2,3,0,3,3,1,0,3,1,1,3,1,2,3,1,3,3,2,0,3,2,1,3,2,2,3,2,3,3,3,0,3,3,1,3,3,2,3,3,3,0,0,0,0,0,1,0,0,2,0,0,3,0,1,0,0,1,1,0,1,2,0,1,3,0,2,0,0,2,1,0,2,2,0,2,3,0,3,0,0,3,1,0,3,2,0,3,3,1,0,0,1,0,1,1,0,2,1,0,3,1,1,0,1,1,1,1,1,2,1,1,3,1,2,0,1,2,1,1,2,2,1,2,3,1,3,0,1,3,1,1,3,2,1,3,3,2,0,0,2,0,1,2,0,2,2,0,3,2,1,0,2,1,1,2,1,2,2,1,3,2,2,0,2,2,1,2,2,2,2,2,3,2,3,0,2,3,2,2,3,3,3,0,0,3,0,1,3,0,2,3,0,3,3,1,0,3,1,1,3,1,2,3,1,3,3,2,0,3,2,1,3,2,2,3,2,3,3,3,0,3,3,1,3,3,2,3,3,3,0,0,0,0,0,1,0,0,2,0,0,3,0,1,0,0,1,1,0,1,2,0,1,3,0,2,0,0,2,1,0,2,2,0,2,3,0,3,0,0,3,1,0,3,2,0,3,3,13,0,0,13,0,1,13,0,2,13,0,3,13,1,0,13,1,1,13,1,2,13,1,3,13,2,0,13,2,2,13,2,3,13,3,0,13,3,1,13,3,2,13,3,3,0,0,0,0,0,1,0,0,2,0,0,3,0,1,0,0,1,1,0,1,2,0,1,3,0,2,0,0,2,1,0,2,2,0,2,3,0,3,0,0,3,1,0,3,2,0,3,3,1,0,0,1,0,1,1,0,2,1,0,3,1,1,0,1,1,1,1,1,2,1,1,3,1,2,0,1,2,1,1,2,2,1,3,0,1,3,1,1,3,2,1,3,3,2,0,0,2,0,1,2,0,2,2,0,3,2,1,0,2,1,1,2,1,2,2,1,3,2,2,0,2,2,1,2,2,2,2,2,3,2,3,0,2,3,1,2,3,2,2,3,3,3,0,0,3,0,1,3,0,2,3,0,3,3,1,0,3,1,1,3,1,2,3,1,3,3,2,0,3,2,1,3,2,2,3,2,3,3,3,0,3,3,1,3,3,2,3,3,3,0,0,0,0,0,1,0,0,2,0,0,3,0,1,0,0,1,1,0,1,2,0,1,3,0,2,0,0,2,1,0,2,2,0,2,3,0,3,0,0,3,1,0,3,2,0,3,3,1,0,0,1,0,1,1,0,2,1,0,3,1,1,0,1,1,1,1,1,2,1,1,3,1,2,0,1,2,1,1,2,2,1,2,3,1,3,0,1,3,1,1,3,3,2,0,0,2,0,1,2,0,2,2,0,3,2,1,0,2,1,1,2,1,2,2,1,3,2,2,0,2,2,1,2,2,2,2,2,3,2,3,0,2,3,1,2,3,2,2,3,3,3,0,0,3,0,1,3,0,2,3,0,3,3,1,0,3,1,1,3,1,2,3,1,3,3,2,0,3,2,1,3,2,2,3,2,3,3,3,0,3,3,1,3,3,2,3,3,3,0,0,0,0,0,1,0,0,2,0,0,3,0,1,0,0,1,1,0,1,2,0,1,3,0,2,0,0,2,1,0,2,2,0,2,3,0,3,0,0,3,1,0,3,2,0,3,3,13,0,0,13,0,1,13,0,2,13,0,3,13,1,0,13,1,1,13,1,2,13,1,3,13,2,0,13,2,2,13,2,3,13,3,0,13,3,1,13,3,2,13,3,3,0,0,0,0,0,1,0,0,2,0,0,3,0,1,0,0,1,1,0,1,2,0,1,3,0,2,0,0,2,1,0,2,2,0,2,3,0,3,0,0,3,1,0,3,2,0,3,3,1,0,0,1,0,1,1,0,2,1,0,3,1,1,0,1,1,1,1,1,2,1,1,3,1,2,0,1,2,1,1,2,2,1,2,3,1,3,0,1,3,1,1,3,2,1,3,3,2,0,0,2,0,1,2,0,2,2,0,3,2,1,0,2,1,1,2,1,2,2,2,0,2,2,1,2,2,2,2,2,3,2,3,0,2,3,1,2,3,2,2,3,3,3,0,0,3,0,1,3,0,2,3,0,3,3,1,0,3,1,1,3,1,2,3,1,3,3,2,0,3,2,1,3,2,2,3,2,3,3,3,0,3,3,1,3,3,2,3,3,3,0,0,0,0,0,1,0,0,2,0,0,3,0,1,0,0,1,1,0,1,2,0,1,3,0,2,0,0,2,1,0,2,2,0,2,3,0,3,0,0,3,1,0,3,2,0,3,3,1,0,0,1,0,1,1,0,2,1,0,3,1,1,0,1,1,1,1,1,2,1,1,3,1,2,0,1,2,1,1,2,2,1,2,3,1,3,0,1,3,1,1,3,2,1,3,3,2,0,0,2,0,1,2,0,2,2,0,3,2,1,0,2,1,1,2,1,2,2,1,3,2,2,0,2,2,1,2,2,2,2,2,3,2,3,0,2,3,2,2,3,3,3,0,0,3,0,1,3,0,2,3,0,3,3,1,0,3,1,1,3,1,2,3,1,3,3,2,0,3,2,1,3,2,2,3,2,3,3,3,0,3,3,1,3,3,2,3,3,3,0,0,0,0,0,1,0,0,2,0,0,3,0,1,0,0,1,1,0,1,2,0,1,3,0,2,0,0,2,1,0,2,2,0,2,3,0,3,0,0,3,1,0,3,2,0,3,3,1,0,0,1,0,1,1,0,2,1,0,3,1,1,0,1,1,1,1,1,2,1,1,3,1,2,0,1,2,1,1,2,2,1,2,3,1,3,0,1,3,1,1,3,2,1,3,3,2,0,0,2,0,1,2,0,2,2,0,3,2,1,0,2,1,1,2,1,2,2,2,0,2,2,1,2,2,2,2,2,3,2,3,0,2,3,1,2,3,2,2,3,3,3,0,0,3,0,1,3,0,2,3,0,3,3,1,0,3,1,1,3,1,2,3,1,3,3,2,0,3,2,1,3,2,2,3,2,3,3,3,0,3,3,1,3,3,2,3,3,3,0,0,0,0,0,1,0,0,2,0,0,3,0,1,0,0,1,1,0,1,2,0,1,3,0,2,0,0,2,1,0,2,2,0,2,3,0,3,0,0,3,1,0,3,2,0,3,3,1,0,0,1,0,1,1,0,2,1,0,3,1,1,0,1,1,1,1,1,2,1,1,3,1,2,0,1,2,1,1,2,2,1,2,3,1,3,0,1,3,1,1,3,2,1,3,3,2,0,0,2,0,1,2,0,2,2,0,3,2,1,0,2,1,1,2,1,2,2,1,3,2,2,0,2,2,1,2,2,2,2,2,3,2,3,0,2,3,2,2,3,3,3,0,0,3,0,1,3,0,2,3,0,3,3,1,0,3,1,1,3,1,2,3,1,3,3,2,0,3,2,1,3,2,2,3,2,3,3,3,0,3,3,1,3,3,2,3,3,3,0,0,0,0,0,1,0,0,2,0,0,3,0,1,0,0,1,1,0,1,2,0,1,3,0,2,0,0,2,1,0,2,2,0,2,3,0,3,0,0,3,1,0,3,2,0,3,3,1,0,0,1,0,1,1,0,2,1,0,3,1,1,0,1,1,1,1,1,2,1,1,3,1,2,0,1,2,1,1,2,2,1,2,3,1,3,0,1,3,1,1,3,2,1,3,3,2,0,0,2,0,1,2,0,2,2,0,3,2,1,0,2,1,1,2,1,2,2,1,3,2,2,0,2,2,1,2,2,2,2,2,3,2,3,0,2,3,2,2,3,3,3,0,0,3,0,1,3,0,2,3,0,3,3,1,0,3,1,1,3,1,2,3,1,3,3,2,0,3,2,1,3,2,2,3,2,3,3,3,0,3,3,1,3,3,2,3,3,3,0,0,0,0,0,1,0,0,2,0,0,3,0,1,0,0,1,1,0,1,2,0,1,3,0,2,0,0,2,1,0,2,2,0,2,3,0,3,0,0,3,1,0,3,2,0,3,3,1,0,0,1,0,1,1,0,2,1,0,3,1,1,0,1,1,1,1,1,2,1,1,3,1,2,0,1,2,1,1,2,2,1,2,3,1,3,0,1,3,1,1,3,2,1,3,3,2,0,0,2,0,1,2,0,2,2,0,3,2,1,0,2,1,1,2,1,2,2,1,3,2,2,0,2,2,1,2,2,2,2,2,3,2,3,0,2,3,2,2,3,3,3,0,0,3,0,1,3,0,2,3,0,3,3,1,0,3,1,1,3,1,2,3,1,3,3,2,0,3,2,1,3,2,2,3,2,3,3,3,0,3,3,1,3,3,2,3,3,3,0,0,0,0,0,1,0,0,2,0,0,3,0,1,0,0,1,1,0,1,2,0,1,3,0,2,0,0,2,1,0,2,2,0,2,3,0,3,0,0,3,1,0,3,2,0,3,3,1,0,0,1,0,1,1,0,2,1,0,3,1,1,0,1,1,1,1,1,2,1,1,3,1,2,0,1,2,1,1,2,2,1,2,3,1,3,0,1,3,1,1,3,2,1,3,3,2,0,0,2,0,1,2,0,2,2,0,3,2,1,0,2,1,1,2,1,2,2,2,0,2,2,1,2,2,2,2,2,3,2,3,0,2,3,1,2,3,2,2,3,3,3,0,0,3,0,1,3,0,2,3,0,3,3,1,0,3,1,1,3,1,2,3,1,3,3,2,0,3,2,1,3,2,2,3,2,3,3,3,0,3,3,1,3,3,2,3,3,3,0,0,0,0,0,1,0,0,2,0,0,3,0,1,0,0,1,1,0,1,2,0,1,3,0,2,0,0,2,1,0,2,2,0,2,3,0,3,0,0,3,1,0,3,2,0,3,3,1,0,0,1,0,1,1,0,2,1,0,3,1,1,0,1,1,1,1,1,2,1,1,3,1,2,0,1,2,1,1,2,2,1,2,3,1,3,0,1,3,1,1,3,3,2,0,0,2,0,1,2,0,2,2,0,3,2,1,0,2,1,1,2,1,2,2,1,3,2,2,0,2,2,1,2,2,2,2,2,3,2,3,0,2,3,1,2,3,2,2,3,3,3,0,0,3,0,1,3,0,2,3,0,3,3,1,0,3,1,1,3,1,2,3,1,3,3,2,0,3,2,1,3,2,2,3,2,3,3,3,0,3,3,1,3,3,2,3,3,3,0,0,0,0,0,1,0,0,2,0,0,3,0,1,0,0,1,1,0,1,2,0,1,3,0,2,0,0,2,1,0,2,2,0,2,3,0,3,0,0,3,1,0,3,2,0,3,3,1,0,0,1,0,1,1,0,2,1,0,3,1,1,0,1,1,1,1,1,2,1,1,3,1,2,0,1,2,1,1,2,2,1,2,3,1,3,0,1,3,1,1,3,2,1,3,3,2,0,0,2,0,1,2,0,2,2,0,3,2,1,0,2,1,1,2,1,2,2,1,3,2,2,0,2,2,1,2,2,2,2,2,3,2,3,0,2,3,2,2,3,3,3,0,0,3,0,1,3,0,2,3,0,3,3,1,0,3,1,1,3,1,2,3,1,3,3,2,0,3,2,1,3,2,2,3,2,3,3,3,0,3,3,1,3,3,2,3,3,3,0,0,0,0,0,1,0,0,2,0,0,3,0,1,0,0,1,1,0,1,2,0,1,3,0,2,0,0,2,1,0,2,2,0,2,3,0,3,0,0,3,1,0,3,2,0,3,3,1,0,0,1,0,1,1,0,2,1,0,3,1,1,0,1,1,1,1,1,2,1,1,3,1,2,0,1,2,1,1,2,2,1,2,3,1,3,0,1,3,1,1,3,2,1,3,3,2,0,0,2,0,1,2,0,2,2,0,3,2,1,0,2,1,1,2,1,2,2,1,3,2,2,0,2,2,1,2,2,2,2,2,3,2,3,0,2,3,2,2,3,3,3,0,0,3,0,1,3,0,2,3,0,3,3,1,0,3,1,1,3,1,2,3,1,3,3,2,0,3,2,1,3,2,2,3,2,3,3,3,0,3,3,1,3,3,2,3,3,3,0,0,0,0,0,1,0,0,2,0,0,3,0,1,0,0,1,1,0,1,2,0,1,3,0,2,0,0,2,1,0,2,2,0,2,3,0,3,0,0,3,1,0,3,2,0,3,3,13,0,0,13,0,1,13,0,2,13,0,3,13,1,0,13,1,1,13,1,2,13,1,3,13,2,0,13,2,2,13,2,3,13,3,0,13,3,1,13,3,2,13,3,3,0,0,0,0,0,1,0,0,2,0,0,3,0,1,0,0,1,1,0,1,2,0,1,3,0,2,0,0,2,1,0,2,2,0,2,3,0,3,0,0,3,1,0,3,2,0,3,3,1,0,0,1,0,1,1,0,2,1,0,3,1,1,0,1,1,1,1,1,2,1,1,3,1,2,0,1,2,1,1,2,2,1,2,3,1,3,0,1,3,1,1,3,2,1,3,3,2,0,0,2,0,1,2,0,2,2,0,3,2,1,0,2,1,1,2,1,2,2,1,3,2,2,0,2,2,1,2,2,2,2,2,3,2,3,0,2,3,2,2,3,3,3,0,0,3,0,1,3,0,2,3,0,3,3,1,0,3,1,1,3,1,2,3,1,3,3,2,0,3,2,1,3,2,2,3,2,3,3,3,0,3,3,1,3,3,2,3,3,3,0,0,0,0,0,1,0,0,2,0,0,3,0,1,0,0,1,1,0,1,2,0,1,3,0,2,0,0,2,1,0,2,2,0,2,3,0,3,0,0,3,1,0,3,2,0,3,3,1,0,0,1,0,1,1,0,2,1,0,3,1,1,0,1,1,1,1,1,2,1,1,3,1,2,0,1,2,1,1,2,2,1,2,3,1,3,0,1,3,1,1,3,3,2,0,0,2,0,1,2,0,2,2,0,3,2,1,0,2,1,1,2,1,2,2,1,3,2,2,0,2,2,1,2,2,2,2,2,3,2,3,0,2,3,1,2,3,2,2,3,3,3,0,0,3,0,1,3,0,2,3,0,3,3,1,0,3,1,1,3,1,2,3,1,3,3,2,0,3,2,1,3,2,2,3,2,3,3,3,0,3,3,1,3,3,2,3,3,3,0,0,0,0,0,1,0,0,2,0,0,3,0,1,0,0,1,1,0,1,2,0,1,3,0,2,0,0,2,1,0,2,2,0,2,3,0,3,0,0,3,1,0,3,2,0,3,3,1,0,0,1,0,1,1,0,2,1,0,3,1,1,0,1,1,1,1,1,2,1,1,3,1,2,0,1,2,1,1,2,2,1,2,3,1,3,0,1,3,1,1,3,2,1,3,3,2,0,0,2,0,1,2,0,2,2,0,3,2,1,0,2,1,1,2,1,2,2,1,3,2,2,0,2,2,1,2,2,2,2,2,3,2,3,0,2,3,2,2,3,3,3,0,0,3,0,1,3,0,2,3,0,3,3,1,0,3,1,1,3,1,2,3,1,3,3,2,0,3,2,1,3,2,2,3,2,3,3,3,0,3,3,1,3,3,2,3,3,3,0,0,0,0,0,1,0,0,2,0,0,3,0,1,0,0,1,1,0,1,2,0,1,3,0,2,0,0,2,1,0,2,2,0,2,3,0,3,0,0,3,1,0,3,2,0,3,3,1,0,0,1,0,1,1,0,2,1,0,3,1,1,0,1,1,1,1,1,2,1,1,3,1,2,0,1,2,1,1,2,2,1,2,3,1,3,0,1,3,1,1,3,2,1,3,3,2,0,0,2,0,1,2,0,2,2,0,3,2,1,0,2,1,1,2,1,2,2,1,3,2,2,0,2,2,1,2,2,2,2,2,3,2,3,0,2,3,2,2,3,3,3,0,0,3,0,1,3,0,2,3,0,3,3,1,0,3,1,1,3,1,2,3,1,3,3,2,0,3,2,1,3,2,2,3,2,3,3,3,0,3,3,1,3,3,2,3,3,3,0,0,0,0,0,1,0,0,2,0,0,3,0,1,0,0,1,1,0,1,2,0,1,3,0,2,0,0,2,1,0,2,2,0,2,3,0,3,0,0,3,1,0,3,2,0,3,3,1,0,0,1,0,1,1,0,2,1,0,3,1,1,0,1,1,1,1,1,2,1,1,3,1,2,0,1,2,1,1,2,2,1,2,3,1,3,0,1,3,1,1,3,3,2,0,0,2,0,1,2,0,2,2,0,3,2,1,0,2,1,1,2,1,2,2,1,3,2,2,0,2,2,1,2,2,2,2,2,3,2,3,0,2,3,1,2,3,2,2,3,3,3,0,0,3,0,1,3,0,2,3,0,3,3,1,0,3,1,1,3,1,2,3,1,3,3,2,0,3,2,1,3,2,2,3,2,3,3,3,0,3,3,1,3,3,2,3,3,3,0,0,0,0,0,1,0,0,2,0,0,3,0,1,0,0,1,1,0,1,2,0,1,3,0,2,0,0,2,1,0,2,2,0,2,3,0,3,0,0,3,1,0,3,2,0,3,3,1,0,0,1,0,1,1,0,2,1,0,3,1,1,0,1,1,1,1,1,2,1,1,3,1,2,0,1,2,1,1,2,2,1,2,3,1,3,0,1,3,1,1,3,2,1,3,3,2,0,0,2,0,1,2,0,2,2,0,3,2,1,0,2,1,1,2,1,2,2,1,3,2,2,0,2,2,1,2,2,2,2,2,3,2,3,0,2,3,2,2,3,3,3,0,0,3,0,1,3,0,2,3,0,3,3,1,0,3,1,1,3,1,2,3,1,3,3,2,0,3,2,1,3,2,2,3,2,3,3,3,0,3,3,1,3,3,2,3,3,3,0,0,0,0,0,1,0,0,2,0,0,3,0,1,0,0,1,1,0,1,2,0,1,3,0,2,0,0,2,1,0,2,2,0,2,3,0,3,0,0,3,1,0,3,2,0,3,3,1,0,0,1,0,1,1,0,2,1,0,3,1,1,0,1,1,1,1,1,2,1,1,3,1,2,0,1,2,1,1,2,2,1,2,3,1,3,0,1,3,1,1,3,2,1,3,3,2,0,0,2,0,1,2,0,2,2,0,3,2,1,0,2,1,1,2,1,2,2,2,0,2,2,1,2,2,2,2,2,3,2,3,0,2,3,1,2,3,2,2,3,3,3,0,0,3,0,1,3,0,2,3,0,3,3,1,0,3,1,1,3,1,2,3,1,3,3,2,0,3,2,1,3,2,2,3,2,3,3,3,0,3,3,1,3,3,2,3,3,3,0,0,0,0,0,1,0,0,2,0,0,3,0,1,0,0,1,1,0,1,2,0,1,3,0,2,0,0,2,1,0,2,2,0,2,3,0,3,0,0,3,1,0,3,2,0,3,3,1,0,0,1,0,1,1,0,2,1,0,3,1,1,0,1,1,1,1,1,2,1,1,3,1,2,0,1,2,1,1,2,2,1,2,3,1,3,0,1,3,1,1,3,2,1,3,3,2,0,0,2,0,1,2,0,2,2,0,3,2,1,0,2,1,1,2,1,2,2,1,3,2,2,0,2,2,1,2,2,2,2,2,3,2,3,0,2,3,2,2,3,3,3,0,0,3,0,1,3,0,2,3,0,3,3,1,0,3,1,1,3,1,2,3,1,3,3,2,0,3,2,1,3,2,2,3,2,3,3,3,0,3,3,1,3,3,2,3,3,3,0,0,0,0,0,1,0,0,2,0,0,3,0,1,0,0,1,1,0,1,2,0,1,3,0,2,0,0,2,1,0,2,2,0,2,3,0,3,0,0,3,1,0,3,2,0,3,3,13,0,0,13,0,1,13,0,2,13,0,3,13,1,0,13,1,1,13,1,2,13,1,3,13,2,0,13,2,2,13,2,3,13,3,0,13,3,1,13,3,2,13,3,3,0,0,0,0,0,1,0,0,2,0,0,3,0,1,0,0,1,1,0,1,2,0,1,3,0,2,0,0,2,1,0,2,2,0,2,3,0,3,0,0,3,1,0,3,2,0,3,3,1,0,0,1,0,1,1,0,2,1,0,3,1,1,0,1,1,1,1,1,2,1,1,3,1,2,0,1,2,1,1,2,2,1,3,0,1,3,1,1,3,2,1,3,3,2,0,0,2,0,1,2,0,2,2,0,3,2,1,0,2,1,1,2,1,2,2,1,3,2,2,0,2,2,1,2,2,2,2,2,3,2,3,0,2,3,1,2,3,2,2,3,3,3,0,0,3,0,1,3,0,2,3,0,3,3,1,0,3,1,1,3,1,2,3,1,3,3,2,0,3,2,1,3,2,2,3,2,3,3,3,0,3,3,1,3,3,2,3,3,3,0,0,0,0,0,1,0,0,2,0,0,3,0,1,0,0,1,1,0,1,2,0,1,3,0,2,0,0,2,1,0,2,2,0,2,3,0,3,0,0,3,1,0,3,2,0,3,3,1,0,0,1,0,1,1,0,2,1,0,3,1,1,0,1,1,1,1,1,2,1,1,3,1,2,0,1,2,1,1,2,2,1,2,3,1,3,0,1,3,1,1,3,2,1,3,3,2,0,0,2,0,1,2,0,2,2,0,3,2,1,0,2,1,1,2,1,2,2,1,3,2,2,0,2,2,1,2,2,2,2,2,3,2,3,0,2,3,2,2,3,3,3,0,0,3,0,1,3,0,2,3,0,3,3,1,0,3,1,1,3,1,2,3,1,3,3,2,0,3,2,1,3,2,2,3,2,3,3,3,0,3,3,1,3,3,2,3,3,3,0,0,0,0,0,1,0,0,2,0,0,3,0,1,0,0,1,1,0,1,2,0,1,3,0,2,0,0,2,1,0,2,2,0,2,3,0,3,0,0,3,1,0,3,2,0,3,3,1,0,0,1,0,1,1,0,2,1,0,3,1,1,0,1,1,1,1,1,2,1,1,3,1,2,0,1,2,1,1,2,2,1,2,3,1,3,0,1,3,1,1,3,2,1,3,3,2,0,0,2,0,1,2,0,2,2,0,3,2,1,0,2,1,1,2,1,2,2,1,3,2,2,0,2,2,1,2,2,2,2,2,3,2,3,0,2,3,2,2,3,3,3,0,0,3,0,1,3,0,2,3,0,3,3,1,0,3,1,1,3,1,2,3,1,3,3,2,0,3,2,1,3,2,2,3,2,3,3,3,0,3,3,1,3,3,2,3,3,3,0,0,0,0,0,1,0,0,2,0,0,3,0,1,0,0,1,1,0,1,2,0,1,3,0,2,0,0,2,1,0,2,2,0,2,3,0,3,0,0,3,1,0,3,2,0,3,3,13,0,0,13,0,1,13,0,2,13,0,3,13,1,0,13,1,1,13,1,2,13,1,3,13,2,0,13,2,2,13,2,3,13,3,0,13,3,1,13,3,2,13,3,3,0,0,0,0,0,1,0,0,2,0,0,3,0,1,0,0,1,1,0,1,2,0,1,3,0,2,0,0,2,1,0,2,2,0,2,3,0,3,0,0,3,1,0,3,2,0,3,3,1,0,0,1,0,1,1,0,2,1,0,3,1,1,0,1,1,1,1,1,2,1,1,3,1,2,0,1,2,1,1,2,2,1,2,3,1,3,0,1,3,1,1,3,2,1,3,3,2,0,0,2,0,1,2,0,2,2,0,3,2,1,0,2,1,1,2,1,2,2,1,3,2,2,0,2,2,1,2,2,2,2,2,3,2,3,0,2,3,1,2,3,2,2,3,3,3,0,0,3,0,1,3,0,2,3,0,3,3,1,0,3,1,1,3,1,2,3,1,3,3,2,0,3,2,2,3,2,3,3,3,0,3,3,1,3,3,2,3,3,3,0,0,0,0,0,1,0,0,2,0,0,3,0,1,0,0,1,1,0,1,2,0,1,3,0,2,0,0,2,1,0,2,2,0,2,3,0,3,0,0,3,1,0,3,2,0,3,3,1,0,0,1,0,1,1,0,2,1,0,3,1,1,0,1,1,1,1,1,2,1,1,3,1,2,0,1,2,1,1,2,2,1,2,3,1,3,0,1,3,1,1,3,2,1,3,3,2,0,0,2,0,1,2,0,2,2,0,3,2,1,0,2,1,1,2,1,2,2,1,3,2,2,0,2,2,1,2,2,2,2,2,3,2,3,0,2,3,2,2,3,3,3,0,0,3,0,1,3,0,2,3,0,3,3,1,0,3,1,1,3,1,2,3,1,3,3,2,0,3,2,1,3,2,2,3,2,3,3,3,0,3,3,1,3,3,2,3,3,3,0,0,0,0,0,1,0,0,2,0,0,3,0,1,0,0,1,1,0,1,2,0,1,3,0,2,0,0,2,1,0,2,2,0,2,3,0,3,0,0,3,1,0,3,2,0,3,3,1,0,0,1,0,1,1,0,2,1,0,3,1,1,0,1,1,1,1,1,2,1,1,3,1,2,0,1,2,1,1,2,2,1,2,3,1,3,0,1,3,1,1,3,2,1,3,3,2,0,0,2,0,1,2,0,2,2,0,3,2,1,0,2,1,1,2,1,2,2,1,3,2,2,0,2,2,1,2,2,2,2,2,3,2,3,0,2,3,1,2,3,2,2,3,3,3,0,0,3,0,1,3,0,2,3,0,3,3,1,0,3,1,1,3,1,3,3,2,0,3,2,1,3,2,2,3,2,3,3,3,0,3,3,1,3,3,2,3,3,3,0,0,0,0,0,1,0,0,2,0,0,3,0,1,0,0,1,1,0,1,2,0,1,3,0,2,0,0,2,1,0,2,2,0,2,3,0,3,0,0,3,1,0,3,2,0,3,3,13,0,0,13,0,1,13,0,2,13,0,3,13,1,0,13,1,1,13,1,2,13,1,3,13,2,0,13,2,2,13,2,3,13,3,0,13,3,1,13,3,2,13,3,3,0,0,0,0,0,1,0,0,2,0,0,3,0,1,0,0,1,1,0,1,2,0,1,3,0,2,0,0,2,1,0,2,2,0,2,3,0,3,0,0,3,1,0,3,2,0,3,3,1,0,0,1,0,1,1,0,2,1,0,3,1,1,0,1,1,1,1,1,2,1,1,3,1,2,0,1,2,1,1,2,2,1,2,3,1,3,0,1,3,1,1,3,2,1,3,3,2,0,0,2,0,1,2,0,2,2,0,3,2,1,0,2,1,1,2,1,2,2,2,0,2,2,1,2,2,2,2,2,3,2,3,0,2,3,1,2,3,2,2,3,3,3,0,0,3,0,1,3,0,2,3,0,3,3,1,0,3,1,1,3,1,2,3,1,3,3,2,0,3,2,1,3,2,2,3,2,3,3,3,0,3,3,1,3,3,2,3,3,3,0,0,0,0,0,1,0,0,2,0,0,3,0,1,0,0,1,1,0,1,2,0,1,3,0,2,0,0,2,1,0,2,2,0,2,3,0,3,0,0,3,1,0,3,2,0,3,3,1,0,0,1,0,1,1,0,2,1,0,3,1,1,0,1,1,1,1,1,2,1,1,3,1,2,0,1,2,1,1,2,2,1,2,3,1,3,0,1,3,1,1,3,2,1,3,3,2,0,0,2,0,1,2,0,2,2,0,3,2,1,0,2,1,1,2,1,2,2,2,0,2,2,1,2,2,2,2,2,3,2,3,0,2,3,1,2,3,2,2,3,3,3,0,0,3,0,1,3,0,2,3,0,3,3,1,0,3,1,1,3,1,2,3,1,3,3,2,0,3,2,1,3,2,2,3,2,3,3,3,0,3,3,1,3,3,2,3,3,3,0,0,0,0,0,1,0,0,2,0,0,3,0,1,0,0,1,1,0,1,2,0,1,3,0,2,0,0,2,1,0,2,2,0,2,3,0,3,0,0,3,1,0,3,2,0,3,3,1,0,0,1,0,1,1,0,2,1,0,3,1,1,0,1,1,1,1,1,2,1,1,3,1,2,0,1,2,1,1,2,2,1,2,3,1,3,0,1,3,1,1,3,2,1,3,3,2,0,0,2,0,1,2,0,2,2,0,3,2,1,0,2,1,1,2,1,2,2,1,3,2,2,0,2,2,1,2,2,2,2,2,3,2,3,0,2,3,2,2,3,3,3,0,0,3,0,1,3,0,2,3,0,3,3,1,0,3,1,1,3,1,2,3,1,3,3,2,0,3,2,1,3,2,2,3,2,3,3,3,0,3,3,1,3,3,2,3,3,3,0,0,0,0,0,1,0,0,2,0,0,3,0,1,0,0,1,1,0,1,2,0,1,3,0,2,0,0,2,1,0,2,2,0,2,3,0,3,0,0,3,1,0,3,2,0,3,3,1,0,0,1,0,1,1,0,2,1,0,3,1,1,0,1,1,1,1,1,2,1,1,3,1,2,0,1,2,1,1,2,2,1,2,3,1,3,0,1,3,1,1,3,2,1,3,3,2,0,0,2,0,1,2,0,2,2,0,3,2,1,0,2,1,1,2,1,2,2,1,3,2,2,0,2,2,1,2,2,2,2,2,3,2,3,0,2,3,1,2,3,2,2,3,3,3,0,0,3,0,1,3,0,2,3,0,3,3,1,0,3,1,1,3,1,2,3,1,3,3,2,0,3,2,2,3,2,3,3,3,0,3,3,1,3,3,2,3,3,3,0,0,0,0,0,1,0,0,2,0,0,3,0,1,0,0,1,1,0,1,2,0,1,3,0,2,0,0,2,1,0,2,2,0,2,3,0,3,0,0,3,1,0,3,2,0,3,3,1,0,0,1,0,1,1,0,2,1,0,3,1,1,0,1,1,1,1,1,2,1,1,3,1,2,0,1,2,1,1,2,2,1,2,3,1,3,0,1,3,1,1,3,2,1,3,3,2,0,0,2,0,1,2,0,2,2,0,3,2,1,0,2,1,1,2,1,2,2,1,3,2,2,0,2,2,1,2,2,2,2,2,3,2,3,0,2,3,2,2,3,3,3,0,0,3,0,1,3,0,2,3,0,3,3,1,0,3,1,1,3,1,2,3,1,3,3,2,0,3,2,1,3,2,2,3,2,3,3,3,0,3,3,1,3,3,2,3,3,3,0,0,0,0,0,1,0,0,2,0,0,3,0,1,0,0,1,1,0,1,2,0,1,3,0,2,0,0,2,1,0,2,2,0,2,3,0,3,0,0,3,1,0,3,2,0,3,3,1,0,0,1,0,1,1,0,2,1,0,3,1,1,0,1,1,1,1,1,2,1,1,3,1,2,0,1,2,1,1,2,2,1,2,3,1,3,0,1,3,1,1,3,2,1,3,3,2,0,0,2,0,1,2,0,2,2,0,3,2,1,0,2,1,1,2,1,2,2,2,0,2,2,1,2,2,2,2,2,3,2,3,0,2,3,1,2,3,2,2,3,3,3,0,0,3,0,1,3,0,2,3,0,3,3,1,0,3,1,1,3,1,2,3,1,3,3,2,0,3,2,1,3,2,2,3,2,3,3,3,0,3,3,1,3,3,2,3,3,3,0,0,0,0,0,1,0,0,2,0,0,3,0,1,0,0,1,1,0,1,2,0,1,3,0,2,0,0,2,1,0,2,2,0,2,3,0,3,0,0,3,1,0,3,2,0,3,3,1,0,0,1,0,1,1,0,2,1,0,3,1,1,0,1,1,1,1,1,2,1,1,3,1,2,0,1,2,1,1,2,2,1,2,3,1,3,0,1,3,1,1,3,2,1,3,3,2,0,0,2,0,1,2,0,2,2,0,3,2,1,0,2,1,1,2,1,2,2,1,3,2,2,0,2,2,1,2,2,2,2,2,3,2,3,0,2,3,2,2,3,3,3,0,0,3,0,1,3,0,2,3,0,3,3,1,0,3,1,1,3,1,2,3,1,3,3,2,0,3,2,1,3,2,2,3,2,3,3,3,0,3,3,1,3,3,2,3,3,3,0,0,0,0,0,1,0,0,2,0,0,3,0,1,0,0,1,1,0,1,2,0,1,3,0,2,0,0,2,1,0,2,2,0,2,3,0,3,0,0,3,1,0,3,2,0,3,3,1,0,0,1,0,1,1,0,2,1,0,3,1,1,0,1,1,1,1,1,2,1,1,3,1,2,0,1,2,1,1,2,2,1,3,0,1,3,1,1,3,2,1,3,3,2,0,0,2,0,1,2,0,2,2,0,3,2,1,0,2,1,1,2,1,2,2,1,3,2,2,0,2,2,1,2,2,2,2,2,3,2,3,0,2,3,1,2,3,2,2,3,3,3,0,0,3,0,1,3,0,2,3,0,3,3,1,0,3,1,1,3,1,2,3,1,3,3,2,0,3,2,1,3,2,2,3,2,3,3,3,0,3,3,1,3,3,2,3,3,3,0,0,0,0,0,1,0,0,2,0,0,3,0,1,0,0,1,1,0,1,2,0,1,3,0,2,0,0,2,1,0,2,2,0,2,3,0,3,0,0,3,1,0,3,2,0,3,3,1,0,0,1,0,1,1,0,2,1,0,3,1,1,0,1,1,1,1,1,2,1,1,3,1,2,0,1,2,1,1,2,2,1,2,3,1,3,0,1,3,1,1,3,2,1,3,3,2,0,0,2,0,1,2,0,2,2,0,3,2,1,0,2,1,1,2,1,2,2,2,0,2,2,1,2,2,2,2,2,3,2,3,0,2,3,1,2,3,2,2,3,3,3,0,0,3,0,1,3,0,2,3,0,3,3,1,0,3,1,1,3,1,2,3,1,3,3,2,0,3,2,1,3,2,2,3,2,3,3,3,0,3,3,1,3,3,2,3,3,3,0,0,0,0,0,1,0,0,2,0,0,3,0,1,0,0,1,1,0,1,2,0,1,3,0,2,0,0,2,1,0,2,2,0,2,3,0,3,0,0,3,1,0,3,2,0,3,3,1,0,0,1,0,1,1,0,2,1,0,3,1,1,0,1,1,1,1,1,2,1,1,3,1,2,0,1,2,1,1,2,2,1,2,3,1,3,0,1,3,1,1,3,2,1,3,3,2,0,0,2,0,1,2,0,2,2,0,3,2,1,0,2,1,1,2,1,2,2,1,3,2,2,0,2,2,1,2,2,2,2,2,3,2,3,0,2,3,2,2,3,3,3,0,0,3,0,1,3,0,2,3,0,3,3,1,0,3,1,1,3,1,2,3,1,3,3,2,0,3,2,1,3,2,2,3,2,3,3,3,0,3,3,1,3,3,2,3,3,3,0,0,0,0,0,1,0,0,2,0,0,3,0,1,0,0,1,1,0,1,2,0,1,3,0,2,0,0,2,1,0,2,2,0,2,3,0,3,0,0,3,1,0,3,2,0,3,3,1,0,0,1,0,1,1,0,2,1,0,3,1,1,0,1,1,1,1,1,2,1,1,3,1,2,0,1,2,1,1,2,2,1,2,3,1,3,0,1,3,1,1,3,2,1,3,3,2,0,0,2,0,1,2,0,2,2,0,3,2,1,0,2,1,1,2,1,2,2,1,3,2,2,0,2,2,1,2,2,2,2,2,3,2,3,0,2,3,2,2,3,3,3,0,0,3,0,1,3,0,2,3,0,3,3,1,0,3,1,1,3,1,2,3,1,3,3,2,0,3,2,1,3,2,2,3,2,3,3,3,0,3,3,1,3,3,2,3,3,3,0,0,0,0,0,1,0,0,2,0,0,3,0,1,0,0,1,1,0,1,2,0,1,3,0,2,0,0,2,1,0,2,2,0,2,3,0,3,0,0,3,1,0,3,2,0,3,3,1,0,0,1,0,1,1,0,2,1,0,3,1,1,0,1,1,1,1,1,2,1,1,3,1,2,0,1,2,1,1,2,2,1,2,3,1,3,0,1,3,1,1,3,2,1,3,3,2,0,0,2,0,1,2,0,2,2,0,3,2,1,0,2,1,1,2,1,2,2,2,0,2,2,1,2,2,2,2,2,3,2,3,0,2,3,1,2,3,2,2,3,3,3,0,0,3,0,1,3,0,2,3,0,3,3,1,0,3,1,1,3,1,2,3,1,3,3,2,0,3,2,1,3,2,2,3,2,3,3,3,0,3,3,1,3,3,2,3,3,3,0,0,0,0,0,1,0,0,2,0,0,3,0,1,0,0,1,1,0,1,2,0,1,3,0,2,0,0,2,1,0,2,2,0,2,3,0,3,0,0,3,1,0,3,2,0,3,3,1,0,0,1,0,1,1,0,2,1,0,3,1,1,0,1,1,1,1,1,2,1,1,3,1,2,0,1,2,1,1,2,2,1,2,3,1,3,0,1,3,1,1,3,2,1,3,3,2,0,0,2,0,1,2,0,2,2,0,3,2,1,0,2,1,1,2,1,2,2,1,3,2,2,0,2,2,1,2,2,2,2,2,3,2,3,0,2,3,2,2,3,3,3,0,0,3,0,1,3,0,2,3,0,3,3,1,0,3,1,1,3,1,2,3,1,3,3,2,0,3,2,1,3,2,2,3,2,3,3,3,0,3,3,1,3,3,2,3,3,3,0,0,0,0,0,1,0,0,2,0,0,3,0,1,0,0,1,1,0,1,2,0,1,3,0,2,0,0,2,1,0,2,2,0,2,3,0,3,0,0,3,1,0,3,2,0,3,3,13,0,0,13,0,1,13,0,2,13,0,3,13,1,0,13,1,1,13,1,2,13,1,3,13,2,0,13,2,2,13,2,3,13,3,0,13,3,1,13,3,2,13,3,3,0,0,0,0,0,1,0,0,2,0,0,3,0,1,0,0,1,1,0,1,2,0,1,3,0,2,0,0,2,1,0,2,2,0,2,3,0,3,0,0,3,1,0,3,2,0,3,3,1,0,0,1,0,1,1,0,2,1,0,3,1,1,0,1,1,1,1,1,2,1,1,3,1,2,0,1,2,1,1,2,2,1,2,3,1,3,0,1,3,1,1,3,2,1,3,3,2,0,0,2,0,1,2,0,2,2,0,3,2,1,0,2,1,1,2,1,2,2,1,3,2,2,0,2,2,1,2,2,2,2,2,3,2,3,0,2,3,2,2,3,3,3,0,0,3,0,1,3,0,2,3,0,3,3,1,0,3,1,1,3,1,2,3,1,3,3,2,0,3,2,1,3,2,2,3,2,3,3,3,0,3,3,1,3,3,2,3,3,3,0,0,0,0,0,1,0,0,2,0,0,3,0,1,0,0,1,1,0,1,2,0,1,3,0,2,0,0,2,1,0,2,2,0,2,3,0,3,0,0,3,1,0,3,2,0,3,3,13,0,0,13,0,1,13,0,2,13,0,3,13,1,0,13,1,1,13,1,2,13,1,3,13,2,0,13,2,2,13,2,3,13,3,0,13,3,1,13,3,2,13,3,3,0,0,0,0,0,1,0,0,2,0,0,3,0,1,0,0,1,1,0,1,2,0,1,3,0,2,0,0,2,1,0,2,2,0,2,3,0,3,0,0,3,1,0,3,2,0,3,3,13,0,0,13,0,1,13,0,2,13,0,3,13,1,0,13,1,1,13,1,2,13,1,3,13,2,0,13,2,2,13,2,3,13,3,0,13,3,1,13,3,2,13,3,3,0,0,0,0,0,2,0,13,0,0,13,2,13,0,0,13,0,2,13,13,0,0,0,0,0,0,1,0,0,2,0,0,3,0,1,0,0,1,1,0,1,2,0,1,3,0,2,0,0,2,1,0,2,2,0,2,3,0,3,0,0,3,1,0,3,2,0,3,3,1,0,0,1,0,1,1,0,2,1,0,3,1,1,0,1,1,1,1,1,2,1,1,3,1,2,0,1,2,1,1,2,2,1,2,3,1,3,0,1,3,1,1,3,2,1,3,3,2,0,0,2,0,1,2,0,2,2,0,3,2,1,0,2,1,1,2,1,2,2,2,0,2,2,1,2,2,2,2,2,3,2,3,0,2,3,1,2,3,2,2,3,3,3,0,0,3,0,1,3,0,2,3,0,3,3,1,0,3,1,1,3,1,2,3,1,3,3,2,0,3,2,1,3,2,2,3,2,3,3,3,0,3,3,1,3,3,2,3,3,3,0,0,0,0,0,1,0,0,2,0,0,3,0,1,0,0,1,1,0,1,2,0,1,3,0,2,0,0,2,1,0,2,2,0,2,3,0,3,0,0,3,1,0,3,2,0,3,3,1,0,0,1,0,1,1,0,2,1,0,3,1,1,0,1,1,1,1,1,2,1,1,3,1,2,0,1,2,1,1,2,2,1,2,3,1,3,0,1,3,1,1,3,2,1,3,3,2,0,0,2,0,1,2,0,2,2,0,3,2,1,0,2,1,1,2,1,2,2,2,0,2,2,1,2,2,2,2,2,3,2,3,0,2,3,1,2,3,2,2,3,3,3,0,0,3,0,1,3,0,2,3,0,3,3,1,0,3,1,1,3,1,2,3,1,3,3,2,0,3,2,1,3,2,2,3,2,3,3,3,0,3,3,1,3,3,2,3,3,3,0,0,0,0,0,1,0,0,2,0,0,3,0,1,0,0,1,1,0,1,2,0,1,3,0,2,0,0,2,1,0,2,2,0,2,3,0,3,0,0,3,1,0,3,2,0,3,3,1,0,0,1,0,1,1,0,2,1,0,3,1,1,0,1,1,1,1,1,2,1,1,3,1,2,0,1,2,1,1,2,2,1,2,3,1,3,0,1,3,1,1,3,3,2,0,0,2,0,1,2,0,2,2,0,3,2,1,0,2,1,1,2,1,2,2,1,3,2,2,0,2,2,1,2,2,2,2,2,3,2,3,0,2,3,1,2,3,2,2,3,3,3,0,0,3,0,1,3,0,2,3,0,3,3,1,0,3,1,1,3,1,2,3,1,3,3,2,0,3,2,1,3,2,2,3,2,3,3,3,0,3,3,1,3,3,2,3,3,3,0,0,0,0,0,1,0,0,2,0,0,3,0,1,0,0,1,1,0,1,2,0,1,3,0,2,0,0,2,1,0,2,2,0,2,3,0,3,0,0,3,1,0,3,2,0,3,3,13,0,0,13,0,1,13,0,2,13,0,3,13,1,0,13,1,1,13,1,2,13,1,3,13,2,0,13,2,2,13,2,3,13,3,0,13,3,1,13,3,2,13,3,3,0,0,0,0,0,1,0,0,2,0,0,3,0,1,0,0,1,1,0,1,2,0,1,3,0,2,0,0,2,1,0,2,2,0,2,3,0,3,0,0,3,1,0,3,2,0,3,3,1,0,0,1,0,1,1,0,2,1,0,3,1,1,0,1,1,1,1,1,2,1,1,3,1,2,0,1,2,1,1,2,2,1,2,3,1,3,0,1,3,1,1,3,2,1,3,3,2,0,0,2,0,1,2,0,2,2,0,3,2,1,0,2,1,1,2,1,2,2,2,0,2,2,1,2,2,2,2,2,3,2,3,0,2,3,1,2,3,2,2,3,3,3,0,0,3,0,1,3,0,2,3,0,3,3,1,0,3,1,1,3,1,2,3,1,3,3,2,0,3,2,1,3,2,2,3,2,3,3,3,0,3,3,1,3,3,2,3,3,3,0,0,0,0,0,13,0,1,0,0,1,13,0,2,0,0,2,13,0,3,0,0,3,13,13,0,0,13,0,13,13,1,0,13,1,13,13,2,0,13,3,0,13,3,13,0,0,0,0,0,1,0,0,2,0,0,3,0,1,0,0,1,1,0,1,2,0,1,3,0,2,0,0,2,1,0,2,2,0,2,3,0,3,0,0,3,1,0,3,2,0,3,3,1,0,0,1,0,1,1,0,2,1,0,3,1,1,0,1,1,1,1,1,2,1,1,3,1,2,0,1,2,1,1,2,2,1,2,3,1,3,0,1,3,1,1,3,2,1,3,3,2,0,0,2,0,1,2,0,2,2,0,3,2,1,0,2,1,1,2,1,2,2,1,3,2,2,0,2,2,1,2,2,2,2,2,3,2,3,0,2,3,2,2,3,3,3,0,0,3,0,1,3,0,2,3,0,3,3,1,0,3,1,1,3,1,2,3,1,3,3,2,0,3,2,1,3,2,2,3,2,3,3,3,0,3,3,1,3,3,2,3,3,3,0,0,0,0,0,1,0,0,2,0,0,3,0,2,0,0,2,1,0,2,2,0,2,3,1,0,0,1,0,1,1,0,2,1,0,3,1,2,0,1,2,1,1,2,2,1,2,3,2,0,0,2,0,1,2,0,2,2,0,3,2,2,0,2,2,1,2,2,2,2,2,3,3,0,0,3,0,1,3,0,2,3,0,3,3,2,0,3,2,2,3,2,3,0,0,0,0,0,1,0,0,2,0,0,3,0,1,0,0,1,1,0,1,2,0,1,3,0,2,0,0,2,1,0,2,2,0,2,3,0,3,0,0,3,1,0,3,2,0,3,3,1,0,0,1,0,1,1,0,2,1,0,3,1,1,0,1,1,1,1,1,2,1,1,3,1,2,0,1,2,1,1,2,2,1,2,3,1,3,0,1,3,1,1,3,3,2,0,0,2,0,1,2,0,2,2,0,3,2,1,0,2,1,1,2,1,2,2,1,3,2,2,0,2,2,1,2,2,2,2,2,3,2,3,0,2,3,1,2,3,2,2,3,3,3,0,0,3,0,1,3,0,2,3,0,3,3,1,0,3,1,1,3,1,2,3,1,3,3,2,0,3,2,1,3,2,2,3,2,3,3,3,0,3,3,1,3,3,2,3,3,3,0,0,0,0,0,1,0,0,2,0,0,3,0,1,0,0,1,1,0,1,2,0,1,3,0,2,0,0,2,1,0,2,2,0,2,3,0,3,0,0,3,1,0,3,2,0,3,3,1,0,0,1,0,1,1,0,2,1,0,3,1,1,0,1,1,1,1,1,2,1,1,3,1,2,0,1,2,1,1,2,2,1,3,0,1,3,1,1,3,2,1,3,3,2,0,0,2,0,1,2,0,2,2,0,3,2,1,0,2,1,1,2,1,2,2,1,3,2,2,0,2,2,1,2,2,2,2,2,3,2,3,0,2,3,1,2,3,2,2,3,3,3,0,0,3,0,1,3,0,2,3,0,3,3,1,0,3,1,1,3,1,2,3,1,3,3,2,0,3,2,1,3,2,2,3,2,3,3,3,0,3,3,1,3,3,2,3,3,3,0,0,0,0,0,1,0,0,2,0,0,3,0,1,0,0,1,1,0,1,2,0,1,3,0,2,0,0,2,1,0,2,2,0,2,3,0,3,0,0,3,1,0,3,2,0,3,3,1,0,0,1,0,1,1,0,2,1,0,3,1,1,0,1,1,1,1,1,2,1,1,3,1,2,0,1,2,1,1,2,2,1,2,3,1,3,0,1,3,1,1,3,2,1,3,3,2,0,0,2,0,1,2,0,2,2,0,3,2,1,0,2,1,1,2,1,2,2,2,0,2,2,1,2,2,2,2,2,3,2,3,0,2,3,1,2,3,2,2,3,3,3,0,0,3,0,1,3,0,2,3,0,3,3,1,0,3,1,1,3,1,2,3,1,3,3,2,0,3,2,1,3,2,2,3,2,3,3,3,0,3,3,1,3,3,2,3,3,3,0,0,0,0,0,1,0,0,2,0,0,3,0,1,0,0,1,1,0,1,2,0,1,3,0,2,0,0,2,1,0,2,2,0,2,3,0,3,0,0,3,1,0,3,2,0,3,3,1,0,0,1,0,1,1,0,2,1,0,3,1,1,0,1,1,1,1,1,2,1,1,3,1,2,0,1,2,1,1,2,2,1,2,3,1,3,0,1,3,1,1,3,2,1,3,3,2,0,0,2,0,1,2,0,2,2,0,3,2,1,0,2,1,1,2,1,2,2,2,0,2,2,1,2,2,2,2,2,3,2,3,0,2,3,1,2,3,2,2,3,3,3,0,0,3,0,1,3,0,2,3,0,3,3,1,0,3,1,1,3,1,2,3,1,3,3,2,0,3,2,1,3,2,2,3,2,3,3,3,0,3,3,1,3,3,2,3,3,3,0,0,0,0,0,1,0,0,2,0,0,3,0,1,0,0,1,1,0,1,2,0,1,3,0,2,0,0,2,1,0,2,2,0,2,3,0,3,0,0,3,1,0,3,2,0,3,3,1,0,0,1,0,1,1,0,2,1,0,3,1,1,0,1,1,1,1,1,2,1,1,3,1,2,0,1,2,1,1,2,2,1,2,3,1,3,0,1,3,1,1,3,2,1,3,3,2,0,0,2,0,1,2,0,2,2,0,3,2,1,0,2,1,1,2,1,2,2,1,3,2,2,0,2,2,1,2,2,2,2,2,3,2,3,0,2,3,1,2,3,2,2,3,3,3,0,0,3,0,1,3,0,2,3,0,3,3,1,0,3,1,1,3,1,3,3,2,0,3,2,1,3,2,2,3,2,3,3,3,0,3,3,1,3,3,2,3,3,3,0,0,0,0,0,1,0,0,2,0,0,3,0,1,0,0,1,1,0,1,2,0,1,3,0,2,0,0,2,1,0,2,2,0,2,3,0,3,0,0,3,1,0,3,2,0,3,3,1,0,0,1,0,1,1,0,2,1,0,3,1,1,0,1,1,1,1,1,2,1,1,3,1,2,0,1,2,1,1,2,2,1,2,3,1,3,0,1,3,1,1,3,2,1,3,3,2,0,0,2,0,1,2,0,2,2,0,3,2,1,0,2,1,1,2,1,2,2,1,3,2,2,0,2,2,1,2,2,2,2,2,3,2,3,0,2,3,2,2,3,3,3,0,0,3,0,1,3,0,2,3,0,3,3,1,0,3,1,1,3,1,2,3,1,3,3,2,0,3,2,1,3,2,2,3,2,3,3,3,0,3,3,1,3,3,2,3,3,3,0,0,0,0,0,1,0,0,2,0,0,3,0,2,0,0,2,1,0,2,2,0,2,3,1,0,0,1,0,1,1,0,2,1,0,3,1,2,0,1,2,1,1,2,2,1,2,3,2,0,0,2,0,1,2,0,2,2,0,3,2,2,0,2,2,1,2,2,2,2,2,3,3,0,0,3,0,1,3,0,2,3,0,3,3,2,0,3,2,2,3,2,3,0,0,0,0,0,2,0,1,0,0,1,2,0,2,0,0,2,2,0,3,0,0,3,2,1,0,0,1,0,2,1,1,0,1,1,2,1,2,0,1,2,2,1,3,0,2,0,0,2,0,2,2,1,0,2,1,2,2,2,0,2,2,2,2,3,0,2,3,2,3,0,0,3,0,2,3,1,0,3,1,2,3,2,0,3,2,2,3,3,0,3,3,2,0,0,0,0,0,1,0,0,2,0,0,3,0,1,0,0,1,1,0,1,2,0,1,3,0,2,0,0,2,1,0,2,2,0,2,3,0,3,0,0,3,1,0,3,2,0,3,3,13,0,0,13,0,1,13,0,2,13,0,3,13,1,0,13,1,1,13,1,2,13,1,3,13,2,0,13,2,2,13,2,3,13,3,0,13,3,1,13,3,2,13,3,3,0,0,0,0,0,1,0,0,2,0,0,3,0,1,0,0,1,1,0,1,2,0,1,3,0,2,0,0,2,1,0,2,2,0,2,3,0,3,0,0,3,1,0,3,2,0,3,3,1,0,0,1,0,1,1,0,2,1,0,3,1,1,0,1,1,1,1,1,2,1,1,3,1,2,0,1,2,1,1,2,2,1,2,3,1,3,0,1,3,1,1,3,2,1,3,3,2,0,0,2,0,1,2,0,2,2,0,3,2,1,0,2,1,1,2,1,2,2,2,0,2,2,1,2,2,2,2,2,3,2,3,0,2,3,1,2,3,2,2,3,3,3,0,0,3,0,1,3,0,2,3,0,3,3,1,0,3,1,1,3,1,2,3,1,3,3,2,0,3,2,1,3,2,2,3,2,3,3,3,0,3,3,1,3,3,2,3,3,3,0,0,0,0,0,1,0,0,2,0,0,3,0,1,0,0,1,1,0,1,2,0,1,3,0,2,0,0,2,1,0,2,2,0,2,3,0,3,0,0,3,1,0,3,2,0,3,3,1,0,0,1,0,1,1,0,2,1,0,3,1,1,0,1,1,1,1,1,2,1,1,3,1,2,0,1,2,1,1,2,2,1,2,3,1,3,0,1,3,1,1,3,3,2,0,0,2,0,1,2,0,2,2,0,3,2,1,0,2,1,1,2,1,2,2,1,3,2,2,0,2,2,1,2,2,2,2,2,3,2,3,0,2,3,1,2,3,2,2,3,3,3,0,0,3,0,1,3,0,2,3,0,3,3,1,0,3,1,1,3,1,2,3,1,3,3,2,0,3,2,1,3,2,2,3,2,3,3,3,0,3,3,1,3,3,2,3,3,3,0,0,0,0,0,1,0,0,2,0,0,3,0,1,0,0,1,1,0,1,2,0,1,3,0,2,0,0,2,1,0,2,2,0,2,3,0,3,0,0,3,1,0,3,2,0,3,3,13,0,0,13,0,1,13,0,2,13,0,3,13,1,0,13,1,1,13,1,2,13,1,3,13,2,0,13,2,2,13,2,3,13,3,0,13,3,1,13,3,2,13,3,3,0,0,0,0,0,1,0,0,2,0,0,3,0,1,0,0,1,1,0,1,2,0,1,3,0,2,0,0,2,1,0,2,2,0,2,3,0,3,0,0,3,1,0,3,2,0,3,3,13,0,0,13,0,1,13,0,2,13,0,3,13,1,0,13,1,1,13,1,2,13,1,3,13,2,0,13,2,2,13,2,3,13,3,0,13,3,1,13,3,2,13,3,3,0,0,0,0,0,1,0,0,2,0,0,3,0,2,0,0,2,1,0,2,2,0,2,3,1,0,0,1,0,1,1,0,2,1,0,3,1,2,0,1,2,1,1,2,2,1,2,3,2,0,0,2,0,1,2,0,2,2,0,3,2,2,0,2,2,1,2,2,2,2,2,3,3,0,0,3,0,1,3,0,2,3,0,3,3,2,0,3,2,2,3,2,3,0,0,0,0,0,1,0,0,2,0,0,3,0,1,0,0,1,1,0,1,2,0,1,3,0,2,0,0,2,1,0,2,2,0,2,3,0,3,0,0,3,1,0,3,2,0,3,3,1,0,0,1,0,1,1,0,2,1,0,3,1,1,0,1,1,1,1,1,2,1,1,3,1,2,0,1,2,1,1,2,2,1,3,0,1,3,1,1,3,2,1,3,3,2,0,0,2,0,1,2,0,2,2,0,3,2,1,0,2,1,1,2,1,2,2,1,3,2,2,0,2,2,1,2,2,2,2,2,3,2,3,0,2,3,1,2,3,2,2,3,3,3,0,0,3,0,1,3,0,2,3,0,3,3,1,0,3,1,1,3,1,2,3,1,3,3,2,0,3,2,1,3,2,2,3,2,3,3,3,0,3,3,1,3,3,2,3,3,3,0,0,0,0,0,1,0,0,2,0,0,3,0,1,0,0,1,1,0,1,2,0,1,3,0,2,0,0,2,1,0,2,2,0,2,3,0,3,0,0,3,1,0,3,2,0,3,3,1,0,0,1,0,1,1,0,2,1,0,3,1,1,0,1,1,1,1,1,2,1,1,3,1,2,0,1,2,1,1,2,2,1,3,0,1,3,1,1,3,2,1,3,3,2,0,0,2,0,1,2,0,2,2,0,3,2,1,0,2,1,1,2,1,2,2,1,3,2,2,0,2,2,1,2,2,2,2,2,3,2,3,0,2,3,1,2,3,2,2,3,3,3,0,0,3,0,1,3,0,2,3,0,3,3,1,0,3,1,1,3,1,2,3,1,3,3,2,0,3,2,1,3,2,2,3,2,3,3,3,0,3,3,1,3,3,2,3,3,3,0,0,0,0,0,2,0,13,0,0,13,2,13,0,0,13,0,2,13,13,0,0,0,0,0,0,1,0,0,2,0,0,3,0,1,0,0,1,1,0,1,2,0,1,3,0,2,0,0,2,1,0,2,2,0,2,3,0,3,0,0,3,1,0,3,2,0,3,3,1,0,0,1,0,1,1,0,2,1,0,3,1,1,0,1,1,1,1,1,2,1,1,3,1,2,0,1,2,1,1,2,2,1,2,3,1,3,0,1,3,1,1,3,2,1,3,3,2,0,0,2,0,1,2,0,2,2,0,3,2,1,0,2,1,1,2,1,2,2,1,3,2,2,0,2,2,1,2,2,2,2,2,3,2,3,0,2,3,2,2,3,3,3,0,0,3,0,1,3,0,2,3,0,3,3,1,0,3,1,1,3,1,2,3,1,3,3,2,0,3,2,1,3,2,2,3,2,3,3,3,0,3,3,1,3,3,2,3,3,3,0,0,0,0,0,1,0,0,2,0,0,3,0,1,0,0,1,1,0,1,2,0,1,3,0,2,0,0,2,1,0,2,2,0,2,3,0,3,0,0,3,1,0,3,2,0,3,3,1,0,0,1,0,1,1,0,2,1,0,3,1,1,0,1,1,1,1,1,2,1,1,3,1,2,0,1,2,1,1,2,2,1,2,3,1,3,0,1,3,1,1,3,3,2,0,0,2,0,1,2,0,2,2,0,3,2,1,0,2,1,1,2,1,2,2,1,3,2,2,0,2,2,1,2,2,2,2,2,3,2,3,0,2,3,1,2,3,2,2,3,3,3,0,0,3,0,1,3,0,2,3,0,3,3,1,0,3,1,1,3,1,2,3,1,3,3,2,0,3,2,1,3,2,2,3,2,3,3,3,0,3,3,1,3,3,2,3,3,3,0,0,0,0,0,1,0,0,2,0,0,3,0,1,0,0,1,1,0,1,2,0,1,3,0,2,0,0,2,1,0,2,2,0,2,3,0,3,0,0,3,1,0,3,2,0,3,3,13,0,0,13,0,1,13,0,2,13,0,3,13,1,0,13,1,1,13,1,2,13,1,3,13,2,0,13,2,2,13,2,3,13,3,0,13,3,1,13,3,2,13,3,3,0,0,0,0,0,1,0,0,2,0,0,3,0,1,0,0,1,1,0,1,2,0,1,3,0,2,0,0,2,1,0,2,2,0,2,3,0,3,0,0,3,1,0,3,2,0,3,3,1,0,0,1,0,1,1,0,2,1,0,3,1,1,0,1,1,1,1,1,2,1,1,3,1,2,0,1,2,1,1,2,2,1,2,3,1,3,0,1,3,1,1,3,2,1,3,3,2,0,0,2,0,1,2,0,2,2,0,3,2,1,0,2,1,1,2,1,2,2,1,3,2,2,0,2,2,1,2,2,2,2,2,3,2,3,0,2,3,1,2,3,2,2,3,3,3,0,0,3,0,1,3,0,2,3,0,3,3,1,0,3,1,1,3,1,2,3,1,3,3,2,0,3,2,2,3,2,3,3,3,0,3,3,1,3,3,2,3,3,3,0,0,0,0,0,2,0,1,0,0,1,2,0,2,0,0,2,2,0,3,0,0,3,2,1,0,0,1,0,2,1,1,0,1,1,2,1,2,0,1,2,2,1,3,0,2,0,0,2,0,2,2,1,0,2,1,2,2,2,0,2,2,2,2,3,0,2,3,2,3,0,0,3,0,2,3,1,0,3,1,2,3,2,0,3,2,2,3,3,0,3,3,2,0,0,0,0,0,13,0,1,0,0,1,13,0,2,0,0,2,13,0,3,0,0,3,13,13,0,0,13,0,13,13,1,0,13,1,13,13,2,0,13,3,0,13,3,13,0,0,0,0,0,1,0,0,2,0,0,3,0,1,0,0,1,1,0,1,2,0,1,3,0,2,0,0,2,1,0,2,2,0,2,3,0,3,0,0,3,1,0,3,2,0,3,3,1,0,0,1,0,1,1,0,2,1,0,3,1,1,0,1,1,1,1,1,2,1,1,3,1,2,0,1,2,1,1,2,2,1,2,3,1,3,0,1,3,1,1,3,2,1,3,3,2,0,0,2,0,1,2,0,2,2,0,3,2,1,0,2,1,1,2,1,2,2,2,0,2,2,1,2,2,2,2,2,3,2,3,0,2,3,1,2,3,2,2,3,3,3,0,0,3,0,1,3,0,2,3,0,3,3,1,0,3,1,1,3,1,2,3,1,3,3,2,0,3,2,1,3,2,2,3,2,3,3,3,0,3,3,1,3,3,2,3,3,3,0,0,0,0,0,1,0,0,2,0,0,3,0,1,0,0,1,1,0,1,2,0,1,3,0,2,0,0,2,1,0,2,2,0,2,3,0,3,0,0,3,1,0,3,2,0,3,3,1,0,0,1,0,1,1,0,2,1,0,3,1,1,0,1,1,1,1,1,2,1,1,3,1,2,0,1,2,1,1,2,2,1,2,3,1,3,0,1,3,1,1,3,2,1,3,3,2,0,0,2,0,1,2,0,2,2,0,3,2,1,0,2,1,1,2,1,2,2,1,3,2,2,0,2,2,1,2,2,2,2,2,3,2,3,0,2,3,2,2,3,3,3,0,0,3,0,1,3,0,2,3,0,3,3,1,0,3,1,1,3,1,2,3,1,3,3,2,0,3,2,1,3,2,2,3,2,3,3,3,0,3,3,1,3,3,2,3,3,3,0,0,0,0,0,1,0,0,2,0,0,3,0,1,0,0,1,1,0,1,2,0,1,3,0,2,0,0,2,1,0,2,2,0,2,3,0,3,0,0,3,1,0,3,2,0,3,3,1,0,0,1,0,1,1,0,2,1,0,3,1,1,0,1,1,1,1,1,2,1,1,3,1,2,0,1,2,1,1,2,2,1,2,3,1,3,0,1,3,1,1,3,2,1,3,3,2,0,0,2,0,1,2,0,2,2,0,3,2,1,0,2,1,1,2,1,2,2,1,3,2,2,0,2,2,1,2,2,2,2,2,3,2,3,0,2,3,2,2,3,3,3,0,0,3,0,1,3,0,2,3,0,3,3,1,0,3,1,1,3,1,2,3,1,3,3,2,0,3,2,1,3,2,2,3,2,3,3,3,0,3,3,1,3,3,2,3,3,3,0,0,0,0,0,1,0,0,2,0,0,3,0,1,0,0,1,1,0,1,2,0,1,3,0,2,0,0,2,1,0,2,2,0,2,3,0,3,0,0,3,1,0,3,2,0,3,3,13,0,0,13,0,1,13,0,2,13,0,3,13,1,0,13,1,1,13,1,2,13,1,3,13,2,0,13,2,2,13,2,3,13,3,0,13,3,1,13,3,2,13,3,3,0,0,0,0,0,1,0,0,2,0,0,3,0,1,0,0,1,1,0,1,2,0,1,3,0,2,0,0,2,1,0,2,2,0,2,3,0,3,0,0,3,1,0,3,2,0,3,3,13,0,0,13,0,1,13,0,2,13,0,3,13,1,0,13,1,1,13,1,2,13,1,3,13,2,0,13,2,2,13,2,3,13,3,0,13,3,1,13,3,2,13,3,3,0,0,0,0,0,1,0,0,2,0,0,3,0,1,0,0,1,1,0,1,2,0,1,3,0,2,0,0,2,1,0,2,2,0,2,3,0,3,0,0,3,1,0,3,2,0,3,3,13,0,0,13,0,1,13,0,2,13,0,3,13,1,0,13,1,1,13,1,2,13,1,3,13,2,0,13,2,2,13,2,3,13,3,0,13,3,1,13,3,2,13,3,3,0,0,0,0,0,1,0,0,2,0,0,3,0,1,0,0,1,1,0,1,2,0,1,3,0,2,0,0,2,1,0,2,2,0,2,3,0,3,0,0,3,1,0,3,2,0,3,3,1,0,0,1,0,1,1,0,2,1,0,3,1,1,0,1,1,1,1,1,2,1,1,3,1,2,0,1,2,1,1,2,2,1,2,3,1,3,0,1,3,1,1,3,2,1,3,3,2,0,0,2,0,1,2,0,2,2,0,3,2,1,0,2,1,1,2,1,2,2,1,3,2,2,0,2,2,1,2,2,2,2,2,3,2,3,0,2,3,2,2,3,3,3,0,0,3,0,1,3,0,2,3,0,3,3,1,0,3,1,1,3,1,2,3,1,3,3,2,0,3,2,1,3,2,2,3,2,3,3,3,0,3,3,1,3,3,2,3,3,3,0,0,0,0,0,1,0,0,2,0,0,3,0,1,0,0,1,1,0,1,2,0,1,3,0,2,0,0,2,1,0,2,2,0,2,3,0,3,0,0,3,1,0,3,2,0,3,3,1,0,0,1,0,1,1,0,2,1,0,3,1,1,0,1,1,1,1,1,2,1,1,3,1,2,0,1,2,1,1,2,2,1,2,3,1,3,0,1,3,1,1,3,2,1,3,3,2,0,0,2,0,1,2,0,2,2,0,3,2,1,0,2,1,1,2,1,2,2,1,3,2,2,0,2,2,1,2,2,2,2,2,3,2,3,0,2,3,2,2,3,3,3,0,0,3,0,1,3,0,2,3,0,3,3,1,0,3,1,1,3,1,2,3,1,3,3,2,0,3,2,1,3,2,2,3,2,3,3,3,0,3,3,1,3,3,2,3,3,3,0,0,0,0,0,1,0,0,2,0,0,3,0,1,0,0,1,1,0,1,2,0,1,3,0,2,0,0,2,1,0,2,2,0,2,3,0,3,0,0,3,1,0,3,2,0,3,3,1,0,0,1,0,1,1,0,2,1,0,3,1,1,0,1,1,1,1,1,2,1,1,3,1,2,0,1,2,1,1,2,2,1,2,3,1,3,0,1,3,1,1,3,3,2,0,0,2,0,1,2,0,2,2,0,3,2,1,0,2,1,1,2,1,2,2,1,3,2,2,0,2,2,1,2,2,2,2,2,3,2,3,0,2,3,1,2,3,2,2,3,3,3,0,0,3,0,1,3,0,2,3,0,3,3,1,0,3,1,1,3,1,2,3,1,3,3,2,0,3,2,1,3,2,2,3,2,3,3,3,0,3,3,1,3,3,2,3,3,3,0,0,0,0,0,1,0,0,2,0,0,3,0,1,0,0,1,1,0,1,2,0,1,3,0,2,0,0,2,1,0,2,2,0,2,3,0,3,0,0,3,1,0,3,2,0,3,3,1,0,0,1,0,1,1,0,2,1,0,3,1,1,0,1,1,1,1,1,2,1,1,3,1,2,0,1,2,1,1,2,2,1,2,3,1,3,0,1,3,1,1,3,2,1,3,3,2,0,0,2,0,1,2,0,2,2,0,3,2,1,0,2,1,1,2,1,2,2,1,3,2,2,0,2,2,1,2,2,2,2,2,3,2,3,0,2,3,2,2,3,3,3,0,0,3,0,1,3,0,2,3,0,3,3,1,0,3,1,1,3,1,2,3,1,3,3,2,0,3,2,1,3,2,2,3,2,3,3,3,0,3,3,1,3,3,2,3,3,3,0,0,0,0,0,1,0,0,2,0,0,3,0,1,0,0,1,1,0,1,2,0,1,3,0,2,0,0,2,1,0,2,2,0,2,3,0,3,0,0,3,1,0,3,2,0,3,3,1,0,0,1,0,1,1,0,2,1,0,3,1,1,0,1,1,1,1,1,2,1,1,3,1,2,0,1,2,1,1,2,2,1,2,3,1,3,0,1,3,1,1,3,2,1,3,3,2,0,0,2,0,1,2,0,2,2,0,3,2,1,0,2,1,1,2,1,2,2,1,3,2,2,0,2,2,1,2,2,2,2,2,3,2,3,0,2,3,2,2,3,3,3,0,0,3,0,1,3,0,2,3,0,3,3,1,0,3,1,1,3,1,2,3,1,3,3,2,0,3,2,1,3,2,2,3,2,3,3,3,0,3,3,1,3,3,2,3,3,3,0,0,0,0,0,1,0,0,2,0,0,3,0,1,0,0,1,1,0,1,2,0,1,3,0,2,0,0,2,1,0,2,2,0,2,3,0,3,0,0,3,1,0,3,2,0,3,3,1,0,0,1,0,1,1,0,2,1,0,3,1,1,0,1,1,1,1,1,2,1,1,3,1,2,0,1,2,1,1,2,2,1,2,3,1,3,0,1,3,1,1,3,3,2,0,0,2,0,1,2,0,2,2,0,3,2,1,0,2,1,1,2,1,2,2,1,3,2,2,0,2,2,1,2,2,2,2,2,3,2,3,0,2,3,1,2,3,2,2,3,3,3,0,0,3,0,1,3,0,2,3,0,3,3,1,0,3,1,1,3,1,2,3,1,3,3,2,0,3,2,1,3,2,2,3,2,3,3,3,0,3,3,1,3,3,2,3,3,3,0,0,0,0,0,1,0,0,2,0,0,3,0,1,0,0,1,1,0,1,2,0,1,3,0,2,0,0,2,1,0,2,2,0,2,3,0,3,0,0,3,1,0,3,2,0,3,3,13,0,0,13,0,1,13,0,2,13,0,3,13,1,0,13,1,1,13,1,2,13,1,3,13,2,0,13,2,2,13,2,3,13,3,0,13,3,1,13,3,2,13,3,3,0,0,0,0,0,1,0,0,2,0,0,3,0,2,0,0,2,1,0,2,2,0,2,3,1,0,0,1,0,1,1,0,2,1,0,3,1,2,0,1,2,1,1,2,2,1,2,3,2,0,0,2,0,1,2,0,2,2,0,3,2,2,0,2,2,1,2,2,2,2,2,3,3,0,0,3,0,1,3,0,2,3,0,3,3,2,0,3,2,2,3,2,3,0,0,0,0,0,1,0,0,2,0,0,3,0,1,0,0,1,1,0,1,2,0,1,3,0,2,0,0,2,1,0,2,2,0,2,3,0,3,0,0,3,1,0,3,2,0,3,3,1,0,0,1,0,1,1,0,2,1,0,3,1,1,0,1,1,1,1,1,2,1,1,3,1,2,0,1,2,1,1,2,2,1,2,3,1,3,0,1,3,1,1,3,2,1,3,3,2,0,0,2,0,1,2,0,2,2,0,3,2,1,0,2,1,1,2,1,2,2,1,3,2,2,0,2,2,1,2,2,2,2,2,3,2,3,0,2,3,2,2,3,3,3,0,0,3,0,1,3,0,2,3,0,3,3,1,0,3,1,1,3,1,2,3,1,3,3,2,0,3,2,1,3,2,2,3,2,3,3,3,0,3,3,1,3,3,2,3,3,3,0,0,0,0,0,1,0,0,2,0,0,3,0,1,0,0,1,1,0,1,2,0,1,3,0,2,0,0,2,1,0,2,2,0,2,3,0,3,0,0,3,1,0,3,2,0,3,3,13,0,0,13,0,1,13,0,2,13,0,3,13,1,0,13,1,1,13,1,2,13,1,3,13,2,0,13,2,2,13,2,3,13,3,0,13,3,1,13,3,2,13,3,3,0,0,0,0,0,1,0,0,2,0,0,3,0,1,0,0,1,1,0,1,2,0,1,3,0,2,0,0,2,1,0,2,2,0,2,3,0,3,0,0,3,1,0,3,2,0,3,3,1,0,0,1,0,1,1,0,2,1,0,3,1,1,0,1,1,1,1,1,2,1,1,3,1,2,0,1,2,1,1,2,2,1,2,3,1,3,0,1,3,1,1,3,2,1,3,3,2,0,0,2,0,1,2,0,2,2,0,3,2,1,0,2,1,1,2,1,2,2,1,3,2,2,0,2,2,1,2,2,2,2,2,3,2,3,0,2,3,1,2,3,2,2,3,3,3,0,0,3,0,1,3,0,2,3,0,3,3,1,0,3,1,1,3,1,2,3,1,3,3,2,0,3,2,2,3,2,3,3,3,0,3,3,1,3,3,2,3,3,3,0,0,0,0,0,1,0,0,2,0,0,3,0,1,0,0,1,1,0,1,2,0,1,3,0,2,0,0,2,1,0,2,2,0,2,3,0,3,0,0,3,1,0,3,2,0,3,3,1,0,0,1,0,1,1,0,2,1,0,3,1,1,0,1,1,1,1,1,2,1,1,3,1,2,0,1,2,1,1,2,2,1,2,3,1,3,0,1,3,1,1,3,2,1,3,3,2,0,0,2,0,1,2,0,2,2,0,3,2,1,0,2,1,1,2,1,2,2,1,3,2,2,0,2,2,1,2,2,2,2,2,3,2,3,0,2,3,2,2,3,3,3,0,0,3,0,1,3,0,2,3,0,3,3,1,0,3,1,1,3,1,2,3,1,3,3,2,0,3,2,1,3,2,2,3,2,3,3,3,0,3,3,1,3,3,2,3,3,3,0,0,0,0,0,1,0,0,2,0,0,3,0,1,0,0,1,1,0,1,2,0,1,3,0,2,0,0,2,1,0,2,2,0,2,3,0,3,0,0,3,1,0,3,2,0,3,3,1,0,0,1,0,1,1,0,2,1,0,3,1,1,0,1,1,1,1,1,2,1,1,3,1,2,0,1,2,1,1,2,2,1,3,0,1,3,1,1,3,2,1,3,3,2,0,0,2,0,1,2,0,2,2,0,3,2,1,0,2,1,1,2,1,2,2,1,3,2,2,0,2,2,1,2,2,2,2,2,3,2,3,0,2,3,1,2,3,2,2,3,3,3,0,0,3,0,1,3,0,2,3,0,3,3,1,0,3,1,1,3,1,2,3,1,3,3,2,0,3,2,1,3,2,2,3,2,3,3,3,0,3,3,1,3,3,2,3,3,3,0,0,0,0,0,1,0,0,2,0,0,3,0,1,0,0,1,1,0,1,2,0,1,3,0,2,0,0,2,1,0,2,2,0,2,3,0,3,0,0,3,1,0,3,2,0,3,3,1,0,0,1,0,1,1,0,2,1,0,3,1,1,0,1,1,1,1,1,2,1,1,3,1,2,0,1,2,1,1,2,2,1,2,3,1,3,0,1,3,1,1,3,2,1,3,3,2,0,0,2,0,1,2,0,2,2,0,3,2,1,0,2,1,1,2,1,2,2,2,0,2,2,1,2,2,2,2,2,3,2,3,0,2,3,1,2,3,2,2,3,3,3,0,0,3,0,1,3,0,2,3,0,3,3,1,0,3,1,1,3,1,2,3,1,3,3,2,0,3,2,1,3,2,2,3,2,3,3,3,0,3,3,1,3,3,2,3,3,3,0,0,0,0,0,1,0,0,2,0,0,3,0,1,0,0,1,1,0,1,2,0,1,3,0,2,0,0,2,1,0,2,2,0,2,3,0,3,0,0,3,1,0,3,2,0,3,3,1,0,0,1,0,1,1,0,2,1,0,3,1,1,0,1,1,1,1,1,2,1,1,3,1,2,0,1,2,1,1,2,2,1,2,3,1,3,0,1,3,1,1,3,2,1,3,3,2,0,0,2,0,1,2,0,2,2,0,3,2,1,0,2,1,1,2,1,2,2,1,3,2,2,0,2,2,1,2,2,2,2,2,3,2,3,0,2,3,2,2,3,3,3,0,0,3,0,1,3,0,2,3,0,3,3,1,0,3,1,1,3,1,2,3,1,3,3,2,0,3,2,1,3,2,2,3,2,3,3,3,0,3,3,1,3,3,2,3,3,3,0,0,0,0,0,1,0,0,2,0,0,3,0,1,0,0,1,1,0,1,2,0,1,3,0,2,0,0,2,1,0,2,2,0,2,3,0,3,0,0,3,1,0,3,2,0,3,3,1,0,0,1,0,1,1,0,2,1,0,3,1,1,0,1,1,1,1,1,2,1,1,3,1,2,0,1,2,1,1,2,2,1,2,3,1,3,0,1,3,1,1,3,3,2,0,0,2,0,1,2,0,2,2,0,3,2,1,0,2,1,1,2,1,2,2,1,3,2,2,0,2,2,1,2,2,2,2,2,3,2,3,0,2,3,1,2,3,2,2,3,3,3,0,0,3,0,1,3,0,2,3,0,3,3,1,0,3,1,1,3,1,2,3,1,3,3,2,0,3,2,1,3,2,2,3,2,3,3,3,0,3,3,1,3,3,2,3,3,3,0,0,0,0,0,1,0,0,2,0,0,3,0,1,0,0,1,1,0,1,2,0,1,3,0,2,0,0,2,1,0,2,2,0,2,3,0,3,0,0,3,1,0,3,2,0,3,3,1,0,0,1,0,1,1,0,2,1,0,3,1,1,0,1,1,1,1,1,2,1,1,3,1,2,0,1,2,1,1,2,2,1,2,3,1,3,0,1,3,1,1,3,2,1,3,3,2,0,0,2,0,1,2,0,2,2,0,3,2,1,0,2,1,1,2,1,2,2,1,3,2,2,0,2,2,1,2,2,2,2,2,3,2,3,0,2,3,2,2,3,3,3,0,0,3,0,1,3,0,2,3,0,3,3,1,0,3,1,1,3,1,2,3,1,3,3,2,0,3,2,1,3,2,2,3,2,3,3,3,0,3,3,1,3,3,2,3,3,3,0,0,0,0,0,1,0,0,2,0,0,3,0,1,0,0,1,1,0,1,2,0,1,3,0,2,0,0,2,1,0,2,2,0,2,3,0,3,0,0,3,1,0,3,2,0,3,3,1,0,0,1,0,1,1,0,2,1,0,3,1,1,0,1,1,1,1,1,2,1,1,3,1,2,0,1,2,1,1,2,2,1,2,3,1,3,0,1,3,1,1,3,2,1,3,3,2,0,0,2,0,1,2,0,2,2,0,3,2,1,0,2,1,1,2,1,2,2,1,3,2,2,0,2,2,1,2,2,2,2,2,3,2,3,0,2,3,2,2,3,3,3,0,0,3,0,1,3,0,2,3,0,3,3,1,0,3,1,1,3,1,2,3,1,3,3,2,0,3,2,1,3,2,2,3,2,3,3,3,0,3,3,1,3,3,2,3,3,3,0,0,0,0,0,1,0,0,2,0,0,3,0,1,0,0,1,1,0,1,2,0,1,3,0,2,0,0,2,1,0,2,2,0,2,3,0,3,0,0,3,1,0,3,2,0,3,3,1,0,0,1,0,1,1,0,2,1,0,3,1,1,0,1,1,1,1,1,2,1,1,3,1,2,0,1,2,1,1,2,2,1,2,3,1,3,0,1,3,1,1,3,2,1,3,3,2,0,0,2,0,1,2,0,2,2,0,3,2,1,0,2,1,1,2,1,2,2,2,0,2,2,1,2,2,2,2,2,3,2,3,0,2,3,1,2,3,2,2,3,3,3,0,0,3,0,1,3,0,2,3,0,3,3,1,0,3,1,1,3,1,2,3,1,3,3,2,0,3,2,1,3,2,2,3,2,3,3,3,0,3,3,1,3,3,2,3,3,3,0,0,0,0,0,1,0,0,2,0,0,3,0,1,0,0,1,1,0,1,2,0,1,3,0,2,0,0,2,1,0,2,2,0,2,3,0,3,0,0,3,1,0,3,2,0,3,3,1,0,0,1,0,1,1,0,2,1,0,3,1,1,0,1,1,1,1,1,2,1,1,3,1,2,0,1,2,1,1,2,2,1,2,3,1,3,0,1,3,1,1,3,3,2,0,0,2,0,1,2,0,2,2,0,3,2,1,0,2,1,1,2,1,2,2,1,3,2,2,0,2,2,1,2,2,2,2,2,3,2,3,0,2,3,1,2,3,2,2,3,3,3,0,0,3,0,1,3,0,2,3,0,3,3,1,0,3,1,1,3,1,2,3,1,3,3,2,0,3,2,1,3,2,2,3,2,3,3,3,0,3,3,1,3,3,2,3,3,3,0,0,0,0,0,1,0,0,2,0,0,3,0,1,0,0,1,1,0,1,2,0,1,3,0,2,0,0,2,1,0,2,2,0,2,3,0,3,0,0,3,1,0,3,2,0,3,3,1,0,0,1,0,1,1,0,2,1,0,3,1,1,0,1,1,1,1,1,2,1,1,3,1,2,0,1,2,1,1,2,2,1,2,3,1,3,0,1,3,1,1,3,2,1,3,3,2,0,0,2,0,1,2,0,2,2,0,3,2,1,0,2,1,1,2,1,2,2,1,3,2,2,0,2,2,1,2,2,2,2,2,3,2,3,0,2,3,2,2,3,3,3,0,0,3,0,1,3,0,2,3,0,3,3,1,0,3,1,1,3,1,2,3,1,3,3,2,0,3,2,1,3,2,2,3,2,3,3,3,0,3,3,1,3,3,2,3,3,3,0,0,0,0,0,1,0,0,2,0,0,3,0,1,0,0,1,1,0,1,2,0,1,3,0,2,0,0,2,1,0,2,2,0,2,3,0,3,0,0,3,1,0,3,2,0,3,3,13,0,0,13,0,1,13,0,2,13,0,3,13,1,0,13,1,1,13,1,2,13,1,3,13,2,0,13,2,2,13,2,3,13,3,0,13,3,1,13,3,2,13,3,3,0,0,0,0,0,1,0,0,2,0,0,3,0,1,0,0,1,1,0,1,2,0,1,3,0,2,0,0,2,1,0,2,2,0,2,3,0,3,0,0,3,1,0,3,2,0,3,3,1,0,0,1,0,1,1,0,2,1,0,3,1,1,0,1,1,1,1,1,2,1,1,3,1,2,0,1,2,1,1,2,2,1,3,0,1,3,1,1,3,2,1,3,3,2,0,0,2,0,1,2,0,2,2,0,3,2,1,0,2,1,1,2,1,2,2,1,3,2,2,0,2,2,1,2,2,2,2,2,3,2,3,0,2,3,1,2,3,2,2,3,3,3,0,0,3,0,1,3,0,2,3,0,3,3,1,0,3,1,1,3,1,2,3,1,3,3,2,0,3,2,1,3,2,2,3,2,3,3,3,0,3,3,1,3,3,2,3,3,3,0,0,0,0,0,1,0,0,2,0,0,3,0,2,0,0,2,1,0,2,2,0,2,3,1,0,0,1,0,1,1,0,2,1,0,3,1,2,0,1,2,1,1,2,2,1,2,3,2,0,0,2,0,1,2,0,2,2,0,3,2,2,0,2,2,1,2,2,2,2,2,3,3,0,0,3,0,1,3,0,2,3,0,3,3,2,0,3,2,2,3,2,3,0,0,0,0,0,2,0,1,0,0,1,2,0,2,0,0,2,2,0,3,0,0,3,2,1,0,0,1,0,2,1,1,0,1,1,2,1,2,0,1,2,2,1,3,0,1,3,2,2,0,0,2,0,2,2,1,0,2,1,2,2,2,0,2,2,2,2,3,0,2,3,2,3,0,0,3,0,2,3,1,0,3,2,0,3,2,2,3,3,0,3,3,2,0,0,0,0,0,1,0,0,2,0,0,3,0,1,0,0,1,1,0,1,2,0,1,3,0,2,0,0,2,1,0,2,2,0,2,3,0,3,0,0,3,1,0,3,2,0,3,3,1,0,0,1,0,1,1,0,2,1,0,3,1,1,0,1,1,1,1,1,2,1,1,3,1,2,0,1,2,1,1,2,2,1,2,3,1,3,0,1,3,1,1,3,3,2,0,0,2,0,1,2,0,2,2,0,3,2,1,0,2,1,1,2,1,2,2,1,3,2,2,0,2,2,1,2,2,2,2,2,3,2,3,0,2,3,1,2,3,2,2,3,3,3,0,0,3,0,1,3,0,2,3,0,3,3,1,0,3,1,1,3,1,2,3,1,3,3,2,0,3,2,1,3,2,2,3,2,3,3,3,0,3,3,1,3,3,2,3,3,3,0,0,0,0,0,1,0,0,2,0,0,3,0,1,0,0,1,1,0,1,2,0,1,3,0,2,0,0,2,1,0,2,2,0,2,3,0,3,0,0,3,1,0,3,2,0,3,3,1,0,0,1,0,1,1,0,2,1,0,3,1,1,0,1,1,1,1,1,2,1,1,3,1,2,0,1,2,1,1,2,2,1,2,3,1,3,0,1,3,1,1,3,2,1,3,3,2,0,0,2,0,1,2,0,2,2,0,3,2,1,0,2,1,1,2,1,2,2,2,0,2,2,1,2,2,2,2,2,3,2,3,0,2,3,1,2,3,2,2,3,3,3,0,0,3,0,1,3,0,2,3,0,3,3,1,0,3,1,1,3,1,2,3,1,3,3,2,0,3,2,1,3,2,2,3,2,3,3,3,0,3,3,1,3,3,2,3,3,3,0,0,0,0,0,1,0,0,2,0,0,3,0,1,0,0,1,1,0,1,2,0,1,3,0,2,0,0,2,1,0,2,2,0,2,3,0,3,0,0,3,1,0,3,2,0,3,3,1,0,0,1,0,1,1,0,2,1,0,3,1,1,0,1,1,1,1,1,2,1,1,3,1,2,0,1,2,1,1,2,2,1,2,3,1,3,0,1,3,1,1,3,2,1,3,3,2,0,0,2,0,1,2,0,2,2,0,3,2,1,0,2,1,1,2,1,2,2,1,3,2,2,0,2,2,1,2,2,2,2,2,3,2,3,0,2,3,2,2,3,3,3,0,0,3,0,1,3,0,2,3,0,3,3,1,0,3,1,1,3,1,2,3,1,3,3,2,0,3,2,1,3,2,2,3,2,3,3,3,0,3,3,1,3,3,2,3,3,3,0,0,0,0,0,1,0,0,2,0,0,3,0,1,0,0,1,1,0,1,2,0,1,3,0,2,0,0,2,1,0,2,2,0,2,3,0,3,0,0,3,1,0,3,2,0,3,3,1,0,0,1,0,1,1,0,2,1,0,3,1,1,0,1,1,1,1,1,2,1,1,3,1,2,0,1,2,1,1,2,2,1,2,3,1,3,0,1,3,1,1,3,2,1,3,3,2,0,0,2,0,1,2,0,2,2,0,3,2,1,0,2,1,1,2,1,2,2,1,3,2,2,0,2,2,1,2,2,2,2,2,3,2,3,0,2,3,2,2,3,3,3,0,0,3,0,1,3,0,2,3,0,3,3,1,0,3,1,1,3,1,2,3,1,3,3,2,0,3,2,1,3,2,2,3,2,3,3,3,0,3,3,1,3,3,2,3,3,3,0,0,0,0,0,1,0,0,2,0,0,3,0,1,0,0,1,1,0,1,2,0,1,3,0,2,0,0,2,1,0,2,2,0,2,3,0,3,0,0,3,1,0,3,2,0,3,3,13,0,0,13,0,1,13,0,2,13,0,3,13,1,0,13,1,1,13,1,2,13,1,3,13,2,0,13,2,2,13,2,3,13,3,0,13,3,1,13,3,2,13,3,3,0,0,0,0,0,1,0,0,2,0,0,3,0,1,0,0,1,1,0,1,2,0,1,3,0,2,0,0,2,1,0,2,2,0,2,3,0,3,0,0,3,1,0,3,2,0,3,3,1,0,0,1,0,1,1,0,2,1,0,3,1,1,0,1,1,1,1,1,2,1,1,3,1,2,0,1,2,1,1,2,2,1,2,3,1,3,0,1,3,1,1,3,2,1,3,3,2,0,0,2,0,1,2,0,2,2,0,3,2,1,0,2,1,1,2,1,2,2,1,3,2,2,0,2,2,1,2,2,2,2,2,3,2,3,0,2,3,1,2,3,2,2,3,3,3,0,0,3,0,1,3,0,2,3,0,3,3,1,0,3,1,1,3,1,3,3,2,0,3,2,1,3,2,2,3,2,3,3,3,0,3,3,1,3,3,2,3,3,3,0,0,0,0,0,1,0,0,2,0,0,3,0,1,0,0,1,1,0,1,2,0,1,3,0,2,0,0,2,1,0,2,2,0,2,3,0,3,0,0,3,1,0,3,2,0,3,3,1,0,0,1,0,1,1,0,2,1,0,3,1,1,0,1,1,1,1,1,2,1,1,3,1,2,0,1,2,1,1,2,2,1,2,3,1,3,0,1,3,1,1,3,2,1,3,3,2,0,0,2,0,1,2,0,2,2,0,3,2,1,0,2,1,1,2,1,2,2,1,3,2,2,0,2,2,1,2,2,2,2,2,3,2,3,0,2,3,2,2,3,3,3,0,0,3,0,1,3,0,2,3,0,3,3,1,0,3,1,1,3,1,2,3,1,3,3,2,0,3,2,1,3,2,2,3,2,3,3,3,0,3,3,1,3,3,2,3,3,3,0,0,0,0,0,1,0,0,2,0,0,3,0,1,0,0,1,1,0,1,2,0,1,3,0,2,0,0,2,1,0,2,2,0,2,3,0,3,0,0,3,1,0,3,2,0,3,3,1,0,0,1,0,1,1,0,2,1,0,3,1,1,0,1,1,1,1,1,2,1,1,3,1,2,0,1,2,1,1,2,2,1,2,3,1,3,0,1,3,1,1,3,2,1,3,3,2,0,0,2,0,1,2,0,2,2,0,3,2,1,0,2,1,1,2,1,2,2,1,3,2,2,0,2,2,1,2,2,2,2,2,3,2,3,0,2,3,2,2,3,3,3,0,0,3,0,1,3,0,2,3,0,3,3,1,0,3,1,1,3,1,2,3,1,3,3,2,0,3,2,1,3,2,2,3,2,3,3,3,0,3,3,1,3,3,2,3,3,3,0,0,0,0,0,1,0,0,2,0,0,3,0,1,0,0,1,1,0,1,2,0,1,3,0,2,0,0,2,1,0,2,2,0,2,3,0,3,0,0,3,1,0,3,2,0,3,3,13,0,0,13,0,1,13,0,2,13,0,3,13,1,0,13,1,1,13,1,2,13,1,3,13,2,0,13,2,2,13,2,3,13,3,0,13,3,1,13,3,2,13,3,3,0,0,0,0,0,1,0,0,2,0,0,3,0,1,0,0,1,1,0,1,2,0,1,3,0,2,0,0,2,1,0,2,2,0,2,3,0,3,0,0,3,1,0,3,2,0,3,3,13,0,0,13,0,1,13,0,2,13,0,3,13,1,0,13,1,1,13,1,2,13,1,3,13,2,0,13,2,2,13,2,3,13,3,0,13,3,1,13,3,2,13,3,3,0,0,0,0,0,1,0,0,2,0,0,3,0,1,0,0,1,1,0,1,2,0,1,3,0,2,0,0,2,1,0,2,2,0,2,3,0,3,0,0,3,1,0,3,2,0,3,3,1,0,0,1,0,1,1,0,2,1,0,3,1,1,0,1,1,1,1,1,2,1,1,3,1,2,0,1,2,1,1,2,2,1,2,3,1,3,0,1,3,1,1,3,2,1,3,3,2,0,0,2,0,1,2,0,2,2,0,3,2,1,0,2,1,1,2,1,2,2,1,3,2,2,0,2,2,1,2,2,2,2,2,3,2,3,0,2,3,2,2,3,3,3,0,0,3,0,1,3,0,2,3,0,3,3,1,0,3,1,1,3,1,2,3,1,3,3,2,0,3,2,1,3,2,2,3,2,3,3,3,0,3,3,1,3,3,2,3,3,3,0,0,0,0,0,1,0,0,2,0,0,3,0,1,0,0,1,1,0,1,2,0,1,3,0,2,0,0,2,1,0,2,2,0,2,3,0,3,0,0,3,1,0,3,2,0,3,3,1,0,0,1,0,1,1,0,2,1,0,3,1,1,0,1,1,1,1,1,2,1,1,3,1,2,0,1,2,1,1,2,2,1,2,3,1,3,0,1,3,1,1,3,3,2,0,0,2,0,1,2,0,2,2,0,3,2,1,0,2,1,1,2,1,2,2,1,3,2,2,0,2,2,1,2,2,2,2,2,3,2,3,0,2,3,1,2,3,2,2,3,3,3,0,0,3,0,1,3,0,2,3,0,3,3,1,0,3,1,1,3,1,2,3,1,3,3,2,0,3,2,1,3,2,2,3,2,3,3,3,0,3,3,1,3,3,2,3,3,3,0,0,0,0,0,1,0,0,2,0,0,3,0,1,0,0,1,1,0,1,2,0,1,3,0,2,0,0,2,1,0,2,2,0,2,3,0,3,0,0,3,1,0,3,2,0,3,3,1,0,0,1,0,1,1,0,2,1,0,3,1,1,0,1,1,1,1,1,2,1,1,3,1,2,0,1,2,1,1,2,2,1,3,0,1,3,1,1,3,2,1,3,3,2,0,0,2,0,1,2,0,2,2,0,3,2,1,0,2,1,1,2,1,2,2,1,3,2,2,0,2,2,1,2,2,2,2,2,3,2,3,0,2,3,1,2,3,2,2,3,3,3,0,0,3,0,1,3,0,2,3,0,3,3,1,0,3,1,1,3,1,2,3,1,3,3,2,0,3,2,1,3,2,2,3,2,3,3,3,0,3,3,1,3,3,2,3,3,3,0,0,0,0,0,1,0,0,2,0,0,3,0,1,0,0,1,1,0,1,2,0,1,3,0,2,0,0,2,1,0,2,2,0,2,3,0,3,0,0,3,1,0,3,2,0,3,3,1,0,0,1,0,1,1,0,2,1,0,3,1,1,0,1,1,1,1,1,2,1,1,3,1,2,0,1,2,1,1,2,2,1,2,3,1,3,0,1,3,1,1,3,3,2,0,0,2,0,1,2,0,2,2,0,3,2,1,0,2,1,1,2,1,2,2,1,3,2,2,0,2,2,1,2,2,2,2,2,3,2,3,0,2,3,1,2,3,2,2,3,3,3,0,0,3,0,1,3,0,2,3,0,3,3,1,0,3,1,1,3,1,2,3,1,3,3,2,0,3,2,1,3,2,2,3,2,3,3,3,0,3,3,1,3,3,2,3,3,3,0,0,0,0,0,1,0,0,2,0,0,3,0,1,0,0,1,1,0,1,2,0,1,3,0,2,0,0,2,1,0,2,2,0,2,3,0,3,0,0,3,1,0,3,2,0,3,3,1,0,0,1,0,1,1,0,2,1,0,3,1,1,0,1,1,1,1,1,2,1,1,3,1,2,0,1,2,1,1,2,2,1,2,3,1,3,0,1,3,1,1,3,2,1,3,3,2,0,0,2,0,1,2,0,2,2,0,3,2,1,0,2,1,1,2,1,2,2,1,3,2,2,0,2,2,1,2,2,2,2,2,3,2,3,0,2,3,2,2,3,3,3,0,0,3,0,1,3,0,2,3,0,3,3,1,0,3,1,1,3,1,2,3,1,3,3,2,0,3,2,1,3,2,2,3,2,3,3,3,0,3,3,1,3,3,2,3,3,3,0,0,0,0,0,1,0,0,2,0,0,3,0,1,0,0,1,1,0,1,2,0,1,3,0,2,0,0,2,1,0,2,2,0,2,3,0,3,0,0,3,1,0,3,2,0,3,3,1,0,0,1,0,1,1,0,2,1,0,3,1,1,0,1,1,1,1,1,2,1,1,3,1,2,0,1,2,1,1,2,2,1,2,3,1,3,0,1,3,1,1,3,3,2,0,0,2,0,1,2,0,2,2,0,3,2,1,0,2,1,1,2,1,2,2,1,3,2,2,0,2,2,1,2,2,2,2,2,3,2,3,0,2,3,1,2,3,2,2,3,3,3,0,0,3,0,1,3,0,2,3,0,3,3,1,0,3,1,1,3,1,2,3,1,3,3,2,0,3,2,1,3,2,2,3,2,3,3,3,0,3,3,1,3,3,2,3,3,3,0,0,0,0,0,1,0,0,2,0,0,3,0,1,0,0,1,1,0,1,2,0,1,3,0,2,0,0,2,1,0,2,2,0,2,3,0,3,0,0,3,1,0,3,2,0,3,3,1,0,0,1,0,1,1,0,2,1,0,3,1,1,0,1,1,1,1,1,2,1,1,3,1,2,0,1,2,1,1,2,2,1,2,3,1,3,0,1,3,1,1,3,2,1,3,3,2,0,0,2,0,1,2,0,2,2,0,3,2,1,0,2,1,1,2,1,2,2,1,3,2,2,0,2,2,1,2,2,2,2,2,3,2,3,0,2,3,1,2,3,2,2,3,3,3,0,0,3,0,1,3,0,2,3,0,3,3,1,0,3,1,1,3,1,3,3,2,0,3,2,1,3,2,2,3,2,3,3,3,0,3,3,1,3,3,2,3,3,3,0,0,0,0,0,1,0,0,2,0,0,3,0,1,0,0,1,1,0,1,2,0,1,3,0,2,0,0,2,1,0,2,2,0,2,3,0,3,0,0,3,1,0,3,2,0,3,3,1,0,0,1,0,1,1,0,2,1,0,3,1,1,0,1,1,1,1,1,2,1,1,3,1,2,0,1,2,1,1,2,2,1,2,3,1,3,0,1,3,1,1,3,2,1,3,3,2,0,0,2,0,1,2,0,2,2,0,3,2,1,0,2,1,1,2,1,2,2,1,3,2,2,0,2,2,1,2,2,2,2,2,3,2,3,0,2,3,2,2,3,3,3,0,0,3,0,1,3,0,2,3,0,3,3,1,0,3,1,1,3,1,2,3,1,3,3,2,0,3,2,1,3,2,2,3,2,3,3,3,0,3,3,1,3,3,2,3,3,3,0,0,0,0,0,1,0,0,2,0,0,3,0,1,0,0,1,1,0,1,2,0,1,3,0,2,0,0,2,1,0,2,2,0,2,3,0,3,0,0,3,1,0,3,2,0,3,3,13,0,0,13,0,1,13,0,2,13,0,3,13,1,0,13,1,1,13,1,2,13,1,3,13,2,0,13,2,2,13,2,3,13,3,0,13,3,1,13,3,2,13,3,3,0,0,0,0,0,1,0,0,2,0,0,3,0,1,0,0,1,1,0,1,2,0,1,3,0,2,0,0,2,1,0,2,2,0,2,3,0,3,0,0,3,1,0,3,2,0,3,3,1,0,0,1,0,1,1,0,2,1,0,3,1,1,0,1,1,1,1,1,2,1,1,3,1,2,0,1,2,1,1,2,2,1,2,3,1,3,0,1,3,1,1,3,2,1,3,3,2,0,0,2,0,1,2,0,2,2,0,3,2,1,0,2,1,1,2,1,2,2,1,3,2,2,0,2,2,1,2,2,2,2,2,3,2,3,0,2,3,2,2,3,3,3,0,0,3,0,1,3,0,2,3,0,3,3,1,0,3,1,1,3,1,2,3,1,3,3,2,0,3,2,1,3,2,2,3,2,3,3,3,0,3,3,1,3,3,2,3,3,3,0,0,0,0,0,1,0,0,2,0,0,3,0,1,0,0,1,1,0,1,2,0,1,3,0,2,0,0,2,1,0,2,2,0,2,3,0,3,0,0,3,1,0,3,2,0,3,3,1,0,0,1,0,1,1,0,2,1,0,3,1,1,0,1,1,1,1,1,2,1,1,3,1,2,0,1,2,1,1,2,2,1,2,3,1,3,0,1,3,1,1,3,2,1,3,3,2,0,0,2,0,1,2,0,2,2,0,3,2,1,0,2,1,1,2,1,2,2,1,3,2,2,0,2,2,1,2,2,2,2,2,3,2,3,0,2,3,1,2,3,2,2,3,3,3,0,0,3,0,1,3,0,2,3,0,3,3,1,0,3,1,1,3,1,2,3,1,3,3,2,0,3,2,2,3,2,3,3,3,0,3,3,1,3,3,2,3,3,3,0,0,0,0,0,1,0,0,2,0,0,3,0,1,0,0,1,1,0,1,2,0,1,3,0,2,0,0,2,1,0,2,2,0,2,3,0,3,0,0,3,1,0,3,2,0,3,3,1,0,0,1,0,1,1,0,2,1,0,3,1,1,0,1,1,1,1,1,2,1,1,3,1,2,0,1,2,1,1,2,2,1,2,3,1,3,0,1,3,1,1,3,2,1,3,3,2,0,0,2,0,1,2,0,2,2,0,3,2,1,0,2,1,1,2,1,2,2,1,3,2,2,0,2,2,1,2,2,2,2,2,3,2,3,0,2,3,2,2,3,3,3,0,0,3,0,1,3,0,2,3,0,3,3,1,0,3,1,1,3,1,2,3,1,3,3,2,0,3,2,1,3,2,2,3,2,3,3,3,0,3,3,1,3,3,2,3,3,3,0,0,0,0,0,1,0,0,2,0,0,3,0,1,0,0,1,1,0,1,2,0,1,3,0,2,0,0,2,1,0,2,2,0,2,3,0,3,0,0,3,1,0,3,2,0,3,3,13,0,0,13,0,1,13,0,2,13,0,3,13,1,0,13,1,1,13,1,2,13,1,3,13,2,0,13,2,1,13,2,2,13,2,3,13,3,0,13,3,1,13,3,3,0,0,0,0,0,1,0,0,2,0,0,3,0,1,0,0,1,1,0,1,2,0,1,3,0,2,0,0,2,1,0,2,2,0,2,3,0,3,0,0,3,1,0,3,2,0,3,3,1,0,0,1,0,1,1,0,2,1,0,3,1,1,0,1,1,1,1,1,2,1,1,3,1,2,0,1,2,1,1,2,2,1,2,3,1,3,0,1,3,1,1,3,2,1,3,3,2,0,0,2,0,1,2,0,2,2,0,3,2,1,0,2,1,1,2,1,2,2,1,3,2,2,0,2,2,1,2,2,2,2,2,3,2,3,0,2,3,2,2,3,3,3,0,0,3,0,1,3,0,2,3,0,3,3,1,0,3,1,1,3,1,2,3,1,3,3,2,0,3,2,1,3,2,2,3,2,3,3,3,0,3,3,1,3,3,2,3,3,3,0,0,0,0,0,1,0,0,2,0,0,3,0,1,0,0,1,1,0,1,2,0,1,3,0,2,0,0,2,1,0,2,2,0,2,3,0,3,0,0,3,1,0,3,2,0,3,3,1,0,0,1,0,1,1,0,2,1,0,3,1,1,0,1,1,1,1,1,2,1,1,3,1,2,0,1,2,1,1,2,2,1,2,3,1,3,0,1,3,1,1,3,2,1,3,3,2,0,0,2,0,1,2,0,2,2,0,3,2,1,0,2,1,1,2,1,2,2,1,3,2,2,0,2,2,1,2,2,2,2,2,3,2,3,0,2,3,2,2,3,3,3,0,0,3,0,1,3,0,2,3,0,3,3,1,0,3,1,1,3,1,2,3,1,3,3,2,0,3,2,1,3,2,2,3,2,3,3,3,0,3,3,1,3,3,2,3,3,3,0,0,0,0,0,1,0,0,2,0,0,3,0,1,0,0,1,1,0,1,2,0,1,3,0,2,0,0,2,1,0,2,2,0,2,3,0,3,0,0,3,1,0,3,2,0,3,3,1,0,0,1,0,1,1,0,2,1,0,3,1,1,0,1,1,1,1,1,2,1,1,3,1,2,0,1,2,1,1,2,2,1,2,3,1,3,0,1,3,1,1,3,2,1,3,3,2,0,0,2,0,1,2,0,2,2,0,3,2,1,0,2,1,1,2,1,2,2,1,3,2,2,0,2,2,1,2,2,2,2,2,3,2,3,0,2,3,1,2,3,2,2,3,3,3,0,0,3,0,1,3,0,2,3,0,3,3,1,0,3,1,1,3,1,2,3,1,3,3,2,0,3,2,2,3,2,3,3,3,0,3,3,1,3,3,2,3,3,3,0,0,0,0,0,1,0,0,2,0,0,3,0,1,0,0,1,1,0,1,2,0,1,3,0,2,0,0,2,1,0,2,2,0,2,3,0,3,0,0,3,1,0,3,2,0,3,3,1,0,0,1,0,1,1,0,2,1,0,3,1,1,0,1,1,1,1,1,2,1,1,3,1,2,0,1,2,1,1,2,2,1,2,3,1,3,0,1,3,1,1,3,2,1,3,3,2,0,0,2,0,1,2,0,2,2,0,3,2,1,0,2,1,1,2,1,2,2,2,0,2,2,1,2,2,2,2,2,3,2,3,0,2,3,1,2,3,2,2,3,3,3,0,0,3,0,1,3,0,2,3,0,3,3,1,0,3,1,1,3,1,2,3,1,3,3,2,0,3,2,1,3,2,2,3,2,3,3,3,0,3,3,1,3,3,2,3,3,3,0,0,0,0,0,1,0,0,2,0,0,3,0,1,0,0,1,1,0,1,2,0,1,3,0,2,0,0,2,1,0,2,2,0,2,3,0,3,0,0,3,1,0,3,2,0,3,3,1,0,0,1,0,1,1,0,2,1,0,3,1,1,0,1,1,1,1,1,2,1,1,3,1,2,0,1,2,1,1,2,2,1,2,3,1,3,0,1,3,1,1,3,2,1,3,3,2,0,0,2,0,1,2,0,2,2,0,3,2,1,0,2,1,1,2,1,2,2,1,3,2,2,0,2,2,1,2,2,2,2,2,3,2,3,0,2,3,2,2,3,3,3,0,0,3,0,1,3,0,2,3,0,3,3,1,0,3,1,1,3,1,2,3,1,3,3,2,0,3,2,1,3,2,2,3,2,3,3,3,0,3,3,1,3,3,2,3,3,3,0,0,0,0,0,1,0,0,2,0,0,3,0,1,0,0,1,1,0,1,2,0,1,3,0,2,0,0,2,1,0,2,2,0,2,3,0,3,0,0,3,1,0,3,2,0,3,3,1,0,0,1,0,1,1,0,2,1,0,3,1,1,0,1,1,1,1,1,2,1,1,3,1,2,0,1,2,1,1,2,2,1,2,3,1,3,0,1,3,1,1,3,2,1,3,3,2,0,0,2,0,1,2,0,2,2,0,3,2,1,0,2,1,1,2,1,2,2,1,3,2,2,0,2,2,1,2,2,2,2,2,3,2,3,0,2,3,2,2,3,3,3,0,0,3,0,1,3,0,2,3,0,3,3,1,0,3,1,1,3,1,2,3,1,3,3,2,0,3,2,1,3,2,2,3,2,3,3,3,0,3,3,1,3,3,2,3,3,3,0,0,0,0,0,1,0,0,2,0,0,3,0,1,0,0,1,1,0,1,2,0,1,3,0,2,0,0,2,1,0,2,2,0,2,3,0,3,0,0,3,1,0,3,2,0,3,3,1,0,0,1,0,1,1,0,2,1,0,3,1,1,0,1,1,1,1,1,2,1,1,3,1,2,0,1,2,1,1,2,2,1,2,3,1,3,0,1,3,1,1,3,3,2,0,0,2,0,1,2,0,2,2,0,3,2,1,0,2,1,1,2,1,2,2,1,3,2,2,0,2,2,1,2,2,2,2,2,3,2,3,0,2,3,1,2,3,2,2,3,3,3,0,0,3,0,1,3,0,2,3,0,3,3,1,0,3,1,1,3,1,2,3,1,3,3,2,0,3,2,1,3,2,2,3,2,3,3,3,0,3,3,1,3,3,2,3,3,3,0,0,0,0,0,1,0,0,2,0,0,3,0,1,0,0,1,1,0,1,2,0,1,3,0,2,0,0,2,1,0,2,2,0,2,3,0,3,0,0,3,1,0,3,2,0,3,3,1,0,0,1,0,1,1,0,2,1,0,3,1,1,0,1,1,1,1,1,2,1,1,3,1,2,0,1,2,1,1,2,2,1,2,3,1,3,0,1,3,1,1,3,2,1,3,3,2,0,0,2,0,1,2,0,2,2,0,3,2,1,0,2,1,1,2,1,2,2,2,0,2,2,1,2,2,2,2,2,3,2,3,0,2,3,1,2,3,2,2,3,3,3,0,0,3,0,1,3,0,2,3,0,3,3,1,0,3,1,1,3,1,2,3,1,3,3,2,0,3,2,1,3,2,2,3,2,3,3,3,0,3,3,1,3,3,2,3,3,3,0,0,0,0,0,1,0,0,2,0,0,3,0,1,0,0,1,1,0,1,2,0,1,3,0,2,0,0,2,1,0,2,2,0,2,3,0,3,0,0,3,1,0,3,2,0,3,3,13,0,0,13,0,1,13,0,2,13,0,3,13,1,0,13,1,1,13,1,2,13,1,3,13,2,0,13,2,2,13,2,3,13,3,0,13,3,1,13,3,2,13,3,3,0,0,0,0,0,1,0,0,2,0,0,3,0,1,0,0,1,1,0,1,2,0,1,3,0,2,0,0,2,1,0,2,2,0,2,3,0,3,0,0,3,1,0,3,2,0,3,3,1,0,0,1,0,1,1,0,2,1,0,3,1,1,0,1,1,1,1,1,2,1,1,3,1,2,0,1,2,1,1,2,2,1,2,3,1,3,0,1,3,1,1,3,3,2,0,0,2,0,1,2,0,2,2,0,3,2,1,0,2,1,1,2,1,2,2,1,3,2,2,0,2,2,1,2,2,2,2,2,3,2,3,0,2,3,1,2,3,2,2,3,3,3,0,0,3,0,1,3,0,2,3,0,3,3,1,0,3,1,1,3,1,2,3,1,3,3,2,0,3,2,1,3,2,2,3,2,3,3,3,0,3,3,1,3,3,2,3,3,3,0,0,0,0,0,1,0,0,2,0,0,3,0,1,0,0,1,1,0,1,2,0,1,3,0,2,0,0,2,1,0,2,2,0,2,3,0,3,0,0,3,1,0,3,2,0,3,3,13,0,0,13,0,1,13,0,2,13,0,3,13,1,0,13,1,1,13,1,2,13,1,3,13,2,0,13,2,2,13,2,3,13,3,0,13,3,1,13,3,2,13,3,3,0,0,0,0,0,1,0,0,2,0,0,3,0,1,0,0,1,1,0,1,2,0,1,3,0,2,0,0,2,1,0,2,2,0,2,3,0,3,0,0,3,1,0,3,2,0,3,3,1,0,0,1,0,1,1,0,2,1,0,3,1,1,0,1,1,1,1,1,2,1,1,3,1,2,0,1,2,1,1,2,2,1,2,3,1,3,0,1,3,1,1,3,2,1,3,3,2,0,0,2,0,1,2,0,2,2,0,3,2,1,0,2,1,1,2,1,2,2,1,3,2,2,0,2,2,1,2,2,2,2,2,3,2,3,0,2,3,2,2,3,3,3,0,0,3,0,1,3,0,2,3,0,3,3,1,0,3,1,1,3,1,2,3,1,3,3,2,0,3,2,1,3,2,2,3,2,3,3,3,0,3,3,1,3,3,2,3,3,3,0,0,0,0,0,1,0,0,2,0,0,3,0,1,0,0,1,1,0,1,2,0,1,3,0,2,0,0,2,1,0,2,2,0,2,3,0,3,0,0,3,1,0,3,2,0,3,3,1,0,0,1,0,1,1,0,2,1,0,3,1,1,0,1,1,1,1,1,2,1,1,3,1,2,0,1,2,1,1,2,2,1,2,3,1,3,0,1,3,1,1,3,2,1,3,3,2,0,0,2,0,1,2,0,2,2,0,3,2,1,0,2,1,1,2,1,2,2,1,3,2,2,0,2,2,1,2,2,2,2,2,3,2,3,0,2,3,2,2,3,3,3,0,0,3,0,1,3,0,2,3,0,3,3,1,0,3,1,1,3,1,2,3,1,3,3,2,0,3,2,1,3,2,2,3,2,3,3,3,0,3,3,1,3,3,2,3,3,3,0,0,0,0,0,1,0,0,2,0,0,3,0,1,0,0,1,1,0,1,2,0,1,3,0,2,0,0,2,1,0,2,2,0,2,3,0,3,0,0,3,1,0,3,2,0,3,3,13,0,0,13,0,1,13,0,2,13,0,3,13,1,0,13,1,1,13,1,2,13,1,3,13,2,0,13,2,2,13,2,3,13,3,0,13,3,1,13,3,2,13,3,3,0,0,0,0,0,1,0,0,2,0,0,3,0,1,0,0,1,1,0,1,2,0,1,3,0,2,0,0,2,1,0,2,2,0,2,3,0,3,0,0,3,1,0,3,2,0,3,3,13,0,0,13,0,1,13,0,2,13,0,3,13,1,0,13,1,1,13,1,2,13,1,3,13,2,0,13,2,2,13,2,3,13,3,0,13,3,1,13,3,2,13,3,3,0,0,0,0,0,1,0,0,2,0,0,3,0,1,0,0,1,1,0,1,2,0,1,3,0,2,0,0,2,1,0,2,2,0,2,3,0,3,0,0,3,1,0,3,2,0,3,3,1,0,0,1,0,1,1,0,2,1,0,3,1,1,0,1,1,1,1,1,2,1,1,3,1,2,0,1,2,1,1,2,2,1,2,3,1,3,0,1,3,1,1,3,2,1,3,3,2,0,0,2,0,1,2,0,2,2,0,3,2,1,0,2,1,1,2,1,2,2,1,3,2,2,0,2,2,1,2,2,2,2,2,3,2,3,0,2,3,2,2,3,3,3,0,0,3,0,1,3,0,2,3,0,3,3,1,0,3,1,1,3,1,2,3,1,3,3,2,0,3,2,1,3,2,2,3,2,3,3,3,0,3,3,1,3,3,2,3,3,3,0,0,0,0,0,1,0,0,2,0,0,3,0,1,0,0,1,1,0,1,2,0,1,3,0,2,0,0,2,1,0,2,2,0,2,3,0,3,0,0,3,1,0,3,2,0,3,3,1,0,0,1,0,1,1,0,2,1,0,3,1,1,0,1,1,1,1,1,2,1,1,3,1,2,0,1,2,1,1,2,2,1,2,3,1,3,0,1,3,1,1,3,2,1,3,3,2,0,0,2,0,1,2,0,2,2,0,3,2,1,0,2,1,1,2,1,2,2,1,3,2,2,0,2,2,1,2,2,2,2,2,3,2,3,0,2,3,1,2,3,2,2,3,3,3,0,0,3,0,1,3,0,2,3,0,3,3,1,0,3,1,1,3,1,3,3,2,0,3,2,1,3,2,2,3,2,3,3,3,0,3,3,1,3,3,2,3,3,3,0,0,0,0,0,1,0,0,2,0,0,3,0,1,0,0,1,1,0,1,2,0,1,3,0,2,0,0,2,1,0,2,2,0,2,3,0,3,0,0,3,1,0,3,2,0,3,3,1,0,0,1,0,1,1,0,2,1,0,3,1,1,0,1,1,1,1,1,2,1,1,3,1,2,0,1,2,1,1,2,2,1,2,3,1,3,0,1,3,1,1,3,2,1,3,3,2,0,0,2,0,1,2,0,2,2,0,3,2,1,0,2,1,1,2,1,2,2,1,3,2,2,0,2,2,1,2,2,2,2,2,3,2,3,0,2,3,2,2,3,3,3,0,0,3,0,1,3,0,2,3,0,3,3,1,0,3,1,1,3,1,2,3,1,3,3,2,0,3,2,1,3,2,2,3,2,3,3,3,0,3,3,1,3,3,2,3,3,3,0,0,0,0,0,1,0,0,2,0,0,3,0,1,0,0,1,1,0,1,2,0,1,3,0,2,0,0,2,1,0,2,2,0,2,3,0,3,0,0,3,1,0,3,2,0,3,3,1,0,0,1,0,1,1,0,2,1,0,3,1,1,0,1,1,1,1,1,2,1,1,3,1,2,0,1,2,1,1,2,2,1,2,3,1,3,0,1,3,1,1,3,2,1,3,3,2,0,0,2,0,1,2,0,2,2,0,3,2,1,0,2,1,1,2,1,2,2,1,3,2,2,0,2,2,1,2,2,2,2,2,3,2,3,0,2,3,2,2,3,3,3,0,0,3,0,1,3,0,2,3,0,3,3,1,0,3,1,1,3,1,2,3,1,3,3,2,0,3,2,1,3,2,2,3,2,3,3,3,0,3,3,1,3,3,2,3,3,3,0,0,0,0,0,1,0,0,2,0,0,3,0,1,0,0,1,1,0,1,2,0,1,3,0,2,0,0,2,1,0,2,2,0,2,3,0,3,0,0,3,1,0,3,2,0,3,3,1,0,0,1,0,1,1,0,2,1,0,3,1,1,0,1,1,1,1,1,2,1,1,3,1,2,0,1,2,1,1,2,2,1,2,3,1,3,0,1,3,1,1,3,2,1,3,3,2,0,0,2,0,1,2,0,2,2,0,3,2,1,0,2,1,1,2,1,2,2,1,3,2,2,0,2,2,1,2,2,2,2,2,3,2,3,0,2,3,2,2,3,3,3,0,0,3,0,1,3,0,2,3,0,3,3,1,0,3,1,1,3,1,2,3,1,3,3,2,0,3,2,1,3,2,2,3,2,3,3,3,0,3,3,1,3,3,2,3,3,3,0,0,0,0,0,1,0,0,2,0,0,3,0,1,0,0,1,1,0,1,2,0,1,3,0,2,0,0,2,1,0,2,2,0,2,3,0,3,0,0,3,1,0,3,2,0,3,3,13,0,0,13,0,1,13,0,2,13,0,3,13,1,0,13,1,1,13,1,2,13,1,3,13,2,0,13,2,2,13,2,3,13,3,0,13,3,1,13,3,2,13,3,3,0,0,0,0,0,1,0,0,2,0,0,3,0,1,0,0,1,1,0,1,2,0,1,3,0,2,0,0,2,1,0,2,2,0,2,3,0,3,0,0,3,1,0,3,2,0,3,3,13,0,0,13,0,1,13,0,2,13,0,3,13,1,0,13,1,1,13,1,2,13,1,3,13,2,0,13,2,2,13,2,3,13,3,0,13,3,1,13,3,2,13,3,3,0,0,0,0,0,1,0,0,2,0,0,3,0,1,0,0,1,1,0,1,2,0,1,3,0,2,0,0,2,1,0,2,2,0,2,3,0,3,0,0,3,1,0,3,2,0,3,3,13,0,0,13,0,1,13,0,2,13,0,3,13,1,0,13,1,1,13,1,2,13,1,3,13,2,0,13,2,2,13,2,3,13,3,0,13,3,1,13,3,2,13,3,3,0,0,0,0,0,1,0,0,2,0,0,3,0,1,0,0,1,1,0,1,2,0,1,3,0,2,0,0,2,1,0,2,2,0,2,3,0,3,0,0,3,1,0,3,2,0,3,3,1,0,0,1,0,1,1,0,2,1,0,3,1,1,0,1,1,1,1,1,2,1,1,3,1,2,0,1,2,1,1,2,2,1,2,3,1,3,0,1,3,1,1,3,2,1,3,3,2,0,0,2,0,1,2,0,2,2,0,3,2,1,0,2,1,1,2,1,2,2,1,3,2,2,0,2,2,1,2,2,2,2,2,3,2,3,0,2,3,1,2,3,2,2,3,3,3,0,0,3,0,1,3,0,2,3,0,3,3,1,0,3,1,1,3,1,3,3,2,0,3,2,1,3,2,2,3,2,3,3,3,0,3,3,1,3,3,2,3,3,3,0,0,0,0,0,1,0,0,2,0,0,3,0,1,0,0,1,1,0,1,2,0,1,3,0,2,0,0,2,1,0,2,2,0,2,3,0,3,0,0,3,1,0,3,2,0,3,3,1,0,0,1,0,1,1,0,2,1,0,3,1,1,0,1,1,1,1,1,2,1,1,3,1,2,0,1,2,1,1,2,2,1,2,3,1,3,0,1,3,1,1,3,2,1,3,3,2,0,0,2,0,1,2,0,2,2,0,3,2,1,0,2,1,1,2,1,2,2,1,3,2,2,0,2,2,1,2,2,2,2,2,3,2,3,0,2,3,2,2,3,3,3,0,0,3,0,1,3,0,2,3,0,3,3,1,0,3,1,1,3,1,2,3,1,3,3,2,0,3,2,1,3,2,2,3,2,3,3,3,0,3,3,1,3,3,2,3,3,3,0,0,0,0,0,1,0,0,2,0,0,3,0,1,0,0,1,1,0,1,2,0,1,3,0,2,0,0,2,1,0,2,2,0,2,3,0,3,0,0,3,1,0,3,2,0,3,3,13,0,0,13,0,1,13,0,2,13,0,3,13,1,0,13,1,1,13,1,2,13,1,3,13,2,0,13,2,2,13,2,3,13,3,0,13,3,1,13,3,2,13,3,3,0,0,0,0,0,1,0,0,2,0,0,3,0,1,0,0,1,1,0,1,2,0,1,3,0,2,0,0,2,1,0,2,2,0,2,3,0,3,0,0,3,1,0,3,2,0,3,3,1,0,0,1,0,1,1,0,2,1,0,3,1,1,0,1,1,1,1,1,2,1,1,3,1,2,0,1,2,1,1,2,2,1,2,3,1,3,0,1,3,1,1,3,2,1,3,3,2,0,0,2,0,1,2,0,2,2,0,3,2,1,0,2,1,1,2,1,2,2,1,3,2,2,0,2,2,1,2,2,2,2,2,3,2,3,0,2,3,2,2,3,3,3,0,0,3,0,1,3,0,2,3,0,3,3,1,0,3,1,1,3,1,2,3,1,3,3,2,0,3,2,1,3,2,2,3,2,3,3,3,0,3,3,1,3,3,2,3,3,3,0,0,0,0,0,1,0,0,2,0,0,3,0,1,0,0,1,1,0,1,2,0,1,3,0,2,0,0,2,1,0,2,2,0,2,3,0,3,0,0,3,1,0,3,2,0,3,3,13,0,0,13,0,1,13,0,2,13,0,3,13,1,0,13,1,1,13,1,2,13,1,3,13,2,0,13,2,2,13,2,3,13,3,0,13,3,1,13,3,2,13,3,3,0,0,0,0,0,1,0,0,2,0,0,3,0,1,0,0,1,1,0,1,2,0,1,3,0,2,0,0,2,1,0,2,2,0,2,3,0,3,0,0,3,1,0,3,2,0,3,3,1,0,0,1,0,1,1,0,2,1,0,3,1,1,0,1,1,1,1,1,2,1,1,3,1,2,0,1,2,1,1,2,2,1,2,3,1,3,0,1,3,1,1,3,2,1,3,3,2,0,0,2,0,1,2,0,2,2,0,3,2,1,0,2,1,1,2,1,2,2,1,3,2,2,0,2,2,1,2,2,2,2,2,3,2,3,0,2,3,2,2,3,3,3,0,0,3,0,1,3,0,2,3,0,3,3,1,0,3,1,1,3,1,2,3,1,3,3,2,0,3,2,1,3,2,2,3,2,3,3,3,0,3,3,1,3,3,2,3,3,3,0,0,0,0,0,1,0,0,2,0,0,3,0,1,0,0,1,1,0,1,2,0,1,3,0,2,0,0,2,1,0,2,2,0,2,3,0,3,0,0,3,1,0,3,2,0,3,3,13,0,0,13,0,1,13,0,2,13,0,3,13,1,0,13,1,1,13,1,2,13,1,3,13,2,0,13,2,2,13,2,3,13,3,0,13,3,1,13,3,2,13,3,3,0,0,0,0,0,1,0,0,2,0,0,3,0,1,0,0,1,1,0,1,2,0,1,3,0,2,0,0,2,1,0,2,2,0,2,3,0,3,0,0,3,1,0,3,2,0,3,3,1,0,0,1,0,1,1,0,2,1,0,3,1,1,0,1,1,1,1,1,2,1,1,3,1,2,0,1,2,1,1,2,2,1,2,3,1,3,0,1,3,1,1,3,2,1,3,3,2,0,0,2,0,1,2,0,2,2,0,3,2,1,0,2,1,1,2,1,2,2,1,3,2,2,0,2,2,1,2,2,2,2,2,3,2,3,0,2,3,1,2,3,2,2,3,3,3,0,0,3,0,1,3,0,2,3,0,3,3,1,0,3,1,1,3,1,2,3,1,3,3,2,0,3,2,2,3,2,3,3,3,0,3,3,1,3,3,2,3,3,3];
