num_variables= 200;
min_domain = 0;
max_domain = 13;
domains = [{0,1,2,3},{0,1,2,3},{0,1,2,3},{0,1,2,3},{0,13},{0,2},{0,2},{0,13},{0,1,2,3},{0,1,2,3},{0,1,2,3},{0,13},{0,13},{0,13},{0,2},{0,2},{0,13},{0,13},{0,1,2,3},{0,1,2,3},{0,13},{0,13},{0,13},{0,13},{0,13},{0,13},{0,13},{0,13},{0,1,2,3},{0,1,2,3},{0,13},{0,1,2,3},{0,13},{0,1,2,3},{0,13},{0,13},{0,13},{0,13},{0,13},{0,13},{0,13},{0,13},{0,2},{0,2},{0,13},{0,13},{0,13},{0,2},{0,2},{0,1,2,3},{0,13},{0,13},{0,13},{0,13},{0,13},{0,13},{0,1,2,3},{0,1,2,3},{0,13},{0,1,2,3},{0,13},{0,13},{0,13},{0,13},{0,13},{0,13},{0,13},{0,1,2,3},{0,13},{0,13},{0,13},{0,13},{0,13},{0,13},{0,13},{0,13},{0,13},{0,13},{0,13},{0,13},{0,13},{0,1,2,3},{0,1,2,3},{0,1,2,3},{0,1,2,3},{0,1,2,3},{0,13},{0,1,2,3},{0,13},{0,13},{0,1,2,3},{0,13},{0,13},{0,1,2,3},{0,13},{0,13},{0,13},{0,1,2,3},{0,1,2,3},{0,1,2,3},{0,13},{0,13},{0,1,2,3},{0,13},{0,13},{0,13},{0,1,2,3},{0,13},{0,13},{0,1,2,3},{0,1,2,3},{0,13},{0,13},{0,1,2,3},{0,13},{0,13},{0,13},{0,13},{0,1,2,3},{0,13},{0,13},{0,2},{0,2},{0,2},{0,2},{0,2},{0,13},{0,1,2,3},{0,13},{0,1,2,3},{0,2},{0,2},{0,2},{0,1,2,3},{0,1,2,3},{0,13},{0,1,2,3},{0,1,2,3},{0,1,2,3},{0,13},{0,1,2,3},{0,13},{0,1,2,3},{0,13},{0,13},{0,1,2,3},{0,13},{0,13},{0,1,2,3},{0,1,2,3},{0,1,2,3},{0,1,2,3},{0,13},{0,1,2,3},{0,1,2,3},{0,1,2,3},{0,1,2,3},{0,1,2,3},{0,13},{0,13},{0,1,2,3},{0,1,2,3},{0,13},{0,13},{0,13},{0,13},{0,13},{0,1,2,3},{0,13},{0,13},{0,13},{0,1,2,3},{0,1,2,3},{0,13},{0,13},{0,13},{0,13},{0,13},{0,1,2,3},{0,1,2,3},{0,13},{0,1,2,3},{0,13},{0,13},{0,13},{0,13},{0,13},{0,13},{0,13},{0,13},{0,13},{0,13},{0,13},{0,13},{0,1,2,3},{0,13},{0,1,2,3},{0,13},{0,13},{0,13}];
costs = [1,1,1,1,2,1,1,2,1,1,1,2,2,2,1,1,2,2,1,1,2,2,2,2,2,2,2,2,1,1,2,1,2,1,2,2,2,2,2,2,2,2,1,1,2,2,2,1,1,1,2,2,2,2,2,2,1,1,2,1,2,2,2,2,2,2,2,1,2,2,2,2,2,2,2,2,2,2,2,2,2,1,1,1,1,1,2,1,2,2,1,2,2,1,2,2,2,1,1,1,2,2,1,2,2,2,1,2,2,1,1,2,2,1,2,2,2,2,1,2,2,1000,1000,1000,1000,1000,2,1,2,1,1000,1000,1000,1,1,2,1,1,1,2,1,2,1,2,2,1,2,2,1,1,1,1,2,1,1,1,1,1,2,2,1,1,2,2,2,2,2,1,2,2,2,1,1,2,2,2,2,2,1,1,2,1,2,2,2,2,2,2,2,2,2,2,2,2,1,2,1,2,2,1000];
num_constraints2= 1643;
max_constraints2 = 17664;
scopes2x = [106,141,181,64,3,93,159,13,189,12,95,169,111,106,58,52,11,166,93,107,106,100,121,173,22,101,128,22,148,118,58,189,92,93,113,143,9,127,59,118,101,115,177,5,194,103,199,47,157,165,20,87,133,102,114,55,102,29,112,145,160,106,100,34,175,143,191,86,186,69,102,97,118,60,122,52,17,102,118,15,67,54,104,92,23,118,106,106,150,64,125,95,112,4,143,119,178,135,192,111,91,104,106,140,100,116,166,198,173,143,12,45,20,47,196,104,22,119,54,121,106,188,116,111,178,129,102,118,155,95,94,111,12,148,46,181,86,69,187,62,91,108,169,69,127,106,51,102,33,21,176,31,33,127,45,191,199,21,192,102,129,34,47,165,173,66,40,161,187,109,169,91,64,75,81,136,173,102,118,172,23,111,59,42,192,142,113,104,101,199,122,175,172,126,143,46,101,102,178,46,50,128,92,61,62,166,198,129,60,64,116,9,146,127,60,101,126,100,120,162,45,116,190,178,158,122,111,92,61,62,117,91,148,177,112,154,87,116,67,192,106,190,57,196,86,101,106,119,177,27,47,42,187,49,92,116,106,8,167,57,115,109,172,71,96,72,106,139,90,9,135,128,173,191,52,34,59,176,153,141,68,191,171,145,120,176,115,106,119,199,199,174,102,101,50,56,68,62,102,118,113,62,87,60,87,21,100,97,111,104,122,45,77,119,113,108,93,118,83,58,121,97,114,116,113,118,150,102,171,57,32,95,57,93,177,182,190,162,198,93,7,125,100,129,47,192,129,175,33,59,13,118,122,146,14,15,69,139,135,126,25,22,187,89,85,166,141,192,177,142,144,92,115,181,186,120,192,172,127,176,46,100,86,189,68,60,159,14,174,115,89,162,109,86,49,108,181,143,97,61,62,182,58,170,160,127,122,176,175,172,180,130,126,38,189,47,167,70,120,33,115,167,104,47,101,109,104,31,17,103,95,129,46,191,67,44,142,69,125,106,42,57,178,107,33,69,89,114,161,195,165,22,163,31,175,93,165,95,165,38,100,69,186,166,173,165,91,197,139,62,190,179,49,171,192,58,77,169,59,103,125,174,58,125,45,186,88,66,42,97,129,87,106,121,192,192,102,139,95,21,44,189,46,109,130,51,129,87,135,153,81,47,194,197,89,116,46,86,108,50,145,188,134,98,154,14,153,69,115,34,190,14,67,90,115,45,191,47,107,97,94,104,173,162,169,115,21,180,195,109,118,178,27,42,26,189,127,115,49,115,129,106,187,191,52,97,58,191,91,109,130,42,194,98,86,115,112,121,166,95,30,115,178,90,187,81,118,167,112,181,175,161,44,46,46,125,111,101,112,130,46,187,50,179,165,107,98,54,87,111,100,140,151,151,129,115,14,95,66,154,120,145,92,49,22,113,35,57,153,138,100,104,42,42,59,107,142,197,76,42,101,32,51,173,8,90,121,8,188,129,112,129,174,97,20,69,196,87,59,50,175,116,31,69,62,166,50,74,97,106,80,133,60,170,109,60,95,89,178,54,45,118,173,111,189,108,189,46,14,136,60,112,172,57,101,121,40,172,194,101,64,95,187,118,109,47,178,109,87,118,198,108,177,91,22,116,97,192,190,180,118,32,166,89,47,46,144,13,92,52,153,129,7,170,7,68,164,42,75,128,68,59,7,103,5,101,93,46,140,196,58,181,103,176,165,106,113,146,50,74,21,122,199,165,169,67,126,38,54,54,171,60,41,116,42,77,23,45,64,109,195,170,101,92,120,109,191,71,7,108,174,173,93,33,108,135,17,89,155,155,41,111,47,87,113,132,104,100,30,102,178,118,199,172,102,151,118,5,189,132,186,104,90,160,178,118,116,109,59,104,115,148,91,125,158,192,181,189,45,118,78,124,20,12,125,104,46,45,28,95,133,69,134,24,101,121,186,173,121,143,102,60,90,113,95,64,64,172,124,12,87,176,192,14,120,176,135,108,186,95,141,126,101,166,145,127,159,91,105,129,127,59,82,148,42,56,47,126,127,97,120,75,191,119,69,49,133,11,11,60,14,129,52,54,101,121,104,141,116,184,87,118,118,109,111,45,188,98,18,97,93,3,47,101,29,177,47,58,27,50,129,178,61,62,44,108,199,46,101,192,67,45,92,94,187,109,143,185,13,111,173,140,92,87,174,124,192,11,89,97,127,57,113,46,28,71,176,93,115,112,113,54,87,65,72,146,22,119,16,166,165,16,112,177,172,120,186,89,116,16,189,42,90,85,127,12,192,155,128,196,173,93,67,141,122,107,37,58,64,178,116,90,126,191,162,42,67,90,198,17,176,175,111,115,24,30,166,189,16,3,158,118,113,47,106,104,60,116,176,107,90,73,198,175,31,136,161,178,72,129,64,121,198,119,116,115,171,189,22,32,104,169,86,153,119,122,107,87,126,178,51,189,128,122,109,126,188,120,58,177,182,75,116,62,100,113,41,120,80,51,100,130,125,9,128,54,112,186,113,45,14,191,173,50,104,109,85,186,185,192,97,55,18,14,45,175,113,23,120,30,178,52,167,6,95,105,176,191,133,97,101,182,171,160,191,12,97,116,91,97,106,113,13,106,95,187,178,95,13,32,93,47,111,97,44,116,198,101,177,92,106,122,46,56,170,126,90,112,115,113,106,181,47,46,13,116,50,109,145,166,170,108,102,187,14,113,111,54,143,45,120,64,52,102,45,14,172,106,197,94,5,138,170,104,92,187,141,102,86,145,181,175,112,181,178,17,115,112,67,116,133,5,113,106,121,93,108,186,66,102,118,173,104,97,90,102,190,93,188,192,191,130,42,114,199,14,97,158,117,54,109,38,51,142,144,100,102,93,192,147,108,24,127,178,32,61,62,113,50,29,172,115,90,33,106,127,5,178,31,98,153,64,67,102,112,118,136,45,13,22,164,192,90,18,114,191,181,113,151,198,18,125,177,153,114,165,100,57,172,107,140,16,175,165,125,14,101,93,129,32,56,175,197,146,187,104,12,13,59,89,187,13,45,142,45,195,174,112,199,91,176,102,118,107,155,104,28,108,47,115,104,147,28,199,112,29,16,64,172,64,189,127,116,34,27,191,130,170,143,111,165,93,173,12,46,115,30,60,186,194,54,102,116,178,91,129,23,67,137,112,108,89,17,47,180,93,125,106,129,189,87,17,59,171,118,106,101,137,101,108,176,182,194,33,172,138,104,84,109,192,13,61,92,52,89,102,42,192,104,187,135,169,141,109,191,106,92,135,86,127,97,92,175,89,176,189,5,57,187,113,102,93,115,176,130,129,102,118,47,102,23,113,173,104,5,64,130,189,104,113,122,59,52,126,175,93,112,109,191,127,11,112,134,88,195,102,115,108,133,52,188,171,100,62,153,108,190,60,22,37,86,101,93,139,143,26,108,91,143,115,198,179,192,109,199,118,115,106,171,112,88,192,54,197,176,65,145,47,47,95,115,192,178,87,89,46,157,104,112,121,16,54,104,106,127,112,121,141,135,173,126,52,62,45,85,62,68,12,52,121,75,165,91,172,97,84,166,119,166,98,166,49,115,90,191,97,46,116,110,192,127,196,4,42,191,28,5,108,97,41,166,181,5,175,177,199,106,119,191,109,148,133,44,102,118,116,186,69,181,116,18,155,196,174,178,156,129,5,64,167,186,54,121,127,4,42,106,118,96,196,176,192,35];
scopes2y = [116,147,169,66,1,111,157,20,179,21,103,168,110,107,63,55,9,140,86,94,114,96,120,170,10,100,132,9,150,120,51,197,100,94,99,139,19,109,53,138,98,119,188,12,197,105,186,50,156,167,10,95,131,114,99,63,101,35,108,138,159,105,99,35,187,146,177,88,193,57,116,96,116,53,103,50,20,107,107,19,65,55,111,98,24,114,102,117,152,61,111,96,100,6,145,128,182,138,170,124,96,86,138,144,103,128,164,188,171,140,9,54,15,53,185,94,12,124,62,105,104,179,137,123,180,121,105,105,156,99,96,120,35,151,57,183,107,59,182,60,99,98,182,68,116,92,56,117,51,10,185,51,61,114,60,180,194,9,190,138,111,33,46,168,185,63,39,160,180,119,180,103,55,73,79,139,181,104,104,167,18,114,65,57,193,136,128,72,111,174,128,177,175,128,135,59,86,92,188,68,63,123,86,63,63,197,190,112,65,62,110,10,145,117,48,94,124,128,73,161,63,130,182,191,152,124,105,111,66,66,99,117,149,185,111,152,99,101,59,186,108,180,63,197,83,112,134,114,171,24,65,59,188,50,94,107,121,11,147,66,99,96,168,68,110,105,100,137,95,15,134,124,179,195,65,29,57,181,158,140,63,181,184,142,75,171,103,115,105,197,198,182,100,72,51,55,66,51,108,108,110,61,147,57,93,18,88,107,119,139,107,51,78,117,130,94,88,121,88,53,119,109,110,117,73,119,149,98,169,51,34,109,61,91,179,184,188,160,194,110,11,132,130,99,57,194,74,190,31,68,21,115,114,140,17,10,60,117,142,114,24,20,190,83,84,167,144,181,184,139,139,96,74,177,174,114,171,182,108,179,54,107,82,182,61,68,156,8,180,137,92,164,99,98,43,72,190,138,89,55,55,183,43,179,157,100,131,184,170,180,185,132,131,40,180,59,163,68,105,46,128,164,91,68,139,103,110,46,21,96,101,113,60,185,66,43,140,58,123,86,54,55,184,124,28,63,100,123,164,188,161,23,168,28,186,90,147,107,195,37,117,66,179,168,167,145,107,188,105,50,184,185,48,183,179,65,76,164,56,99,114,188,48,124,50,197,94,53,60,105,127,88,99,76,197,198,86,138,105,20,48,188,63,74,124,53,128,91,136,154,78,69,188,195,98,100,66,84,139,53,147,180,96,96,156,10,150,61,91,31,185,9,58,96,110,53,179,56,123,104,105,120,168,163,184,130,11,184,190,128,99,174,26,63,25,195,111,73,57,101,109,93,194,197,56,92,57,184,83,137,114,66,195,99,94,116,110,103,165,92,28,107,169,99,184,82,103,169,130,170,174,163,57,52,51,107,99,109,73,123,61,174,43,184,164,114,103,60,90,96,108,139,154,150,120,117,12,100,65,149,119,137,109,68,19,119,61,43,151,105,98,105,52,51,58,105,144,185,73,61,120,31,65,182,10,147,74,9,185,114,75,116,185,108,19,62,188,83,66,65,179,111,47,67,65,195,48,73,134,110,78,132,58,168,130,63,108,86,175,63,65,127,180,103,181,105,185,55,18,134,66,120,181,65,107,128,36,171,185,114,60,98,183,128,107,58,183,114,100,101,187,75,182,98,21,112,95,199,183,183,137,28,147,99,66,67,138,18,107,58,149,117,6,180,10,65,168,55,76,99,48,61,9,110,33,105,134,50,137,190,56,171,117,182,163,91,111,142,57,117,19,111,188,169,183,62,111,39,52,51,170,61,40,72,50,79,25,57,63,117,174,182,138,105,76,138,196,67,15,107,184,176,95,35,114,144,18,147,154,150,37,128,61,98,112,131,96,94,35,91,187,91,195,184,110,149,110,4,184,123,182,134,88,156,189,130,139,100,55,121,100,155,84,122,157,182,179,174,59,73,79,131,9,17,119,119,45,68,45,111,123,70,105,18,96,107,180,184,114,147,120,55,89,72,86,52,51,169,110,8,85,188,180,20,103,169,140,138,188,94,139,125,134,171,144,73,158,94,99,108,110,50,83,152,45,63,55,133,130,99,74,74,182,132,64,58,124,6,10,50,11,100,53,50,108,117,112,145,113,183,84,102,117,108,130,69,184,105,11,103,96,4,62,121,33,190,67,66,25,56,115,177,56,56,58,119,185,65,119,188,57,56,108,99,177,98,137,184,11,107,172,138,134,86,183,123,191,15,88,93,75,56,103,64,47,70,190,99,111,121,139,53,94,53,73,147,24,110,6,169,142,10,119,170,183,128,195,91,91,9,183,65,83,83,120,10,195,149,110,194,174,103,64,137,132,96,39,61,50,176,73,92,132,188,159,64,68,98,193,11,170,182,117,112,20,33,163,196,15,2,154,100,74,45,98,99,43,109,186,99,100,117,195,180,61,137,159,193,117,76,53,108,186,131,75,72,174,177,18,35,103,190,105,157,123,110,103,96,110,190,63,187,131,130,111,130,183,110,55,174,185,117,120,58,91,137,39,130,79,66,110,99,128,6,117,65,72,185,114,58,19,190,169,66,113,94,82,181,183,185,88,53,19,5,66,188,109,20,107,29,170,57,170,10,88,110,174,186,119,100,99,179,179,158,193,18,91,114,88,110,119,75,19,96,91,193,186,110,17,33,109,64,108,101,50,119,185,103,169,99,111,123,69,53,169,123,85,99,139,120,95,182,42,56,8,105,61,72,136,142,184,96,134,195,21,138,98,57,144,52,117,65,59,121,61,13,177,94,193,110,31,137,174,137,103,186,138,119,85,139,185,171,103,180,171,19,113,139,60,138,122,11,107,112,111,89,99,184,55,111,111,183,109,90,84,95,193,101,182,184,174,128,56,124,196,22,102,156,110,59,139,36,55,137,137,114,94,107,174,140,103,19,121,185,29,53,53,105,55,31,176,120,86,45,72,119,28,181,45,94,152,57,63,112,74,112,138,55,35,11,163,169,94,10,105,194,188,117,152,197,9,110,183,155,117,162,105,53,178,110,136,20,185,170,130,35,137,105,110,30,65,181,190,144,185,101,20,10,60,85,181,9,62,138,67,193,190,128,187,114,183,72,72,117,157,107,51,74,54,109,114,144,61,189,137,28,11,59,179,68,190,112,108,28,23,169,110,183,142,94,140,104,175,11,58,75,31,56,183,190,56,96,121,179,105,130,19,61,105,109,128,84,10,60,179,92,131,103,73,193,89,9,63,168,113,139,91,117,110,137,175,180,193,47,170,117,117,88,110,196,12,65,88,60,95,99,58,183,138,179,145,179,142,73,198,113,91,139,96,76,98,110,184,94,187,186,17,48,197,108,103,100,114,189,131,75,139,139,63,137,21,121,177,92,8,56,117,194,98,100,119,51,63,119,169,108,107,75,183,99,19,114,137,96,185,113,105,110,128,66,193,182,119,57,156,130,179,51,17,36,103,117,98,134,136,24,73,85,141,108,196,183,187,120,193,74,138,137,180,105,99,189,58,174,177,63,140,52,51,134,104,175,167,92,96,53,152,100,117,110,19,66,108,109,113,138,130,136,137,178,122,51,59,64,88,68,57,19,61,73,72,197,119,174,111,83,162,99,170,110,161,60,121,91,187,86,62,99,123,176,74,193,8,53,189,46,10,117,94,36,145,184,9,183,180,190,120,103,175,105,154,130,60,109,109,74,190,65,174,103,20,152,195,179,168,152,119,35,58,168,177,61,75,128,7,62,101,75,99,186,180,177,28];
num_tuples2 = [3,6,3,3,13,6,6,6,6,3,6,6,13,6,6,3,13,3,6,13,6,6,3,6,6,6,7,6,6,3,6,6,6,6,6,13,13,3,3,7,6,6,3,3,6,6,3,6,13,3,13,3,3,6,13,3,3,6,3,6,3,3,13,6,3,13,3,13,3,6,3,3,3,6,7,6,6,6,6,7,3,3,6,6,3,6,3,3,13,3,7,3,6,7,6,13,6,13,3,7,6,6,7,3,13,6,3,3,6,6,6,3,7,3,3,6,3,7,3,3,3,6,7,7,6,3,3,3,13,6,6,6,3,6,6,3,13,3,6,6,13,6,6,6,3,3,3,3,3,6,3,3,3,6,6,6,3,6,3,7,6,6,3,6,6,3,3,6,6,6,6,13,3,3,3,6,6,3,3,6,3,13,3,6,3,3,6,3,6,3,7,3,6,7,13,3,6,3,3,6,6,7,6,3,3,7,3,3,6,3,6,13,6,3,7,6,3,13,3,13,3,6,6,3,13,3,6,6,3,3,6,6,6,3,6,13,6,3,3,3,3,6,6,6,13,3,7,13,3,3,3,3,3,7,6,6,3,6,3,6,6,3,13,6,6,3,6,13,3,7,13,7,13,6,3,13,6,3,6,6,6,3,3,3,3,3,6,3,6,6,3,6,6,3,6,3,6,3,3,3,6,3,3,13,3,3,13,6,13,7,7,3,3,6,6,6,6,3,13,6,6,3,13,3,3,6,13,6,3,6,13,3,6,6,6,6,3,6,3,6,7,3,13,6,6,3,3,3,3,6,3,3,7,6,3,7,6,7,6,7,3,6,3,6,13,3,6,3,3,6,6,3,3,3,3,6,3,13,3,6,3,13,13,6,6,13,6,3,6,7,3,6,6,13,3,3,3,13,3,3,3,6,7,6,6,6,3,3,3,13,6,7,3,3,6,3,3,6,3,3,6,3,6,6,7,6,6,3,3,6,3,3,6,3,3,3,3,6,3,6,3,6,3,7,3,3,6,7,6,6,6,3,6,3,3,3,3,6,7,3,6,3,6,6,6,3,13,6,7,6,3,6,3,3,6,6,3,3,3,13,7,3,7,3,6,6,13,3,6,3,3,6,6,3,6,3,6,13,3,6,3,3,3,3,7,3,6,6,6,6,3,3,3,13,6,6,3,13,7,6,3,6,7,6,13,6,6,3,6,6,3,6,6,3,6,3,6,3,7,3,6,3,13,6,3,6,6,6,6,6,6,3,3,3,3,6,6,3,7,3,3,3,3,6,3,3,13,3,13,7,13,3,6,13,13,3,6,6,3,3,6,6,3,6,3,6,6,3,6,3,3,6,7,3,3,7,13,3,3,7,3,3,7,6,3,13,13,6,3,6,6,6,13,13,3,3,3,6,3,13,6,6,3,7,6,6,3,7,6,7,13,3,3,3,6,6,3,6,3,3,3,6,3,13,6,3,3,6,3,6,3,3,3,3,13,3,3,6,3,6,6,6,3,3,3,7,7,3,7,6,3,3,13,6,6,6,3,6,3,3,3,3,13,13,3,3,3,3,3,6,6,3,6,6,6,6,3,6,3,6,6,6,3,6,6,6,3,6,6,3,3,3,6,13,3,3,3,3,3,6,7,6,3,6,3,3,6,3,6,6,6,3,3,6,7,6,6,3,3,13,7,3,7,13,3,3,7,6,6,3,6,3,6,6,3,6,6,6,13,3,6,7,3,3,3,3,7,3,3,3,3,6,3,3,6,3,3,6,3,3,6,6,7,3,3,7,3,3,3,6,3,6,3,3,6,6,3,3,13,13,3,13,3,6,3,3,3,13,6,6,3,6,6,6,6,13,6,6,3,3,6,7,6,6,3,6,7,6,3,3,6,6,13,3,13,6,6,3,3,3,3,3,13,3,7,6,3,6,3,6,3,3,7,3,3,6,6,6,6,6,3,6,3,3,6,3,3,6,7,3,6,3,6,6,6,3,6,7,3,6,13,3,7,3,3,3,6,13,6,3,6,6,13,6,3,3,3,3,6,6,3,3,6,7,3,7,3,7,13,13,6,6,3,6,3,3,3,6,3,3,6,3,3,3,13,3,3,6,6,6,3,13,3,3,6,3,3,6,3,6,3,3,3,3,7,6,3,3,6,3,6,3,3,13,3,6,13,3,6,13,13,6,7,6,3,3,3,7,6,3,3,6,6,3,3,3,3,6,6,3,7,3,6,3,3,6,3,13,3,3,3,7,6,3,6,6,6,6,6,7,3,3,6,13,3,6,6,13,13,3,6,6,3,13,3,6,3,6,6,3,3,3,3,3,6,3,6,6,3,6,3,6,6,3,6,6,3,3,3,13,13,6,3,3,6,6,7,3,3,13,6,3,6,6,3,6,6,3,3,3,3,3,3,7,3,3,3,3,3,6,6,3,6,6,7,7,13,3,7,3,3,3,7,7,6,7,3,6,6,3,6,3,3,6,13,7,3,6,3,3,13,13,7,7,6,3,3,3,6,6,6,3,6,6,3,6,13,3,3,3,6,3,6,3,3,3,3,6,6,13,3,6,3,7,6,6,3,3,7,6,6,13,6,6,3,3,6,6,13,6,6,3,6,3,6,3,3,6,3,6,3,3,6,3,7,6,3,6,3,6,6,3,3,3,3,3,6,6,7,3,3,6,3,3,3,3,6,3,3,3,3,3,7,6,3,7,13,6,6,3,3,3,3,3,3,3,6,6,6,13,3,13,3,7,6,3,13,6,13,6,3,3,6,6,3,6,3,7,6,7,3,6,6,3,6,3,6,3,3,6,6,6,3,3,6,3,3,3,6,3,3,13,3,7,3,3,3,13,6,3,7,3,3,6,6,13,6,6,3,3,6,6,3,3,13,3,3,3,6,6,6,3,6,3,3,6,3,3,3,13,6,6,3,3,3,3,6,3,3,6,3,3,6,6,6,3,3,3,13,6,6,7,3,6,6,6,6,6,6,13,3,7,3,3,7,3,7,3,6,13,3,3,6,6,3,3,6,6,6,6,3,6,3,6,3,6,3,6,3,13,3,3,3,6,13,6,3,3,3,3,6,3,3,3,7,6,7,3,13,6,3,3,3,6,3,3,13,3,6,13,3,3,6,6,6,3,6,6,3,3,3,3,3,6,6,6,6,3,7,3,6,6,6,6,13,3,3,6,3,3,3,6,3,6,3,7,6,7,6,7,3,13,3,3,6,7,3,13,6,3,3,3,6,6,3,6,6,3,7,6,6,6,6,3,3,3,6,13,6,3,6,6,3,6,3,3,3,7,6,3,6,6,6,3,7,3,7,7,3,7,3,3,6,3,3,3,6,3,6,6,7,3,3,7,3,3,6,3,3,6,13,6,13,6,6,3,3,6,7,3,3,6,13,6,6,6,6,6,3,3,13,3,6,13,6,3,3,13,13,3,3,6,3,3,3,3,7,7,6,3,13,3,6,6,3,3,3,3,3,7,3,3,3,3,3,3,13,6,3,6,7,3,3,3,3,7,6,6,13,6,3,3,3,3,13,6,13,6,3,3,3,7,13,6,6,13,6,13,3,13,6,7,3,6,3,6,3,6,7,3,3,3,6,3,3,3,6,3,6,3,3,3,6,3,6,3,3,13,3,3,6,7,7,3,3,3,3,3,3,6,6,13,6,6,6,13,6,3,6,6,3,3,3,6,7,3,3,3,6,3,6,3,3];
cum_tuples2 = [0,3,9,12,15,28,34,40,46,52,55,61,67,80,86,92,95,108,111,117,130,136,142,145,151,157,163,170,176,182,185,191,197,203,209,215,228,241,244,247,254,260,266,269,272,278,284,287,293,306,309,322,325,328,334,347,350,353,359,362,368,371,374,387,393,396,409,412,425,428,434,437,440,443,449,456,462,468,474,480,487,490,493,499,505,508,514,517,520,533,536,543,546,552,559,565,578,584,597,600,607,613,619,626,629,642,648,651,654,660,666,672,675,682,685,688,694,697,704,707,710,713,719,726,733,739,742,745,748,761,767,773,779,782,788,794,797,810,813,819,825,838,844,850,856,859,862,865,868,871,877,880,883,886,892,898,904,907,913,916,923,929,935,938,944,950,953,956,962,968,974,980,993,996,999,1002,1008,1014,1017,1020,1026,1029,1042,1045,1051,1054,1057,1063,1066,1072,1075,1082,1085,1091,1098,1111,1114,1120,1123,1126,1132,1138,1145,1151,1154,1157,1164,1167,1170,1176,1179,1185,1198,1204,1207,1214,1220,1223,1236,1239,1252,1255,1261,1267,1270,1283,1286,1292,1298,1301,1304,1310,1316,1322,1325,1331,1344,1350,1353,1356,1359,1362,1368,1374,1380,1393,1396,1403,1416,1419,1422,1425,1428,1431,1438,1444,1450,1453,1459,1462,1468,1474,1477,1490,1496,1502,1505,1511,1524,1527,1534,1547,1554,1567,1573,1576,1589,1595,1598,1604,1610,1616,1619,1622,1625,1628,1631,1637,1640,1646,1652,1655,1661,1667,1670,1676,1679,1685,1688,1691,1694,1700,1703,1706,1719,1722,1725,1738,1744,1757,1764,1771,1774,1777,1783,1789,1795,1801,1804,1817,1823,1829,1832,1845,1848,1851,1857,1870,1876,1879,1885,1898,1901,1907,1913,1919,1925,1928,1934,1937,1943,1950,1953,1966,1972,1978,1981,1984,1987,1990,1996,1999,2002,2009,2015,2018,2025,2031,2038,2044,2051,2054,2060,2063,2069,2082,2085,2091,2094,2097,2103,2109,2112,2115,2118,2121,2127,2130,2143,2146,2152,2155,2168,2181,2187,2193,2206,2212,2215,2221,2228,2231,2237,2243,2256,2259,2262,2265,2278,2281,2284,2287,2293,2300,2306,2312,2318,2321,2324,2327,2340,2346,2353,2356,2359,2365,2368,2371,2377,2380,2383,2389,2392,2398,2404,2411,2417,2423,2426,2429,2435,2438,2441,2447,2450,2453,2456,2459,2465,2468,2474,2477,2483,2486,2493,2496,2499,2505,2512,2518,2524,2530,2533,2539,2542,2545,2548,2551,2557,2564,2567,2573,2576,2582,2588,2594,2597,2610,2616,2623,2629,2632,2638,2641,2644,2650,2656,2659,2662,2665,2678,2685,2688,2695,2698,2704,2710,2723,2726,2732,2735,2738,2744,2750,2753,2759,2762,2768,2781,2784,2790,2793,2796,2799,2802,2809,2812,2818,2824,2830,2836,2839,2842,2845,2858,2864,2870,2873,2886,2893,2899,2902,2908,2915,2921,2934,2940,2946,2949,2955,2961,2964,2970,2976,2979,2985,2988,2994,2997,3004,3007,3013,3016,3029,3035,3038,3044,3050,3056,3062,3068,3074,3077,3080,3083,3086,3092,3098,3101,3108,3111,3114,3117,3120,3126,3129,3132,3145,3148,3161,3168,3181,3184,3190,3203,3216,3219,3225,3231,3234,3237,3243,3249,3252,3258,3261,3267,3273,3276,3282,3285,3288,3294,3301,3304,3307,3314,3327,3330,3333,3340,3343,3346,3353,3359,3362,3375,3388,3394,3397,3403,3409,3415,3428,3441,3444,3447,3450,3456,3459,3472,3478,3484,3487,3494,3500,3506,3509,3516,3522,3529,3542,3545,3548,3551,3557,3563,3566,3572,3575,3578,3581,3587,3590,3603,3609,3612,3615,3621,3624,3630,3633,3636,3639,3642,3655,3658,3661,3667,3670,3676,3682,3688,3691,3694,3697,3704,3711,3714,3721,3727,3730,3733,3746,3752,3758,3764,3767,3773,3776,3779,3782,3785,3798,3811,3814,3817,3820,3823,3826,3832,3838,3841,3847,3853,3859,3865,3868,3874,3877,3883,3889,3895,3898,3904,3910,3916,3919,3925,3931,3934,3937,3940,3946,3959,3962,3965,3968,3971,3974,3980,3987,3993,3996,4002,4005,4008,4014,4017,4023,4029,4035,4038,4041,4047,4054,4060,4066,4069,4072,4085,4092,4095,4102,4115,4118,4121,4128,4134,4140,4143,4149,4152,4158,4164,4167,4173,4179,4185,4198,4201,4207,4214,4217,4220,4223,4226,4233,4236,4239,4242,4245,4251,4254,4257,4263,4266,4269,4275,4278,4281,4287,4293,4300,4303,4306,4313,4316,4319,4322,4328,4331,4337,4340,4343,4349,4355,4358,4361,4374,4387,4390,4403,4406,4412,4415,4418,4421,4434,4440,4446,4449,4455,4461,4467,4473,4486,4492,4498,4501,4504,4510,4517,4523,4529,4532,4538,4545,4551,4554,4557,4563,4569,4582,4585,4598,4604,4610,4613,4616,4619,4622,4625,4638,4641,4648,4654,4657,4663,4666,4672,4675,4678,4685,4688,4691,4697,4703,4709,4715,4721,4724,4730,4733,4736,4742,4745,4748,4754,4761,4764,4770,4773,4779,4785,4791,4794,4800,4807,4810,4816,4829,4832,4839,4842,4845,4848,4854,4867,4873,4876,4882,4888,4901,4907,4910,4913,4916,4919,4925,4931,4934,4937,4943,4950,4953,4960,4963,4970,4983,4996,5002,5008,5011,5017,5020,5023,5026,5032,5035,5038,5044,5047,5050,5053,5066,5069,5072,5078,5084,5090,5093,5106,5109,5112,5118,5121,5124,5130,5133,5139,5142,5145,5148,5151,5158,5164,5167,5170,5176,5179,5185,5188,5191,5204,5207,5213,5226,5229,5235,5248,5261,5267,5274,5280,5283,5286,5289,5296,5302,5305,5308,5314,5320,5323,5326,5329,5332,5338,5344,5347,5354,5357,5363,5366,5369,5375,5378,5391,5394,5397,5400,5407,5413,5416,5422,5428,5434,5440,5446,5453,5456,5459,5465,5478,5481,5487,5493,5506,5519,5522,5528,5534,5537,5550,5553,5559,5562,5568,5574,5577,5580,5583,5586,5589,5595,5598,5604,5610,5613,5619,5622,5628,5634,5637,5643,5649,5652,5655,5658,5671,5684,5690,5693,5696,5702,5708,5715,5718,5721,5734,5740,5743,5749,5755,5758,5764,5770,5773,5776,5779,5782,5785,5788,5795,5798,5801,5804,5807,5810,5816,5822,5825,5831,5837,5844,5851,5864,5867,5874,5877,5880,5883,5890,5897,5903,5910,5913,5919,5925,5928,5934,5937,5940,5946,5959,5966,5969,5975,5978,5981,5994,6007,6014,6021,6027,6030,6033,6036,6042,6048,6054,6057,6063,6069,6072,6078,6091,6094,6097,6100,6106,6109,6115,6118,6121,6124,6127,6133,6139,6152,6155,6161,6164,6171,6177,6183,6186,6189,6196,6202,6208,6221,6227,6233,6236,6239,6245,6251,6264,6270,6276,6279,6285,6288,6294,6297,6300,6306,6309,6315,6318,6321,6327,6330,6337,6343,6346,6352,6355,6361,6367,6370,6373,6376,6379,6382,6388,6394,6401,6404,6407,6413,6416,6419,6422,6425,6431,6434,6437,6440,6443,6446,6453,6459,6462,6469,6482,6488,6494,6497,6500,6503,6506,6509,6512,6515,6521,6527,6533,6546,6549,6562,6565,6572,6578,6581,6594,6600,6613,6619,6622,6625,6631,6637,6640,6646,6649,6656,6662,6669,6672,6678,6684,6687,6693,6696,6702,6705,6708,6714,6720,6726,6729,6732,6738,6741,6744,6747,6753,6756,6759,6772,6775,6782,6785,6788,6791,6804,6810,6813,6820,6823,6826,6832,6838,6851,6857,6863,6866,6869,6875,6881,6884,6887,6900,6903,6906,6909,6915,6921,6927,6930,6936,6939,6942,6948,6951,6954,6957,6970,6976,6982,6985,6988,6991,6994,7000,7003,7006,7012,7015,7018,7024,7030,7036,7039,7042,7045,7058,7064,7070,7077,7080,7086,7092,7098,7104,7110,7116,7129,7132,7139,7142,7145,7152,7155,7162,7165,7171,7184,7187,7190,7196,7202,7205,7208,7214,7220,7226,7232,7235,7241,7244,7250,7253,7259,7262,7268,7271,7284,7287,7290,7293,7299,7312,7318,7321,7324,7327,7330,7336,7339,7342,7345,7352,7358,7365,7368,7381,7387,7390,7393,7396,7402,7405,7408,7421,7424,7430,7443,7446,7449,7455,7461,7467,7470,7476,7482,7485,7488,7491,7494,7497,7503,7509,7515,7521,7524,7531,7534,7540,7546,7552,7558,7571,7574,7577,7583,7586,7589,7592,7598,7601,7607,7610,7617,7623,7630,7636,7643,7646,7659,7662,7665,7671,7678,7681,7694,7700,7703,7706,7709,7715,7721,7724,7730,7736,7739,7746,7752,7758,7764,7770,7773,7776,7779,7785,7798,7804,7807,7813,7819,7822,7828,7831,7834,7837,7844,7850,7853,7859,7865,7871,7874,7881,7884,7891,7898,7901,7908,7911,7914,7920,7923,7926,7929,7935,7938,7944,7950,7957,7960,7963,7970,7973,7976,7982,7985,7988,7994,8007,8013,8026,8032,8038,8041,8044,8050,8057,8060,8063,8069,8082,8088,8094,8100,8106,8112,8115,8118,8131,8134,8140,8153,8159,8162,8165,8178,8191,8194,8197,8203,8206,8209,8212,8215,8222,8229,8235,8238,8251,8254,8260,8266,8269,8272,8275,8278,8281,8288,8291,8294,8297,8300,8303,8306,8319,8325,8328,8334,8341,8344,8347,8350,8353,8360,8366,8372,8385,8391,8394,8397,8400,8403,8416,8422,8435,8441,8444,8447,8450,8457,8470,8476,8482,8495,8501,8514,8517,8530,8536,8543,8546,8552,8555,8561,8564,8570,8577,8580,8583,8586,8592,8595,8598,8601,8607,8610,8616,8619,8622,8625,8631,8634,8640,8643,8646,8659,8662,8665,8671,8678,8685,8688,8691,8694,8697,8700,8703,8709,8715,8728,8734,8740,8746,8759,8765,8768,8774,8780,8783,8786,8789,8795,8802,8805,8808,8811,8817,8820,8826,8829];
constraints2 = [0,0,0,13,13,0,0,0,0,13,1,0,2,0,2,13,3,0,0,0,0,13,13,0,0,0,0,13,13,0,0,0,0,1,0,2,0,3,1,0,1,2,1,3,2,0,2,1,2,3,3,0,3,1,3,2,0,0,0,1,0,2,0,3,13,0,13,2,0,0,0,1,0,2,0,3,13,0,13,2,0,0,0,1,0,2,0,3,13,0,13,2,0,0,0,1,0,2,0,3,13,0,13,2,0,0,0,13,13,0,0,0,0,1,0,2,0,3,13,0,13,2,0,0,0,1,0,2,0,3,13,0,13,2,0,0,0,1,0,2,0,3,1,0,1,2,1,3,2,0,2,1,2,3,3,0,3,1,3,2,0,0,0,1,0,2,0,3,13,0,13,2,0,0,0,13,1,0,2,0,2,13,3,0,0,0,0,13,13,0,0,0,0,1,0,2,0,3,1,0,1,2,1,3,2,0,2,1,2,3,3,0,3,1,3,2,0,0,0,13,13,0,0,0,0,1,0,2,0,3,13,0,13,2,0,0,0,1,0,2,0,3,1,0,1,2,1,3,2,0,2,1,2,3,3,0,3,1,3,2,0,0,0,1,0,2,0,3,13,0,13,2,0,0,0,13,1,0,2,0,2,13,3,0,0,0,0,13,13,0,0,0,0,13,1,0,2,0,2,13,3,0,0,0,0,1,0,2,0,3,13,0,13,2,0,0,0,1,0,2,0,3,13,0,13,2,0,0,0,2,1,0,1,2,2,0,3,0,3,2,0,0,0,1,0,2,0,3,13,0,13,2,0,0,0,1,0,2,0,3,13,0,13,2,0,0,0,13,13,0,0,0,0,13,1,0,2,0,2,13,3,0,0,0,0,1,0,2,0,3,13,0,13,2,0,0,0,1,0,2,0,3,13,0,13,2,0,0,0,1,0,2,0,3,13,0,13,2,0,0,0,1,0,2,0,3,13,0,13,2,0,0,0,1,0,2,0,3,1,0,1,2,1,3,2,0,2,1,2,3,3,0,3,1,3,2,0,0,0,1,0,2,0,3,1,0,1,2,1,3,2,0,2,1,2,3,3,0,3,1,3,2,0,0,0,13,13,0,0,0,0,13,13,0,0,0,0,1,0,2,0,3,13,0,13,1,13,3,0,0,0,1,0,2,0,3,13,0,13,2,0,0,0,1,0,2,0,3,13,0,13,2,0,0,0,13,13,0,0,0,0,13,13,0,0,0,0,1,0,2,0,3,13,0,13,2,0,0,0,13,1,0,2,0,2,13,3,0,0,0,0,13,13,0,0,0,0,1,0,2,0,3,13,0,13,2,0,0,0,1,0,2,0,3,1,0,1,2,1,3,2,0,2,1,2,3,3,0,3,1,3,2,0,0,0,13,13,0,0,0,0,1,0,2,0,3,1,0,1,2,1,3,2,0,2,1,2,3,3,0,3,1,3,2,0,0,0,13,13,0,0,0,0,2,2,0,0,0,0,1,0,2,0,3,13,0,13,2,0,0,0,1,0,2,0,3,1,0,1,2,1,3,2,0,2,1,2,3,3,0,3,1,3,2,0,0,0,13,13,0,0,0,0,13,13,0,0,0,0,13,1,0,2,0,2,13,3,0,0,0,0,13,13,0,0,0,0,1,0,2,0,3,13,0,13,2,0,0,0,13,13,0,0,0,0,13,13,0,0,0,0,1,0,2,0,3,1,0,1,2,1,3,2,0,2,1,2,3,3,0,3,1,3,2,0,0,0,13,1,0,2,0,2,13,3,0,0,0,0,13,13,0,0,0,0,1,0,2,0,3,1,0,1,2,1,3,2,0,2,1,2,3,3,0,3,1,3,2,0,0,0,13,13,0,0,0,0,1,0,2,0,3,1,0,1,2,1,3,2,0,2,1,2,3,3,0,3,1,3,2,0,0,0,13,13,0,0,0,0,1,0,2,0,3,13,0,13,2,0,0,0,13,13,0,0,0,0,13,13,0,0,0,0,13,13,0,0,0,0,13,1,0,2,0,2,13,3,0,0,0,0,1,0,2,0,3,2,0,2,1,2,3,0,0,0,1,0,2,0,3,13,0,13,2,0,0,0,1,0,2,0,3,13,0,13,2,0,0,0,1,0,2,0,3,13,0,13,2,0,0,0,1,0,2,0,3,13,0,13,2,0,0,0,1,0,2,0,3,2,0,2,1,2,3,0,0,0,13,13,0,0,0,0,13,13,0,0,0,0,1,0,2,0,3,13,0,13,2,0,0,0,1,0,2,0,3,13,0,13,2,0,0,0,13,13,0,0,0,0,1,0,2,0,3,13,0,13,2,0,0,0,13,13,0,0,0,0,13,13,0,0,0,0,1,0,2,0,3,1,0,1,2,1,3,2,0,2,1,2,3,3,0,3,1,3,2,0,0,0,13,13,0,0,0,0,1,0,2,0,3,2,0,2,1,2,3,0,0,0,13,13,0,0,0,0,1,0,2,0,3,13,0,13,2,0,0,0,2,1,0,1,2,2,0,3,0,3,2,0,0,0,13,1,0,2,0,2,13,3,0,0,0,0,1,0,2,0,3,1,0,1,2,1,3,2,0,2,1,2,3,3,0,3,1,3,2,0,0,0,1,0,2,0,3,13,0,13,2,0,0,0,1,0,2,0,3,1,0,1,2,1,3,2,0,2,1,2,3,3,0,3,1,3,2,0,0,0,13,13,0,0,0,0,2,1,0,1,2,2,0,3,0,3,2,0,0,0,13,1,0,2,0,2,13,3,0,0,0,0,1,0,2,0,3,13,0,13,2,0,0,0,1,0,2,0,3,13,0,13,1,13,3,0,0,0,13,13,0,0,0,0,1,0,2,0,3,1,0,1,2,1,3,2,0,2,1,2,3,3,0,3,1,3,2,0,0,0,1,0,2,0,3,13,0,13,2,0,0,0,13,13,0,0,0,0,13,13,0,0,0,0,13,1,0,2,0,2,13,3,0,0,0,0,13,1,0,2,0,2,13,3,0,0,0,0,1,0,2,0,3,13,0,13,2,0,0,0,13,13,0,0,0,0,2,1,0,1,2,2,0,3,0,3,2,0,0,0,13,13,0,0,0,0,13,13,0,0,0,0,1,0,2,0,3,13,0,13,2,0,0,0,13,13,0,0,0,0,2,1,0,1,2,2,0,3,0,3,2,0,0,0,13,13,0,0,0,0,13,13,0,0,0,0,13,13,0,0,0,0,1,0,2,0,3,13,0,13,2,0,0,0,1,0,2,0,3,13,0,13,1,13,3,0,0,0,2,1,0,1,2,2,0,3,0,3,2,0,0,0,1,0,2,0,3,13,0,13,2,0,0,0,13,13,0,0,0,0,13,13,0,0,0,0,13,13,0,0,0,0,1,0,2,0,3,1,0,1,2,1,3,2,0,2,1,2,3,3,0,3,1,3,2,0,0,0,1,0,2,0,3,13,0,13,2,0,0,0,13,1,0,2,0,2,13,3,0,0,0,0,13,1,0,2,0,2,13,3,0,0,0,0,13,13,0,0,0,0,1,0,2,0,3,13,0,13,2,0,0,0,1,0,2,0,3,13,0,13,2,0,0,0,13,13,0,0,0,0,1,0,2,0,3,1,0,1,2,1,3,2,0,2,1,2,3,3,0,3,1,3,2,0,0,0,13,13,0,0,0,0,1,0,2,0,3,13,0,13,2,0,0,0,1,0,2,0,3,13,0,13,2,0,0,0,1,0,2,0,3,1,0,1,2,1,3,2,0,2,1,2,3,3,0,3,1,3,2,0,0,0,1,0,2,0,3,13,0,13,2,0,0,0,1,0,2,0,3,13,0,13,2,0,0,0,1,0,2,0,3,13,0,13,2,0,0,0,13,13,0,0,0,0,13,13,0,0,0,0,13,13,0,0,0,0,13,13,0,0,0,0,13,13,0,0,0,0,1,0,2,0,3,13,0,13,2,0,0,0,13,13,0,0,0,0,13,13,0,0,0,0,13,13,0,0,0,0,1,0,2,0,3,13,0,13,2,0,0,0,1,0,2,0,3,13,0,13,2,0,0,0,1,0,2,0,3,13,0,13,2,0,0,0,13,13,0,0,0,0,1,0,2,0,3,13,0,13,2,0,0,0,13,13,0,0,0,0,1,0,2,0,3,13,0,13,1,13,3,0,0,0,1,0,2,0,3,13,0,13,2,0,0,0,13,1,0,2,0,2,13,3,0,0,0,0,13,13,0,0,0,0,1,0,2,0,3,13,0,13,2,0,0,0,13,1,0,2,0,2,13,3,0,0,0,0,13,13,0,0,0,0,13,13,0,0,0,0,13,1,0,2,0,2,13,3,0,0,0,0,1,0,2,0,3,13,0,13,2,0,0,0,1,0,2,0,3,13,0,13,2,0,0,0,1,0,2,0,3,13,0,13,2,0,0,0,1,0,2,0,3,1,0,1,2,1,3,2,0,2,1,2,3,3,0,3,1,3,2,0,0,0,13,13,0,0,0,0,13,13,0,0,0,0,13,13,0,0,0,0,1,0,2,0,3,13,0,13,2,0,0,0,13,1,0,2,0,2,13,3,0,0,0,0,13,13,0,0,0,0,13,13,0,0,0,0,13,1,0,2,0,2,13,3,0,0,0,0,13,13,0,0,0,0,1,0,2,0,3,1,0,1,2,1,3,2,0,2,1,2,3,3,0,3,1,3,2,0,0,0,13,13,0,0,0,0,1,0,2,0,3,13,0,13,2,0,0,0,13,13,0,0,0,0,13,13,0,0,0,0,1,0,2,0,3,13,0,13,2,0,0,0,13,13,0,0,0,0,1,0,2,0,3,13,0,13,2,0,0,0,13,13,0,0,0,0,1,0,2,0,3,2,0,2,1,2,3,0,0,0,13,13,0,0,0,0,13,1,0,2,0,2,13,3,0,0,0,0,1,0,2,0,3,2,0,2,1,2,3,0,0,0,1,0,2,0,3,1,0,1,2,1,3,2,0,2,1,2,3,3,0,3,1,3,2,0,0,0,13,13,0,0,0,0,1,0,2,0,3,13,0,13,2,0,0,0,13,13,0,0,0,0,13,13,0,0,0,0,1,0,2,0,3,13,0,13,2,0,0,0,13,1,0,2,0,2,13,3,0,0,0,0,2,1,0,1,2,2,0,3,0,3,2,0,0,0,1,0,2,0,3,13,0,13,2,0,0,0,13,13,0,0,0,0,13,13,0,0,0,0,1,0,2,0,3,13,0,13,1,13,3,0,0,0,13,13,0,0,0,0,13,13,0,0,0,0,13,1,0,2,0,2,13,3,0,0,0,0,13,13,0,0,0,0,1,0,2,0,3,13,0,13,2,0,0,0,1,0,2,0,3,1,0,1,2,1,3,2,0,2,1,2,3,3,0,3,1,3,2,0,0,0,13,1,0,2,0,2,13,3,0,0,0,0,13,13,0,0,0,0,2,1,0,1,2,2,0,3,0,3,2,0,0,0,1,0,2,0,3,13,0,13,2,0,0,0,2,2,0,0,0,0,1,0,2,0,3,1,0,1,2,1,3,2,0,2,1,2,3,3,0,3,1,3,2,0,0,0,13,13,0,0,0,0,1,0,2,0,3,1,0,1,2,1,3,2,0,2,1,2,3,3,0,3,1,3,2,0,0,0,13,13,0,0,0,0,1,0,2,0,3,13,0,13,2,0,0,0,1,0,2,0,3,13,0,13,2,0,0,0,13,13,0,0,0,0,1,0,2,0,3,1,0,1,2,1,3,2,0,2,1,2,3,3,0,3,1,3,2,0,0,0,2,2,0,0,0,0,13,1,0,2,0,2,13,3,0,0,0,0,1,0,2,0,3,13,0,13,2,0,0,0,13,13,0,0,0,0,13,13,0,0,0,0,1,0,2,0,3,13,0,13,2,0,0,0,13,1,0,2,0,2,13,3,0,0,0,0,1,0,2,0,3,13,0,13,2,0,0,0,13,13,0,0,0,0,1,0,2,0,3,13,0,13,2,0,0,0,1,0,2,0,3,1,0,1,2,1,3,2,0,2,1,2,3,3,0,3,1,3,2,0,0,0,1,0,2,0,3,13,0,13,2,0,0,0,13,13,0,0,0,0,13,13,0,0,0,0,13,13,0,0,0,0,13,13,0,0,0,0,1,0,2,0,3,13,0,13,2,0,0,0,13,1,0,2,0,2,13,3,0,0,0,0,1,0,2,0,3,13,0,13,2,0,0,0,1,0,2,0,3,1,0,1,2,1,3,2,0,2,1,2,3,3,0,3,1,3,2,0,0,0,13,13,0,0,0,0,1,0,2,0,3,13,0,13,1,13,3,0,0,0,1,0,2,0,3,1,0,1,2,1,3,2,0,2,1,2,3,3,0,3,1,3,2,0,0,0,13,13,0,0,0,0,13,13,0,0,0,0,13,13,0,0,0,0,13,13,0,0,0,0,13,13,0,0,0,0,1,0,2,0,3,2,0,2,1,2,3,0,0,0,1,0,2,0,3,13,0,13,2,0,0,0,1,0,2,0,3,13,0,13,2,0,0,0,13,13,0,0,0,0,1,0,2,0,3,13,0,13,2,0,0,0,13,13,0,0,0,0,13,1,0,2,0,2,13,3,0,0,0,0,1,0,2,0,3,13,0,13,2,0,0,0,13,13,0,0,0,0,1,0,2,0,3,1,0,1,2,1,3,2,0,2,1,2,3,3,0,3,1,3,2,0,0,0,1,0,2,0,3,13,0,13,2,0,0,0,1,0,2,0,3,13,0,13,2,0,0,0,13,13,0,0,0,0,1,0,2,0,3,13,0,13,2,0,0,0,1,0,2,0,3,1,0,1,2,1,3,2,0,2,1,2,3,3,0,3,1,3,2,0,0,0,13,13,0,0,0,0,2,1,0,1,2,2,0,3,0,3,2,0,0,0,1,0,2,0,3,1,0,1,2,1,3,2,0,2,1,2,3,3,0,3,1,3,2,0,0,0,2,1,0,1,2,2,0,3,0,3,2,0,0,0,1,0,2,0,3,1,0,1,2,1,3,2,0,2,1,2,3,3,0,3,1,3,2,0,0,0,1,0,2,0,3,13,0,13,2,0,0,0,13,13,0,0,0,0,1,0,2,0,3,1,0,1,2,1,3,2,0,2,1,2,3,3,0,3,1,3,2,0,0,0,1,0,2,0,3,13,0,13,2,0,0,0,13,13,0,0,0,0,1,0,2,0,3,13,0,13,2,0,0,0,13,1,0,2,0,2,13,3,0,0,0,0,13,1,0,2,0,2,13,3,0,0,0,0,13,13,0,0,0,0,13,13,0,0,0,0,13,13,0,0,0,0,13,13,0,0,0,0,13,13,0,0,0,0,1,0,2,0,3,13,0,13,2,0,0,0,13,13,0,0,0,0,13,1,0,2,0,2,13,3,0,0,0,0,1,0,2,0,3,13,0,13,2,0,0,0,13,13,0,0,0,0,1,0,2,0,3,13,0,13,2,0,0,0,1,0,2,0,3,13,0,13,2,0,0,0,13,13,0,0,0,0,13,1,0,2,0,2,13,3,0,0,0,0,13,13,0,0,0,0,13,1,0,2,0,2,13,3,0,0,0,0,13,13,0,0,0,0,13,13,0,0,0,0,13,13,0,0,0,0,1,0,2,0,3,13,0,13,2,0,0,0,13,13,0,0,0,0,13,13,0,0,0,0,1,0,2,0,3,1,0,1,2,1,3,2,0,2,1,2,3,3,0,3,1,3,2,0,0,0,13,13,0,0,0,0,13,13,0,0,0,0,1,0,2,0,3,1,0,1,2,1,3,2,0,2,1,2,3,3,0,3,1,3,2,0,0,0,1,0,2,0,3,13,0,13,2,0,0,0,1,0,2,0,3,1,0,1,2,1,3,2,0,2,1,2,3,3,0,3,1,3,2,0,0,0,1,0,2,0,3,13,0,13,1,13,3,0,0,0,1,0,2,0,3,2,0,2,1,2,3,0,0,0,13,13,0,0,0,0,13,13,0,0,0,0,13,1,0,2,0,2,13,3,0,0,0,0,1,0,2,0,3,13,0,13,2,0,0,0,1,0,2,0,3,13,0,13,2,0,0,0,1,0,2,0,3,13,0,13,2,0,0,0,13,13,0,0,0,0,1,0,2,0,3,1,0,1,2,1,3,2,0,2,1,2,3,3,0,3,1,3,2,0,0,0,13,1,0,2,0,2,13,3,0,0,0,0,1,0,2,0,3,13,0,13,2,0,0,0,13,13,0,0,0,0,1,0,2,0,3,1,0,1,2,1,3,2,0,2,1,2,3,3,0,3,1,3,2,0,0,0,13,13,0,0,0,0,13,13,0,0,0,0,1,0,2,0,3,13,0,13,2,0,0,0,1,0,2,0,3,1,0,1,2,1,3,2,0,2,1,2,3,3,0,3,1,3,2,0,0,0,1,0,2,0,3,13,0,13,2,0,0,0,13,13,0,0,0,0,13,1,0,2,0,2,13,3,0,0,0,0,1,0,2,0,3,1,0,1,2,1,3,2,0,2,1,2,3,3,0,3,1,3,2,0,0,0,13,13,0,0,0,0,13,1,0,2,0,2,13,3,0,0,0,0,1,0,2,0,3,13,0,13,2,0,0,0,1,0,2,0,3,13,0,13,2,0,0,0,13,1,0,2,0,2,13,3,0,0,0,0,13,13,0,0,0,0,13,1,0,2,0,2,13,3,0,0,0,0,13,13,0,0,0,0,1,0,2,0,3,13,0,13,2,0,0,0,1,0,2,0,3,2,0,2,1,2,3,0,0,0,2,2,0,0,0,0,1,0,2,0,3,1,0,1,2,1,3,2,0,2,1,2,3,3,0,3,1,3,2,0,0,0,1,0,2,0,3,13,0,13,2,0,0,0,1,0,2,0,3,13,0,13,2,0,0,0,13,13,0,0,0,0,13,13,0,0,0,0,13,13,0,0,0,0,13,13,0,0,0,0,1,0,2,0,3,13,0,13,2,0,0,0,13,13,0,0,0,0,13,13,0,0,0,0,1,0,2,0,3,2,0,2,1,2,3,0,0,0,13,1,0,2,0,2,13,3,0,0,0,0,13,13,0,0,0,0,1,0,2,0,3,2,0,2,1,2,3,0,0,0,1,0,2,0,3,13,0,13,2,0,0,0,13,1,0,1,13,2,0,3,0,3,13,0,0,0,13,1,0,2,0,2,13,3,0,0,0,0,1,0,2,0,3,2,0,2,1,2,3,0,0,0,13,13,0,0,0,0,1,0,2,0,3,13,0,13,2,0,0,0,13,13,0,0,0,0,1,0,2,0,3,13,0,13,2,0,0,0,1,0,2,0,3,1,0,1,2,1,3,2,0,2,1,2,3,3,0,3,1,3,2,0,0,0,13,13,0,0,0,0,13,1,0,2,0,2,13,3,0,0,0,0,13,13,0,0,0,0,13,13,0,0,0,0,1,0,2,0,3,13,0,13,2,0,0,0,1,0,2,0,3,13,0,13,2,0,0,0,13,13,0,0,0,0,13,13,0,0,0,0,13,13,0,0,0,0,13,13,0,0,0,0,1,0,2,0,3,13,0,13,2,0,0,0,13,13,0,0,0,0,1,0,2,0,3,1,0,1,2,1,3,2,0,2,1,2,3,3,0,3,1,3,2,0,0,0,13,13,0,0,0,0,1,0,2,0,3,13,0,13,2,0,0,0,13,13,0,0,0,0,1,0,2,0,3,1,0,1,2,1,3,2,0,2,1,2,3,3,0,3,1,3,2,0,0,0,1,0,2,0,3,1,0,1,2,1,3,2,0,2,1,2,3,3,0,3,1,3,2,0,0,0,1,0,2,0,3,13,0,13,2,0,0,0,13,1,0,2,0,2,13,3,0,0,0,0,1,0,2,0,3,1,0,1,2,1,3,2,0,2,1,2,3,3,0,3,1,3,2,0,0,0,1,0,2,0,3,13,0,13,2,0,0,0,13,13,0,0,0,0,1,0,2,0,3,13,0,13,2,0,0,0,1,0,2,0,3,13,0,13,1,13,3,0,0,0,13,13,0,0,0,0,13,1,0,2,0,2,13,3,0,0,0,0,1,0,2,0,3,13,0,13,2,0,0,0,1,0,2,0,3,1,0,1,2,1,3,2,0,2,1,2,3,3,0,3,1,3,2,0,0,0,2,2,0,0,0,0,13,13,0,0,0,0,13,13,0,0,0,0,1,0,2,0,3,1,0,1,2,1,3,2,0,2,1,2,3,3,0,3,1,3,2,0,0,0,13,13,0,0,0,0,13,13,0,0,0,0,13,13,0,0,0,0,13,1,0,2,0,2,13,3,0,0,0,0,2,1,0,1,2,2,0,3,0,3,2,0,0,0,1,0,2,0,3,13,0,13,2,0,0,0,1,0,2,0,3,13,0,13,2,0,0,0,1,0,2,0,3,13,0,13,2,0,0,0,2,2,0,0,0,0,13,13,0,0,0,0,13,13,0,0,0,0,1,0,2,0,3,1,0,1,2,1,3,2,0,2,1,2,3,3,0,3,1,3,2,0,0,0,13,1,0,2,0,2,13,3,0,0,0,0,2,1,0,1,2,2,0,3,0,3,2,0,0,0,2,2,0,0,0,0,13,13,0,0,0,0,1,0,2,0,3,13,0,13,2,0,0,0,13,13,0,0,0,0,13,13,0,0,0,0,1,0,2,0,3,13,0,13,2,0,0,0,13,13,0,0,0,0,13,13,0,0,0,0,1,0,2,0,3,13,0,13,2,0,0,0,13,13,0,0,0,0,1,0,2,0,3,13,0,13,2,0,0,0,1,0,2,0,3,13,0,13,2,0,0,0,1,0,2,0,3,13,0,13,1,13,3,0,0,0,1,0,2,0,3,13,0,13,2,0,0,0,1,0,2,0,3,13,0,13,2,0,0,0,13,13,0,0,0,0,13,13,0,0,0,0,13,1,0,2,0,2,13,3,0,0,0,0,13,13,0,0,0,0,13,13,0,0,0,0,1,0,2,0,3,13,0,13,2,0,0,0,13,13,0,0,0,0,13,13,0,0,0,0,2,2,0,0,0,0,13,13,0,0,0,0,1,0,2,0,3,13,0,13,2,0,0,0,2,2,0,0,0,0,1,0,2,0,3,13,0,13,2,0,0,0,13,13,0,0,0,0,13,1,0,2,0,2,13,3,0,0,0,0,13,13,0,0,0,0,2,1,0,1,2,2,0,3,0,3,2,0,0,0,13,13,0,0,0,0,13,13,0,0,0,0,1,0,2,0,3,13,0,13,2,0,0,0,2,1,0,1,2,2,0,3,0,3,2,0,0,0,13,1,0,2,0,2,13,3,0,0,0,0,13,1,0,2,0,2,13,3,0,0,0,0,1,0,2,0,3,13,0,13,2,0,0,0,13,13,0,0,0,0,1,0,2,0,3,13,0,13,2,0,0,0,13,13,0,0,0,0,13,13,0,0,0,0,13,13,0,0,0,0,13,13,0,0,0,0,1,0,2,0,3,13,0,13,2,0,0,0,1,0,2,0,3,13,0,13,1,13,3,0,0,0,13,13,0,0,0,0,13,1,0,2,0,2,13,3,0,0,0,0,13,13,0,0,0,0,1,0,2,0,3,13,0,13,2,0,0,0,1,0,2,0,3,13,0,13,2,0,0,0,13,1,0,2,0,2,13,3,0,0,0,0,13,13,0,0,0,0,1,0,2,0,3,1,0,1,2,1,3,2,0,2,1,2,3,3,0,3,1,3,2,0,0,0,13,1,0,2,0,2,13,3,0,0,0,0,13,1,0,1,13,2,0,3,0,3,13,0,0,0,1,0,2,0,3,13,0,13,2,0,0,0,13,13,0,0,0,0,13,1,0,2,0,2,13,3,0,0,0,0,2,2,0,0,0,0,13,13,0,0,0,0,1,0,2,0,3,13,0,13,2,0,0,0,13,1,0,2,0,2,13,3,0,0,0,0,13,13,0,0,0,0,13,13,0,0,0,0,13,13,0,0,0,0,1,0,2,0,3,1,0,1,2,1,3,2,0,2,1,2,3,3,0,3,1,3,2,0,0,0,1,0,2,0,3,2,0,2,1,2,3,0,0,0,13,13,0,0,0,0,2,1,0,1,2,2,0,3,0,3,2,0,0,0,2,2,0,0,0,0,1,0,2,0,3,13,0,13,2,0,0,0,1,0,2,0,3,13,0,13,2,0,0,0,1,0,2,0,3,1,0,1,2,1,3,2,0,2,1,2,3,3,0,3,1,3,2,0,0,0,13,13,0,0,0,0,1,0,2,0,3,13,0,13,2,0,0,0,13,13,0,0,0,0,13,13,0,0,0,0,1,0,2,0,3,13,0,13,2,0,0,0,1,0,2,0,3,13,0,13,2,0,0,0,13,13,0,0,0,0,1,0,2,0,3,13,0,13,2,0,0,0,13,13,0,0,0,0,1,0,2,0,3,13,0,13,2,0,0,0,1,0,2,0,3,1,0,1,2,1,3,2,0,2,1,2,3,3,0,3,1,3,2,0,0,0,13,13,0,0,0,0,1,0,2,0,3,13,0,13,2,0,0,0,2,2,0,0,0,0,13,13,0,0,0,0,13,13,0,0,0,0,13,13,0,0,0,0,2,1,0,1,2,2,0,3,0,3,2,0,0,0,13,13,0,0,0,0,1,0,2,0,3,13,0,13,2,0,0,0,1,0,2,0,3,13,0,13,2,0,0,0,13,1,0,2,0,2,13,3,0,0,0,0,1,0,2,0,3,13,0,13,2,0,0,0,13,13,0,0,0,0,13,13,0,0,0,0,13,13,0,0,0,0,1,0,2,0,3,1,0,1,2,1,3,2,0,2,1,2,3,3,0,3,1,3,2,0,0,0,1,0,2,0,3,13,0,13,2,0,0,0,1,0,2,0,3,13,0,13,2,0,0,0,13,13,0,0,0,0,1,0,2,0,3,1,0,1,2,1,3,2,0,2,1,2,3,3,0,3,1,3,2,0,0,0,1,0,2,0,3,13,0,13,1,13,3,0,0,0,13,1,0,2,0,2,13,3,0,0,0,0,13,13,0,0,0,0,1,0,2,0,3,13,0,13,2,0,0,0,13,1,0,1,13,2,0,3,0,3,13,0,0,0,13,1,0,2,0,2,13,3,0,0,0,0,1,0,2,0,3,1,0,1,2,1,3,2,0,2,1,2,3,3,0,3,1,3,2,0,0,0,1,0,2,0,3,13,0,13,2,0,0,0,1,0,2,0,3,13,0,13,2,0,0,0,13,13,0,0,0,0,1,0,2,0,3,13,0,13,2,0,0,0,13,1,0,2,0,2,13,3,0,0,0,0,13,13,0,0,0,0,1,0,2,0,3,13,0,13,2,0,0,0,1,0,2,0,3,13,0,13,2,0,0,0,13,13,0,0,0,0,1,0,2,0,3,13,0,13,2,0,0,0,13,13,0,0,0,0,1,0,2,0,3,13,0,13,2,0,0,0,13,13,0,0,0,0,2,1,0,1,2,2,0,3,0,3,2,0,0,0,13,13,0,0,0,0,13,1,0,2,0,2,13,3,0,0,0,0,13,13,0,0,0,0,1,0,2,0,3,1,0,1,2,1,3,2,0,2,1,2,3,3,0,3,1,3,2,0,0,0,13,1,0,2,0,2,13,3,0,0,0,0,13,13,0,0,0,0,1,0,2,0,3,13,0,13,2,0,0,0,1,0,2,0,3,13,0,13,2,0,0,0,13,1,0,2,0,2,13,3,0,0,0,0,13,1,0,2,0,2,13,3,0,0,0,0,1,0,2,0,3,13,0,13,2,0,0,0,1,0,2,0,3,13,0,13,2,0,0,0,13,13,0,0,0,0,13,13,0,0,0,0,13,13,0,0,0,0,13,13,0,0,0,0,1,0,2,0,3,13,0,13,2,0,0,0,1,0,2,0,3,13,0,13,2,0,0,0,13,13,0,0,0,0,1,0,2,0,3,2,0,2,1,2,3,0,0,0,13,13,0,0,0,0,13,13,0,0,0,0,13,13,0,0,0,0,13,13,0,0,0,0,1,0,2,0,3,13,0,13,2,0,0,0,13,13,0,0,0,0,13,13,0,0,0,0,1,0,2,0,3,1,0,1,2,1,3,2,0,2,1,2,3,3,0,3,1,3,2,0,0,0,13,13,0,0,0,0,1,0,2,0,3,1,0,1,2,1,3,2,0,2,1,2,3,3,0,3,1,3,2,0,0,0,1,0,2,0,3,13,0,13,1,13,3,0,0,0,1,0,2,0,3,1,0,1,2,1,3,2,0,2,1,2,3,3,0,3,1,3,2,0,0,0,13,13,0,0,0,0,1,0,2,0,3,13,0,13,2,0,0,0,1,0,2,0,3,1,0,1,2,1,3,2,0,2,1,2,3,3,0,3,1,3,2,0,0,0,1,0,2,0,3,1,0,1,2,1,3,2,0,2,1,2,3,3,0,3,1,3,2,0,0,0,13,13,0,0,0,0,1,0,2,0,3,13,0,13,2,0,0,0,1,0,2,0,3,13,0,13,2,0,0,0,13,13,0,0,0,0,13,13,0,0,0,0,13,1,0,2,0,2,13,3,0,0,0,0,1,0,2,0,3,13,0,13,2,0,0,0,13,13,0,0,0,0,1,0,2,0,3,13,0,13,2,0,0,0,13,13,0,0,0,0,1,0,2,0,3,13,0,13,2,0,0,0,1,0,2,0,3,13,0,13,2,0,0,0,13,13,0,0,0,0,1,0,2,0,3,13,0,13,2,0,0,0,13,13,0,0,0,0,13,13,0,0,0,0,13,1,0,2,0,2,13,3,0,0,0,0,1,0,2,0,3,2,0,2,1,2,3,0,0,0,13,13,0,0,0,0,13,13,0,0,0,0,1,0,2,0,3,2,0,2,1,2,3,0,0,0,1,0,2,0,3,1,0,1,2,1,3,2,0,2,1,2,3,3,0,3,1,3,2,0,0,0,13,13,0,0,0,0,13,13,0,0,0,0,2,1,0,1,2,2,0,3,0,3,2,0,0,0,13,13,0,0,0,0,13,13,0,0,0,0,2,1,0,1,2,2,0,3,0,3,2,0,0,0,13,1,0,2,0,2,13,3,0,0,0,0,13,13,0,0,0,0,1,0,2,0,3,1,0,1,2,1,3,2,0,2,1,2,3,3,0,3,1,3,2,0,0,0,1,0,2,0,3,1,0,1,2,1,3,2,0,2,1,2,3,3,0,3,1,3,2,0,0,0,1,0,2,0,3,13,0,13,2,0,0,0,13,13,0,0,0,0,13,1,0,2,0,2,13,3,0,0,0,0,13,1,0,2,0,2,13,3,0,0,0,0,1,0,2,0,3,13,0,13,2,0,0,0,1,0,2,0,3,1,0,1,2,1,3,2,0,2,1,2,3,3,0,3,1,3,2,0,0,0,1,0,2,0,3,1,0,1,2,1,3,2,0,2,1,2,3,3,0,3,1,3,2,0,0,0,13,13,0,0,0,0,13,13,0,0,0,0,13,13,0,0,0,0,1,0,2,0,3,13,0,13,2,0,0,0,13,13,0,0,0,0,1,0,2,0,3,1,0,1,2,1,3,2,0,2,1,2,3,3,0,3,1,3,2,0,0,0,1,0,2,0,3,13,0,13,2,0,0,0,1,0,2,0,3,13,0,13,2,0,0,0,13,13,0,0,0,0,1,0,2,0,3,2,0,2,1,2,3,0,0,0,1,0,2,0,3,13,0,13,2,0,0,0,1,0,2,0,3,13,0,13,2,0,0,0,13,13,0,0,0,0,2,1,0,1,2,2,0,3,0,3,2,0,0,0,1,0,2,0,3,13,0,13,2,0,0,0,13,1,0,1,13,2,0,3,0,3,13,0,0,0,1,0,2,0,3,1,0,1,2,1,3,2,0,2,1,2,3,3,0,3,1,3,2,0,0,0,13,13,0,0,0,0,13,13,0,0,0,0,13,13,0,0,0,0,1,0,2,0,3,13,0,13,2,0,0,0,13,1,0,2,0,2,13,3,0,0,0,0,13,13,0,0,0,0,13,1,0,2,0,2,13,3,0,0,0,0,13,13,0,0,0,0,13,13,0,0,0,0,13,13,0,0,0,0,13,1,0,2,0,2,13,3,0,0,0,0,13,13,0,0,0,0,1,0,2,0,3,1,0,1,2,1,3,2,0,2,1,2,3,3,0,3,1,3,2,0,0,0,1,0,2,0,3,13,0,13,2,0,0,0,13,13,0,0,0,0,13,13,0,0,0,0,1,0,2,0,3,13,0,13,2,0,0,0,13,13,0,0,0,0,1,0,2,0,3,13,0,13,2,0,0,0,13,13,0,0,0,0,13,13,0,0,0,0,13,13,0,0,0,0,13,13,0,0,0,0,1,0,2,0,3,1,0,1,2,1,3,2,0,2,1,2,3,3,0,3,1,3,2,0,0,0,13,13,0,0,0,0,13,13,0,0,0,0,1,0,2,0,3,13,0,13,2,0,0,0,13,13,0,0,0,0,13,1,0,2,0,2,13,3,0,0,0,0,1,0,2,0,3,13,0,13,2,0,0,0,1,0,2,0,3,13,0,13,2,0,0,0,13,13,0,0,0,0,13,13,0,0,0,0,13,13,0,0,0,0,1,0,2,0,3,13,0,13,1,13,3,0,0,0,2,1,0,1,2,2,0,3,0,3,2,0,0,0,13,13,0,0,0,0,1,0,2,0,3,13,0,13,1,13,3,0,0,0,1,0,2,0,3,13,0,13,2,0,0,0,13,13,0,0,0,0,2,2,0,0,0,0,1,0,2,0,3,1,0,1,2,1,3,2,0,2,1,2,3,3,0,3,1,3,2,0,0,0,1,0,2,0,3,13,0,13,2,0,0,0,1,0,2,0,3,13,0,13,2,0,0,0,13,1,0,2,0,2,13,3,0,0,0,0,13,13,0,0,0,0,1,0,2,0,3,13,0,13,2,0,0,0,13,13,0,0,0,0,13,13,0,0,0,0,13,13,0,0,0,0,13,13,0,0,0,0,1,0,2,0,3,1,0,1,2,1,3,2,0,2,1,2,3,3,0,3,1,3,2,0,0,0,1,0,2,0,3,1,0,1,2,1,3,2,0,2,1,2,3,3,0,3,1,3,2,0,0,0,13,13,0,0,0,0,13,13,0,0,0,0,13,13,0,0,0,0,13,13,0,0,0,0,13,13,0,0,0,0,1,0,2,0,3,13,0,13,2,0,0,0,13,1,0,2,0,2,13,3,0,0,0,0,13,13,0,0,0,0,13,1,0,2,0,2,13,3,0,0,0,0,13,1,0,2,0,2,13,3,0,0,0,0,1,0,2,0,3,13,0,13,2,0,0,0,1,0,2,0,3,13,0,13,2,0,0,0,13,13,0,0,0,0,13,1,0,2,0,2,13,3,0,0,0,0,13,13,0,0,0,0,1,0,2,0,3,13,0,13,2,0,0,0,1,0,2,0,3,13,0,13,2,0,0,0,1,0,2,0,3,13,0,13,2,0,0,0,13,13,0,0,0,0,1,0,2,0,3,13,0,13,2,0,0,0,1,0,2,0,3,13,0,13,2,0,0,0,1,0,2,0,3,13,0,13,2,0,0,0,13,13,0,0,0,0,1,0,2,0,3,13,0,13,2,0,0,0,1,0,2,0,3,13,0,13,2,0,0,0,13,13,0,0,0,0,13,13,0,0,0,0,13,13,0,0,0,0,1,0,2,0,3,13,0,13,2,0,0,0,1,0,2,0,3,1,0,1,2,1,3,2,0,2,1,2,3,3,0,3,1,3,2,0,0,0,13,13,0,0,0,0,13,13,0,0,0,0,13,13,0,0,0,0,13,13,0,0,0,0,13,13,0,0,0,0,13,1,0,2,0,2,13,3,0,0,0,0,1,0,2,0,3,13,0,13,1,13,3,0,0,0,13,1,0,2,0,2,13,3,0,0,0,0,13,13,0,0,0,0,1,0,2,0,3,13,0,13,2,0,0,0,13,13,0,0,0,0,13,13,0,0,0,0,1,0,2,0,3,13,0,13,2,0,0,0,13,13,0,0,0,0,1,0,2,0,3,13,0,13,2,0,0,0,1,0,2,0,3,13,0,13,2,0,0,0,1,0,2,0,3,13,0,13,2,0,0,0,13,13,0,0,0,0,2,2,0,0,0,0,1,0,2,0,3,13,0,13,2,0,0,0,1,0,2,0,3,2,0,2,1,2,3,0,0,0,13,1,0,2,0,2,13,3,0,0,0,0,1,0,2,0,3,13,0,13,2,0,0,0,13,13,0,0,0,0,13,13,0,0,0,0,1,0,2,0,3,1,0,1,2,1,3,2,0,2,1,2,3,3,0,3,1,3,2,0,0,0,2,1,0,1,2,2,0,3,0,3,2,0,0,0,13,13,0,0,0,0,1,0,2,0,3,2,0,2,1,2,3,0,0,0,1,0,2,0,3,1,0,1,2,1,3,2,0,2,1,2,3,3,0,3,1,3,2,0,0,0,13,13,0,0,0,0,13,13,0,0,0,0,1,0,2,0,3,13,0,13,1,13,3,0,0,0,1,0,2,0,3,13,0,13,2,0,0,0,1,0,2,0,3,13,0,13,2,0,0,0,13,13,0,0,0,0,13,1,0,2,0,2,13,3,0,0,0,0,13,13,0,0,0,0,13,1,0,2,0,2,13,3,0,0,0,0,1,0,2,0,3,13,0,13,2,0,0,0,13,13,0,0,0,0,1,0,2,0,3,13,0,13,2,0,0,0,1,0,2,0,3,13,0,13,2,0,0,0,13,1,0,2,0,2,13,3,0,0,0,0,1,0,2,0,3,1,0,1,2,1,3,2,0,2,1,2,3,3,0,3,1,3,2,0,0,0,13,13,0,0,0,0,1,0,2,0,3,13,0,13,2,0,0,0,1,0,2,0,3,2,0,2,1,2,3,0,0,0,13,13,0,0,0,0,13,13,0,0,0,0,13,13,0,0,0,0,13,13,0,0,0,0,1,0,2,0,3,2,0,2,1,2,3,0,0,0,13,13,0,0,0,0,13,13,0,0,0,0,13,13,0,0,0,0,13,13,0,0,0,0,13,1,0,2,0,2,13,3,0,0,0,0,13,13,0,0,0,0,13,13,0,0,0,0,1,0,2,0,3,13,0,13,2,0,0,0,13,13,0,0,0,0,13,13,0,0,0,0,1,0,2,0,3,13,0,13,2,0,0,0,13,13,0,0,0,0,13,13,0,0,0,0,13,1,0,2,0,2,13,3,0,0,0,0,1,0,2,0,3,13,0,13,2,0,0,0,1,0,2,0,3,13,0,13,1,13,3,0,0,0,13,13,0,0,0,0,13,13,0,0,0,0,1,0,2,0,3,13,0,13,1,13,3,0,0,0,13,13,0,0,0,0,13,13,0,0,0,0,2,2,0,0,0,0,1,0,2,0,3,13,0,13,2,0,0,0,13,13,0,0,0,0,13,1,0,2,0,2,13,3,0,0,0,0,13,13,0,0,0,0,13,13,0,0,0,0,1,0,2,0,3,13,0,13,2,0,0,0,13,1,0,2,0,2,13,3,0,0,0,0,13,13,0,0,0,0,13,13,0,0,0,0,1,0,2,0,3,1,0,1,2,1,3,2,0,2,1,2,3,3,0,3,1,3,2,0,0,0,1,0,2,0,3,1,0,1,2,1,3,2,0,2,1,2,3,3,0,3,1,3,2,0,0,0,13,13,0,0,0,0,1,0,2,0,3,1,0,1,2,1,3,2,0,2,1,2,3,3,0,3,1,3,2,0,0,0,13,13,0,0,0,0,1,0,2,0,3,13,0,13,2,0,0,0,13,13,0,0,0,0,2,2,0,0,0,0,13,13,0,0,0,0,1,0,2,0,3,1,0,1,2,1,3,2,0,2,1,2,3,3,0,3,1,3,2,0,0,0,13,1,0,2,0,2,13,3,0,0,0,0,1,0,2,0,3,13,0,13,2,0,0,0,13,13,0,0,0,0,1,0,2,0,3,13,0,13,2,0,0,0,1,0,2,0,3,13,0,13,2,0,0,0,13,1,0,2,0,2,13,3,0,0,0,0,1,0,2,0,3,13,0,13,2,0,0,0,1,0,2,0,3,1,0,1,2,1,3,2,0,2,1,2,3,3,0,3,1,3,2,0,0,0,1,0,2,0,3,13,0,13,2,0,0,0,1,0,2,0,3,13,0,13,2,0,0,0,13,13,0,0,0,0,2,2,0,0,0,0,1,0,2,0,3,13,0,13,2,0,0,0,1,0,2,0,3,13,0,13,1,13,3,0,0,0,1,0,2,0,3,13,0,13,2,0,0,0,1,0,2,0,3,13,0,13,2,0,0,0,13,13,0,0,0,0,1,0,2,0,3,13,0,13,2,0,0,0,1,0,2,0,3,13,0,13,1,13,3,0,0,0,1,0,2,0,3,13,0,13,2,0,0,0,13,13,0,0,0,0,13,13,0,0,0,0,1,0,2,0,3,13,0,13,2,0,0,0,1,0,2,0,3,13,0,13,2,0,0,0,1,0,2,0,3,1,0,1,2,1,3,2,0,2,1,2,3,3,0,3,1,3,2,0,0,0,2,2,0,0,0,0,1,0,2,0,3,1,0,1,2,1,3,2,0,2,1,2,3,3,0,3,1,3,2,0,0,0,1,0,2,0,3,13,0,13,2,0,0,0,1,0,2,0,3,13,0,13,2,0,0,0,13,13,0,0,0,0,13,13,0,0,0,0,13,13,0,0,0,0,13,13,0,0,0,0,2,2,0,0,0,0,1,0,2,0,3,1,0,1,2,1,3,2,0,2,1,2,3,3,0,3,1,3,2,0,0,0,13,13,0,0,0,0,1,0,2,0,3,2,0,2,1,2,3,0,0,0,1,0,2,0,3,13,0,13,2,0,0,0,13,13,0,0,0,0,1,0,2,0,3,13,0,13,2,0,0,0,13,13,0,0,0,0,1,0,2,0,3,13,0,13,2,0,0,0,2,2,0,0,0,0,13,13,0,0,0,0,13,1,0,1,13,2,0,3,0,3,13,0,0,0,13,13,0,0,0,0,13,13,0,0,0,0,1,0,2,0,3,13,0,13,2,0,0,0,1,0,2,0,3,13,0,13,2,0,0,0,13,1,0,2,0,2,13,3,0,0,0,0,1,0,2,0,3,13,0,13,2,0,0,0,13,1,0,2,0,2,13,3,0,0,0,0,13,13,0,0,0,0,13,1,0,2,0,2,13,3,0,0,0,0,13,13,0,0,0,0,13,13,0,0,0,0,1,0,2,0,3,13,0,13,2,0,0,0,13,13,0,0,0,0,13,13,0,0,0,0,13,1,0,2,0,2,13,3,0,0,0,0,1,0,2,0,3,2,0,2,1,2,3,0,0,0,13,13,0,0,0,0,1,0,2,0,3,13,0,13,2,0,0,0,13,13,0,0,0,0,1,0,2,0,3,13,0,13,2,0,0,0,1,0,2,0,3,13,0,13,2,0,0,0,1,0,2,0,3,13,0,13,2,0,0,0,13,13,0,0,0,0,13,1,0,2,0,2,13,3,0,0,0,0,1,0,2,0,3,13,0,13,1,13,3,0,0,0,13,13,0,0,0,0,1,0,2,0,3,13,0,13,2,0,0,0,1,0,2,0,3,1,0,1,2,1,3,2,0,2,1,2,3,3,0,3,1,3,2,0,0,0,2,2,0,0,0,0,1,0,2,0,3,13,0,13,1,13,3,0,0,0,13,13,0,0,0,0,13,13,0,0,0,0,13,13,0,0,0,0,1,0,2,0,3,13,0,13,2,0,0,0,1,0,2,0,3,1,0,1,2,1,3,2,0,2,1,2,3,3,0,3,1,3,2,0,0,0,1,0,2,0,3,13,0,13,2,0,0,0,13,13,0,0,0,0,1,0,2,0,3,13,0,13,2,0,0,0,1,0,2,0,3,13,0,13,2,0,0,0,1,0,2,0,3,1,0,1,2,1,3,2,0,2,1,2,3,3,0,3,1,3,2,0,0,0,1,0,2,0,3,13,0,13,2,0,0,0,13,13,0,0,0,0,13,13,0,0,0,0,13,13,0,0,0,0,2,2,0,0,0,0,1,0,2,0,3,13,0,13,2,0,0,0,1,0,2,0,3,13,0,13,2,0,0,0,13,13,0,0,0,0,13,13,0,0,0,0,1,0,2,0,3,13,0,13,2,0,0,0,2,1,0,1,2,2,0,3,0,3,2,0,0,0,13,13,0,0,0,0,1,0,2,0,3,2,0,2,1,2,3,0,0,0,2,2,0,0,0,0,2,1,0,1,2,2,0,3,0,3,2,0,0,0,1,0,2,0,3,1,0,1,2,1,3,2,0,2,1,2,3,3,0,3,1,3,2,0,0,0,1,0,2,0,3,1,0,1,2,1,3,2,0,2,1,2,3,3,0,3,1,3,2,0,0,0,1,0,2,0,3,13,0,13,2,0,0,0,1,0,2,0,3,13,0,13,2,0,0,0,13,13,0,0,0,0,1,0,2,0,3,13,0,13,2,0,0,0,13,13,0,0,0,0,13,13,0,0,0,0,13,13,0,0,0,0,13,1,0,2,0,2,13,3,0,0,0,0,13,13,0,0,0,0,13,13,0,0,0,0,1,0,2,0,3,13,0,13,2,0,0,0,13,13,0,0,0,0,13,13,0,0,0,0,13,13,0,0,0,0,1,0,2,0,3,1,0,1,2,1,3,2,0,2,1,2,3,3,0,3,1,3,2,0,0,0,13,13,0,0,0,0,13,13,0,0,0,0,13,1,0,2,0,2,13,3,0,0,0,0,1,0,2,0,3,13,0,13,2,0,0,0,1,0,2,0,3,13,0,13,2,0,0,0,13,13,0,0,0,0,1,0,2,0,3,1,0,1,2,1,3,2,0,2,1,2,3,3,0,3,1,3,2,0,0,0,13,13,0,0,0,0,13,13,0,0,0,0,13,1,0,2,0,2,13,3,0,0,0,0,13,13,0,0,0,0,13,13,0,0,0,0,13,1,0,2,0,2,13,3,0,0,0,0,13,13,0,0,0,0,13,1,0,2,0,2,13,3,0,0,0,0,13,13,0,0,0,0,13,13,0,0,0,0,13,13,0,0,0,0,13,13,0,0,0,0,1,0,2,0,3,2,0,2,1,2,3,0,0,0,1,0,2,0,3,13,0,13,2,0,0,0,13,13,0,0,0,0,13,13,0,0,0,0,1,0,2,0,3,13,0,13,2,0,0,0,13,13,0,0,0,0,1,0,2,0,3,13,0,13,2,0,0,0,13,13,0,0,0,0,13,13,0,0,0,0,1,0,2,0,3,1,0,1,2,1,3,2,0,2,1,2,3,3,0,3,1,3,2,0,0,0,13,13,0,0,0,0,1,0,2,0,3,13,0,13,2,0,0,0,1,0,2,0,3,1,0,1,2,1,3,2,0,2,1,2,3,3,0,3,1,3,2,0,0,0,13,13,0,0,0,0,1,0,2,0,3,13,0,13,2,0,0,0,1,0,2,0,3,1,0,1,2,1,3,2,0,2,1,2,3,3,0,3,1,3,2,0,0,0,1,0,2,0,3,1,0,1,2,1,3,2,0,2,1,2,3,3,0,3,1,3,2,0,0,0,1,0,2,0,3,13,0,13,2,0,0,0,1,0,2,0,3,13,0,13,1,13,3,0,0,0,1,0,2,0,3,13,0,13,2,0,0,0,13,13,0,0,0,0,2,2,0,0,0,0,13,13,0,0,0,0,2,1,0,1,2,2,0,3,0,3,2,0,0,0,1,0,2,0,3,13,0,13,2,0,0,0,13,13,0,0,0,0,13,13,0,0,0,0,13,1,0,2,0,2,13,3,0,0,0,0,1,0,2,0,3,13,0,13,2,0,0,0,13,13,0,0,0,0,13,13,0,0,0,0,13,13,0,0,0,0,13,13,0,0,0,0,1,0,2,0,3,13,0,13,2,0,0,0,1,0,2,0,3,13,0,13,2,0,0,0,13,13,0,0,0,0,1,0,2,0,3,13,0,13,1,13,3,0,0,0,13,13,0,0,0,0,1,0,2,0,3,13,0,13,2,0,0,0,13,13,0,0,0,0,13,13,0,0,0,0,13,1,0,2,0,2,13,3,0,0,0,0,13,13,0,0,0,0,1,0,2,0,3,1,0,1,2,1,3,2,0,2,1,2,3,3,0,3,1,3,2,0,0,0,2,2,0,0,0,0,13,13,0,0,0,0,13,13,0,0,0,0,1,0,2,0,3,2,0,2,1,2,3,0,0,0,1,0,2,0,3,13,0,13,2,0,0,0,13,13,0,0,0,0,13,1,0,2,0,2,13,3,0,0,0,0,1,0,2,0,3,13,0,13,2,0,0,0,1,0,2,0,3,13,0,13,2,0,0,0,1,0,2,0,3,13,0,13,2,0,0,0,1,0,2,0,3,13,0,13,2,0,0,0,1,0,2,0,3,2,0,2,1,2,3,0,0,0,13,13,0,0,0,0,13,13,0,0,0,0,1,0,2,0,3,13,0,13,2,0,0,0,1,0,2,0,3,1,0,1,2,1,3,2,0,2,1,2,3,3,0,3,1,3,2,0,0,0,13,13,0,0,0,0,1,0,2,0,3,13,0,13,2,0,0,0,1,0,2,0,3,13,0,13,2,0,0,0,1,0,2,0,3,1,0,1,2,1,3,2,0,2,1,2,3,3,0,3,1,3,2,0,0,0,1,0,2,0,3,1,0,1,2,1,3,2,0,2,1,2,3,3,0,3,1,3,2,0,0,0,13,13,0,0,0,0,13,1,0,2,0,2,13,3,0,0,0,0,1,0,2,0,3,13,0,13,2,0,0,0,13,13,0,0,0,0,1,0,2,0,3,1,0,1,2,1,3,2,0,2,1,2,3,3,0,3,1,3,2,0,0,0,2,2,0,0,0,0,13,1,0,2,0,2,13,3,0,0,0,0,13,13,0,0,0,0,13,1,0,2,0,2,13,3,0,0,0,0,1,0,2,0,3,13,0,13,2,0,0,0,13,13,0,0,0,0,13,13,0,0,0,0,13,13,0,0,0,0,2,2,0,0,0,0,13,13,0,0,0,0,13,1,0,2,0,2,13,3,0,0,0,0,13,13,0,0,0,0,1,0,2,0,3,13,0,13,2,0,0,0,1,0,2,0,3,13,0,13,2,0,0,0,13,13,0,0,0,0,1,0,2,0,3,13,0,13,2,0,0,0,13,13,0,0,0,0,1,0,2,0,3,13,0,13,2,0,0,0,13,1,0,2,0,2,13,3,0,0,0,0,13,13,0,0,0,0,1,0,2,0,3,13,0,13,2,0,0,0,13,1,0,2,0,2,13,3,0,0,0,0,13,13,0,0,0,0,13,13,0,0,0,0,2,2,0,0,0,0,1,0,2,0,3,1,0,1,2,1,3,2,0,2,1,2,3,3,0,3,1,3,2,0,0,0,1,0,2,0,3,1,0,1,2,1,3,2,0,2,1,2,3,3,0,3,1,3,2,0,0,0,1,0,2,0,3,13,0,13,2,0,0,0,13,13,0,0,0,0,13,13,0,0,0,0,1,0,2,0,3,13,0,13,2,0,0,0,1,0,2,0,3,13,0,13,2,0,0,0,2,1,0,1,2,2,0,3,0,3,2,0,0,0,13,13,0,0,0,0,13,13,0,0,0,0,1,0,2,0,3,1,0,1,2,1,3,2,0,2,1,2,3,3,0,3,1,3,2,0,0,0,1,0,2,0,3,13,0,13,2,0,0,0,13,13,0,0,0,0,1,0,2,0,3,13,0,13,2,0,0,0,1,0,2,0,3,13,0,13,2,0,0,0,13,13,0,0,0,0,1,0,2,0,3,13,0,13,2,0,0,0,13,1,0,2,0,2,13,3,0,0,0,0,13,13,0,0,0,0,13,13,0,0,0,0,13,13,0,0,0,0,13,13,0,0,0,0,13,13,0,0,0,0,13,13,0,0,0,0,2,1,0,1,2,2,0,3,0,3,2,0,0,0,13,13,0,0,0,0,13,13,0,0,0,0,13,13,0,0,0,0,13,13,0,0,0,0,13,13,0,0,0,0,13,1,0,2,0,2,13,3,0,0,0,0,1,0,2,0,3,13,0,13,2,0,0,0,13,13,0,0,0,0,13,1,0,2,0,2,13,3,0,0,0,0,1,0,2,0,3,13,0,13,2,0,0,0,2,1,0,1,2,2,0,3,0,3,2,0,0,0,1,0,2,0,3,2,0,2,1,2,3,0,0,0,1,0,2,0,3,1,0,1,2,1,3,2,0,2,1,2,3,3,0,3,1,3,2,0,0,0,13,13,0,0,0,0,1,0,2,0,3,2,0,2,1,2,3,0,0,0,13,13,0,0,0,0,13,13,0,0,0,0,13,13,0,0,0,0,2,1,0,1,2,2,0,3,0,3,2,0,0,0,1,0,2,0,3,2,0,2,1,2,3,0,0,0,1,0,2,0,3,13,0,13,2,0,0,0,1,0,2,0,3,2,0,2,1,2,3,0,0,0,13,13,0,0,0,0,1,0,2,0,3,13,0,13,2,0,0,0,13,1,0,2,0,2,13,3,0,0,0,0,13,13,0,0,0,0,13,1,0,2,0,2,13,3,0,0,0,0,13,13,0,0,0,0,13,13,0,0,0,0,1,0,2,0,3,13,0,13,2,0,0,0,1,0,2,0,3,1,0,1,2,1,3,2,0,2,1,2,3,3,0,3,1,3,2,0,0,0,1,0,2,0,3,13,0,13,1,13,3,0,0,0,13,13,0,0,0,0,1,0,2,0,3,13,0,13,2,0,0,0,13,13,0,0,0,0,13,13,0,0,0,0,1,0,2,0,3,1,0,1,2,1,3,2,0,2,1,2,3,3,0,3,1,3,2,0,0,0,1,0,2,0,3,1,0,1,2,1,3,2,0,2,1,2,3,3,0,3,1,3,2,0,0,0,1,0,2,0,3,2,0,2,1,2,3,0,0,0,2,1,0,1,2,2,0,3,0,3,2,0,0,0,13,1,0,2,0,2,13,3,0,0,0,0,13,13,0,0,0,0,13,13,0,0,0,0,13,13,0,0,0,0,1,0,2,0,3,13,0,13,2,0,0,0,1,0,2,0,3,13,0,13,2,0,0,0,1,0,2,0,3,13,0,13,2,0,0,0,13,13,0,0,0,0,13,1,0,2,0,2,13,3,0,0,0,0,13,1,0,2,0,2,13,3,0,0,0,0,13,13,0,0,0,0,1,0,2,0,3,13,0,13,2,0,0,0,1,0,2,0,3,1,0,1,2,1,3,2,0,2,1,2,3,3,0,3,1,3,2,0,0,0,13,13,0,0,0,0,13,13,0,0,0,0,13,13,0,0,0,0,1,0,2,0,3,13,0,13,2,0,0,0,13,13,0,0,0,0,1,0,2,0,3,13,0,13,2,0,0,0,13,13,0,0,0,0,13,13,0,0,0,0,13,13,0,0,0,0,13,13,0,0,0,0,1,0,2,0,3,13,0,13,2,0,0,0,1,0,2,0,3,13,0,13,2,0,0,0,1,0,2,0,3,1,0,1,2,1,3,2,0,2,1,2,3,3,0,3,1,3,2,0,0,0,13,13,0,0,0,0,1,0,2,0,3,13,0,13,2,0,0,0,13,13,0,0,0,0,1,0,2,0,3,2,0,2,1,2,3,0,0,0,1,0,2,0,3,13,0,13,2,0,0,0,1,0,2,0,3,13,0,13,2,0,0,0,13,13,0,0,0,0,13,13,0,0,0,0,1,0,2,0,3,2,0,2,1,2,3,0,0,0,1,0,2,0,3,13,0,13,2,0,0,0,1,0,2,0,3,13,0,13,2,0,0,0,1,0,2,0,3,1,0,1,2,1,3,2,0,2,1,2,3,3,0,3,1,3,2,0,0,0,1,0,2,0,3,13,0,13,2,0,0,0,1,0,2,0,3,13,0,13,2,0,0,0,13,13,0,0,0,0,13,13,0,0,0,0,1,0,2,0,3,13,0,13,2,0,0,0,1,0,2,0,3,13,0,13,2,0,0,0,1,0,2,0,3,1,0,1,2,1,3,2,0,2,1,2,3,3,0,3,1,3,2,0,0,0,1,0,2,0,3,13,0,13,2,0,0,0,1,0,2,0,3,13,0,13,2,0,0,0,13,13,0,0,0,0,1,0,2,0,3,13,0,13,2,0,0,0,13,13,0,0,0,0,1,0,2,0,3,13,0,13,2,0,0,0,13,13,0,0,0,0,13,13,0,0,0,0,1,0,2,0,3,13,0,13,2,0,0,0,13,13,0,0,0,0,13,1,0,2,0,2,13,3,0,0,0,0,13,13,0,0,0,0,13,13,0,0,0,0,13,1,0,2,0,2,13,3,0,0,0,0,13,13,0,0,0,0,1,0,2,0,3,2,0,2,1,2,3,0,0,0,1,0,2,0,3,13,0,13,2,0,0,0,13,13,0,0,0,0,1,0,2,0,3,13,0,13,2,0,0,0,13,13,0,0,0,0,1,0,2,0,3,13,0,13,2,0,0,0,1,0,2,0,3,13,0,13,2,0,0,0,2,2,0,0,0,0,13,13,0,0,0,0,13,13,0,0,0,0,13,13,0,0,0,0,2,2,0,0,0,0,1,0,2,0,3,13,0,13,2,0,0,0,1,0,2,0,3,13,0,13,2,0,0,0,1,0,2,0,3,13,0,13,1,13,3,0,0,0,13,13,0,0,0,0,13,13,0,0,0,0,1,0,2,0,3,13,0,13,2,0,0,0,13,13,0,0,0,0,13,13,0,0,0,0,13,13,0,0,0,0,13,13,0,0,0,0,13,1,0,2,0,2,13,3,0,0,0,0,13,13,0,0,0,0,13,13,0,0,0,0,13,13,0,0,0,0,13,13,0,0,0,0,13,13,0,0,0,0,1,0,2,0,3,13,0,13,1,13,3,0,0,0,1,0,2,0,3,13,0,13,2,0,0,0,13,13,0,0,0,0,1,0,2,0,3,13,0,13,1,13,3,0,0,0,1,0,2,0,3,1,0,1,2,1,3,2,0,2,1,2,3,3,0,3,1,3,2,0,0,0,1,0,2,0,3,13,0,13,2,0,0,0,13,1,0,2,0,2,13,3,0,0,0,0,13,13,0,0,0,0,13,13,0,0,0,0,13,13,0,0,0,0,13,13,0,0,0,0,13,13,0,0,0,0,13,13,0,0,0,0,13,13,0,0,0,0,13,1,0,2,0,2,13,3,0,0,0,0,1,0,2,0,3,13,0,13,2,0,0,0,13,1,0,2,0,2,13,3,0,0,0,0,1,0,2,0,3,1,0,1,2,1,3,2,0,2,1,2,3,3,0,3,1,3,2,0,0,0,13,13,0,0,0,0,1,0,2,0,3,1,0,1,2,1,3,2,0,2,1,2,3,3,0,3,1,3,2,0,0,0,13,13,0,0,0,0,1,0,2,0,3,13,0,13,1,13,3,0,0,0,1,0,2,0,3,13,0,13,2,0,0,0,13,13,0,0,0,0,1,0,2,0,3,1,0,1,2,1,3,2,0,2,1,2,3,3,0,3,1,3,2,0,0,0,1,0,2,0,3,13,0,13,2,0,0,0,1,0,2,0,3,1,0,1,2,1,3,2,0,2,1,2,3,3,0,3,1,3,2,0,0,0,1,0,2,0,3,13,0,13,2,0,0,0,13,13,0,0,0,0,13,13,0,0,0,0,1,0,2,0,3,13,0,13,2,0,0,0,1,0,2,0,3,13,0,13,2,0,0,0,13,13,0,0,0,0,1,0,2,0,3,13,0,13,2,0,0,0,13,13,0,0,0,0,1,0,2,0,3,13,0,13,1,13,3,0,0,0,1,0,2,0,3,13,0,13,2,0,0,0,1,0,2,0,3,13,0,13,1,13,3,0,0,0,2,2,0,0,0,0,1,0,2,0,3,13,0,13,2,0,0,0,1,0,2,0,3,13,0,13,2,0,0,0,13,13,0,0,0,0,1,0,2,0,3,13,0,13,2,0,0,0,13,13,0,0,0,0,1,0,2,0,3,13,0,13,2,0,0,0,13,13,0,0,0,0,13,13,0,0,0,0,1,0,2,0,3,13,0,13,2,0,0,0,1,0,2,0,3,13,0,13,2,0,0,0,13,1,0,2,0,2,13,3,0,0,0,0,13,13,0,0,0,0,13,13,0,0,0,0,1,0,2,0,3,13,0,13,2,0,0,0,13,13,0,0,0,0,13,13,0,0,0,0,13,13,0,0,0,0,1,0,2,0,3,13,0,13,2,0,0,0,13,13,0,0,0,0,13,13,0,0,0,0,1,0,2,0,3,1,0,1,2,1,3,2,0,2,1,2,3,3,0,3,1,3,2,0,0,0,13,13,0,0,0,0,2,1,0,1,2,2,0,3,0,3,2,0,0,0,13,13,0,0,0,0,13,13,0,0,0,0,13,13,0,0,0,0,1,0,2,0,3,1,0,1,2,1,3,2,0,2,1,2,3,3,0,3,1,3,2,0,0,0,1,0,2,0,3,13,0,13,2,0,0,0,13,13,0,0,0,0,1,0,2,0,3,13,0,13,1,13,3,0,0,0,13,13,0,0,0,0,13,13,0,0,0,0,1,0,2,0,3,13,0,13,2,0,0,0,1,0,2,0,3,13,0,13,2,0,0,0,1,0,2,0,3,1,0,1,2,1,3,2,0,2,1,2,3,3,0,3,1,3,2,0,0,0,1,0,2,0,3,13,0,13,2,0,0,0,1,0,2,0,3,13,0,13,2,0,0,0,13,13,0,0,0,0,13,13,0,0,0,0,1,0,2,0,3,13,0,13,2,0,0,0,1,0,2,0,3,13,0,13,2,0,0,0,13,13,0,0,0,0,13,13,0,0,0,0,1,0,2,0,3,1,0,1,2,1,3,2,0,2,1,2,3,3,0,3,1,3,2,0,0,0,13,13,0,0,0,0,13,13,0,0,0,0,13,13,0,0,0,0,13,1,0,2,0,2,13,3,0,0,0,0,13,1,0,2,0,2,13,3,0,0,0,0,13,1,0,2,0,2,13,3,0,0,0,0,13,13,0,0,0,0,1,0,2,0,3,13,0,13,2,0,0,0,13,13,0,0,0,0,13,13,0,0,0,0,1,0,2,0,3,13,0,13,2,0,0,0,13,13,0,0,0,0,13,13,0,0,0,0,13,13,0,0,0,0,1,0,2,0,3,1,0,1,2,1,3,2,0,2,1,2,3,3,0,3,1,3,2,0,0,0,1,0,2,0,3,13,0,13,2,0,0,0,1,0,2,0,3,13,0,13,2,0,0,0,13,13,0,0,0,0,13,13,0,0,0,0,13,13,0,0,0,0,13,13,0,0,0,0,1,0,2,0,3,13,0,13,2,0,0,0,13,13,0,0,0,0,13,13,0,0,0,0,1,0,2,0,3,13,0,13,2,0,0,0,13,13,0,0,0,0,13,13,0,0,0,0,1,0,2,0,3,13,0,13,2,0,0,0,1,0,2,0,3,13,0,13,2,0,0,0,13,1,0,2,0,2,13,3,0,0,0,0,13,13,0,0,0,0,13,13,0,0,0,0,13,13,0,0,0,0,1,0,2,0,3,1,0,1,2,1,3,2,0,2,1,2,3,3,0,3,1,3,2,0,0,0,1,0,2,0,3,13,0,13,2,0,0,0,1,0,2,0,3,13,0,13,2,0,0,0,1,0,2,0,3,2,0,2,1,2,3,0,0,0,13,13,0,0,0,0,1,0,2,0,3,13,0,13,2,0,0,0,13,1,0,2,0,2,13,3,0,0,0,0,1,0,2,0,3,13,0,13,2,0,0,0,13,1,0,2,0,2,13,3,0,0,0,0,13,1,0,2,0,2,13,3,0,0,0,0,13,1,0,2,0,2,13,3,0,0,0,0,1,0,2,0,3,1,0,1,2,1,3,2,0,2,1,2,3,3,0,3,1,3,2,0,0,0,13,13,0,0,0,0,1,0,2,0,3,2,0,2,1,2,3,0,0,0,13,13,0,0,0,0,13,13,0,0,0,0,1,0,2,0,3,2,0,2,1,2,3,0,0,0,13,13,0,0,0,0,1,0,2,0,3,13,0,13,1,13,3,0,0,0,13,13,0,0,0,0,1,0,2,0,3,13,0,13,2,0,0,0,1,0,2,0,3,1,0,1,2,1,3,2,0,2,1,2,3,3,0,3,1,3,2,0,0,0,13,13,0,0,0,0,13,13,0,0,0,0,13,1,0,2,0,2,13,3,0,0,0,0,13,1,0,2,0,2,13,3,0,0,0,0,13,13,0,0,0,0,13,13,0,0,0,0,1,0,2,0,3,13,0,13,2,0,0,0,1,0,2,0,3,13,0,13,2,0,0,0,1,0,2,0,3,13,0,13,2,0,0,0,1,0,2,0,3,13,0,13,2,0,0,0,13,13,0,0,0,0,1,0,2,0,3,13,0,13,2,0,0,0,13,13,0,0,0,0,1,0,2,0,3,13,0,13,2,0,0,0,13,13,0,0,0,0,13,1,0,2,0,2,13,3,0,0,0,0,13,13,0,0,0,0,1,0,2,0,3,13,0,13,2,0,0,0,13,13,0,0,0,0,1,0,2,0,3,1,0,1,2,1,3,2,0,2,1,2,3,3,0,3,1,3,2,0,0,0,13,13,0,0,0,0,13,13,0,0,0,0,13,13,0,0,0,0,13,1,0,2,0,2,13,3,0,0,0,0,1,0,2,0,3,1,0,1,2,1,3,2,0,2,1,2,3,3,0,3,1,3,2,0,0,0,1,0,2,0,3,13,0,13,2,0,0,0,13,13,0,0,0,0,13,13,0,0,0,0,13,13,0,0,0,0,13,13,0,0,0,0,1,0,2,0,3,13,0,13,2,0,0,0,13,13,0,0,0,0,13,13,0,0,0,0,13,13,0,0,0,0,1,0,2,0,3,13,0,13,1,13,3,0,0,0,13,1,0,2,0,2,13,3,0,0,0,0,1,0,2,0,3,2,0,2,1,2,3,0,0,0,13,13,0,0,0,0,1,0,2,0,3,1,0,1,2,1,3,2,0,2,1,2,3,3,0,3,1,3,2,0,0,0,1,0,2,0,3,13,0,13,2,0,0,0,13,13,0,0,0,0,13,13,0,0,0,0,13,13,0,0,0,0,13,1,0,2,0,2,13,3,0,0,0,0,13,13,0,0,0,0,13,13,0,0,0,0,1,0,2,0,3,1,0,1,2,1,3,2,0,2,1,2,3,3,0,3,1,3,2,0,0,0,13,13,0,0,0,0,13,1,0,2,0,2,13,3,0,0,0,0,1,0,2,0,3,1,0,1,2,1,3,2,0,2,1,2,3,3,0,3,1,3,2,0,0,0,13,13,0,0,0,0,13,13,0,0,0,0,13,1,0,2,0,2,13,3,0,0,0,0,1,0,2,0,3,13,0,13,2,0,0,0,1,0,2,0,3,13,0,13,2,0,0,0,13,13,0,0,0,0,13,1,0,2,0,2,13,3,0,0,0,0,13,1,0,2,0,2,13,3,0,0,0,0,13,13,0,0,0,0,13,13,0,0,0,0,13,13,0,0,0,0,13,13,0,0,0,0,13,13,0,0,0,0,1,0,2,0,3,13,0,13,2,0,0,0,13,1,0,2,0,2,13,3,0,0,0,0,1,0,2,0,3,13,0,13,2,0,0,0,1,0,2,0,3,13,0,13,2,0,0,0,13,13,0,0,0,0,13,1,0,1,13,2,0,3,0,3,13,0,0,0,13,13,0,0,0,0,1,0,2,0,3,13,0,13,2,0,0,0,1,0,2,0,3,13,0,13,2,0,0,0,1,0,2,0,3,13,0,13,2,0,0,0,1,0,2,0,3,13,0,13,2,0,0,0,1,0,2,0,3,1,0,1,2,1,3,2,0,2,1,2,3,3,0,3,1,3,2,0,0,0,13,13,0,0,0,0,2,2,0,0,0,0,1,0,2,0,3,13,0,13,2,0,0,0,13,13,0,0,0,0,13,13,0,0,0,0,13,13,0,0,0,0,1,0,2,0,3,13,0,13,2,0,0,0,13,13,0,0,0,0,1,0,2,0,3,13,0,13,2,0,0,0,13,13,0,0,0,0,1,0,2,0,3,13,0,13,1,13,3,0,0,0,1,0,2,0,3,13,0,13,2,0,0,0,13,1,0,1,13,2,0,3,0,3,13,0,0,0,1,0,2,0,3,13,0,13,2,0,0,0,1,0,2,0,3,13,0,13,1,13,3,0,0,0,13,13,0,0,0,0,1,0,2,0,3,1,0,1,2,1,3,2,0,2,1,2,3,3,0,3,1,3,2,0,0,0,13,13,0,0,0,0,13,13,0,0,0,0,13,1,0,2,0,2,13,3,0,0,0,0,13,1,0,1,13,2,0,3,0,3,13,0,0,0,13,13,0,0,0,0,1,0,2,0,3,1,0,1,2,1,3,2,0,2,1,2,3,3,0,3,1,3,2,0,0,0,1,0,2,0,3,13,0,13,2,0,0,0,13,13,0,0,0,0,13,13,0,0,0,0,13,13,0,0,0,0,1,0,2,0,3,13,0,13,2,0,0,0,1,0,2,0,3,13,0,13,2,0,0,0,13,13,0,0,0,0,1,0,2,0,3,13,0,13,2,0,0,0,1,0,2,0,3,13,0,13,2,0,0,0,13,13,0,0,0,0,1,0,2,0,3,13,0,13,1,13,3,0,0,0,1,0,2,0,3,13,0,13,2,0,0,0,13,1,0,2,0,2,13,3,0,0,0,0,1,0,2,0,3,13,0,13,2,0,0,0,13,1,0,2,0,2,13,3,0,0,0,0,13,13,0,0,0,0,13,13,0,0,0,0,13,13,0,0,0,0,1,0,2,0,3,13,0,13,2,0,0,0,1,0,2,0,3,1,0,1,2,1,3,2,0,2,1,2,3,3,0,3,1,3,2,0,0,0,13,1,0,2,0,2,13,3,0,0,0,0,13,13,0,0,0,0,1,0,2,0,3,13,0,13,2,0,0,0,1,0,2,0,3,13,0,13,2,0,0,0,13,13,0,0,0,0,1,0,2,0,3,13,0,13,2,0,0,0,13,13,0,0,0,0,13,13,0,0,0,0,13,13,0,0,0,0,2,1,0,1,2,2,0,3,0,3,2,0,0,0,1,0,2,0,3,13,0,13,2,0,0,0,13,13,0,0,0,0,1,0,2,0,3,13,0,13,2,0,0,0,1,0,2,0,3,13,0,13,2,0,0,0,1,0,2,0,3,13,0,13,2,0,0,0,13,13,0,0,0,0,2,1,0,1,2,2,0,3,0,3,2,0,0,0,13,13,0,0,0,0,1,0,2,0,3,13,0,13,1,13,3,0,0,0,1,0,2,0,3,13,0,13,1,13,3,0,0,0,13,13,0,0,0,0,1,0,2,0,3,13,0,13,1,13,3,0,0,0,13,13,0,0,0,0,13,13,0,0,0,0,13,1,0,2,0,2,13,3,0,0,0,0,13,13,0,0,0,0,13,13,0,0,0,0,13,13,0,0,0,0,13,1,0,2,0,2,13,3,0,0,0,0,13,13,0,0,0,0,1,0,2,0,3,13,0,13,2,0,0,0,1,0,2,0,3,13,0,13,2,0,0,0,1,0,2,0,3,2,0,2,1,2,3,0,0,0,13,13,0,0,0,0,13,13,0,0,0,0,1,0,2,0,3,2,0,2,1,2,3,0,0,0,13,13,0,0,0,0,13,13,0,0,0,0,1,0,2,0,3,13,0,13,2,0,0,0,13,13,0,0,0,0,13,13,0,0,0,0,1,0,2,0,3,13,0,13,2,0,0,0,1,0,2,0,3,1,0,1,2,1,3,2,0,2,1,2,3,3,0,3,1,3,2,0,0,0,1,0,2,0,3,13,0,13,2,0,0,0,1,0,2,0,3,1,0,1,2,1,3,2,0,2,1,2,3,3,0,3,1,3,2,0,0,0,13,1,0,2,0,2,13,3,0,0,0,0,13,1,0,2,0,2,13,3,0,0,0,0,13,13,0,0,0,0,13,13,0,0,0,0,1,0,2,0,3,13,0,13,2,0,0,0,1,0,2,0,3,2,0,2,1,2,3,0,0,0,13,13,0,0,0,0,13,13,0,0,0,0,1,0,2,0,3,13,0,13,2,0,0,0,1,0,2,0,3,1,0,1,2,1,3,2,0,2,1,2,3,3,0,3,1,3,2,0,0,0,1,0,2,0,3,13,0,13,2,0,0,0,1,0,2,0,3,13,0,13,2,0,0,0,1,0,2,0,3,13,0,13,2,0,0,0,1,0,2,0,3,13,0,13,2,0,0,0,13,1,0,2,0,2,13,3,0,0,0,0,13,13,0,0,0,0,13,13,0,0,0,0,1,0,2,0,3,1,0,1,2,1,3,2,0,2,1,2,3,3,0,3,1,3,2,0,0,0,13,13,0,0,0,0,1,0,2,0,3,13,0,13,2,0,0,0,1,0,2,0,3,1,0,1,2,1,3,2,0,2,1,2,3,3,0,3,1,3,2,0,0,0,13,1,0,2,0,2,13,3,0,0,0,0,13,13,0,0,0,0,13,13,0,0,0,0,1,0,2,0,3,1,0,1,2,1,3,2,0,2,1,2,3,3,0,3,1,3,2,0,0,0,1,0,2,0,3,1,0,1,2,1,3,2,0,2,1,2,3,3,0,3,1,3,2,0,0,0,13,13,0,0,0,0,13,13,0,0,0,0,13,1,0,2,0,2,13,3,0,0,0,0,13,13,0,0,0,0,13,13,0,0,0,0,13,13,0,0,0,0,13,13,0,0,0,0,1,0,2,0,3,13,0,13,1,13,3,0,0,0,1,0,2,0,3,13,0,13,1,13,3,0,0,0,1,0,2,0,3,13,0,13,2,0,0,0,13,13,0,0,0,0,1,0,2,0,3,1,0,1,2,1,3,2,0,2,1,2,3,3,0,3,1,3,2,0,0,0,13,13,0,0,0,0,1,0,2,0,3,13,0,13,2,0,0,0,13,1,0,2,0,2,13,3,0,0,0,0,13,13,0,0,0,0,13,13,0,0,0,0,13,13,0,0,0,0,13,13,0,0,0,0,13,13,0,0,0,0,1,0,2,0,3,13,0,13,1,13,3,0,0,0,13,13,0,0,0,0,13,13,0,0,0,0,13,13,0,0,0,0,13,13,0,0,0,0,13,13,0,0,0,0,13,13,0,0,0,0,1,0,2,0,3,1,0,1,2,1,3,2,0,2,1,2,3,3,0,3,1,3,2,0,0,0,1,0,2,0,3,13,0,13,2,0,0,0,13,13,0,0,0,0,1,0,2,0,3,13,0,13,2,0,0,0,1,0,2,0,3,2,0,2,1,2,3,0,0,0,13,13,0,0,0,0,13,13,0,0,0,0,13,13,0,0,0,0,13,13,0,0,0,0,1,0,2,0,3,13,0,13,1,13,3,0,0,0,1,0,2,0,3,13,0,13,2,0,0,0,13,1,0,2,0,2,13,3,0,0,0,0,1,0,2,0,3,1,0,1,2,1,3,2,0,2,1,2,3,3,0,3,1,3,2,0,0,0,13,1,0,2,0,2,13,3,0,0,0,0,2,2,0,0,0,0,13,13,0,0,0,0,13,13,0,0,0,0,13,13,0,0,0,0,1,0,2,0,3,1,0,1,2,1,3,2,0,2,1,2,3,3,0,3,1,3,2,0,0,0,1,0,2,0,3,13,0,13,2,0,0,0,1,0,2,0,3,1,0,1,2,1,3,2,0,2,1,2,3,3,0,3,1,3,2,0,0,0,1,0,2,0,3,13,0,13,2,0,0,0,13,13,0,0,0,0,13,13,0,0,0,0,13,13,0,0,0,0,1,0,2,0,3,13,0,13,1,13,3,0,0,0,1,0,2,0,3,1,0,1,2,1,3,2,0,2,1,2,3,3,0,3,1,3,2,0,0,0,13,1,0,2,0,2,13,3,0,0,0,0,1,0,2,0,3,13,0,13,2,0,0,0,1,0,2,0,3,1,0,1,2,1,3,2,0,2,1,2,3,3,0,3,1,3,2,0,0,0,1,0,2,0,3,13,0,13,2,0,0,0,1,0,2,0,3,1,0,1,2,1,3,2,0,2,1,2,3,3,0,3,1,3,2,0,0,0,13,13,0,0,0,0,1,0,2,0,3,1,0,1,2,1,3,2,0,2,1,2,3,3,0,3,1,3,2,0,0,0,1,0,2,0,3,13,0,13,2,0,0,0,1,0,2,0,3,2,0,2,1,2,3,0,0,0,13,13,0,0,0,0,1,0,2,0,3,13,0,13,2,0,0,0,13,13,0,0,0,0,1,0,2,0,3,13,0,13,2,0,0,0,13,13,0,0,0,0,1,0,2,0,3,13,0,13,2,0,0,0,2,1,0,1,2,2,0,3,0,3,2,0,0,0,13,13,0,0,0,0,13,13,0,0,0,0,13,13,0,0,0,0,13,1,0,2,0,2,13,3,0,0,0,0,13,13,0,0,0,0,13,13,0,0,0,0,13,13,0,0,0,0,1,0,2,0,3,13,0,13,2,0,0,0,13,13,0,0,0,0,1,0,2,0,3,13,0,13,2,0,0,0,13,13,0,0,0,0,13,13,0,0,0,0,13,13,0,0,0,0,1,0,2,0,3,13,0,13,2,0,0,0,13,13,0,0,0,0,1,0,2,0,3,13,0,13,2,0,0,0,13,13,0,0,0,0,13,13,0,0,0,0,1,0,2,0,3,1,0,1,2,1,3,2,0,2,1,2,3,3,0,3,1,3,2,0,0,0,13,13,0,0,0,0,13,13,0,0,0,0,1,0,2,0,3,13,0,13,2,0,0,0,1,0,2,0,3,2,0,2,1,2,3,0,0,0,1,0,2,0,3,2,0,2,1,2,3,0,0,0,13,13,0,0,0,0,13,13,0,0,0,0,13,13,0,0,0,0,13,13,0,0,0,0,13,13,0,0,0,0,13,13,0,0,0,0,1,0,2,0,3,13,0,13,2,0,0,0,1,0,2,0,3,13,0,13,2,0,0,0,1,0,2,0,3,1,0,1,2,1,3,2,0,2,1,2,3,3,0,3,1,3,2,0,0,0,1,0,2,0,3,13,0,13,2,0,0,0,1,0,2,0,3,13,0,13,2,0,0,0,1,0,2,0,3,13,0,13,2,0,0,0,1,0,2,0,3,1,0,1,2,1,3,2,0,2,1,2,3,3,0,3,1,3,2,0,0,0,1,0,2,0,3,13,0,13,2,0,0,0,13,13,0,0,0,0,1,0,2,0,3,13,0,13,2,0,0,0,1,0,2,0,3,13,0,13,2,0,0,0,13,13,0,0,0,0,13,13,0,0,0,0,13,13,0,0,0,0,1,0,2,0,3,13,0,13,2,0,0,0,2,1,0,1,2,2,0,3,0,3,2,0,0,0,13,13,0,0,0,0,13,13,0,0,0,0,13,13,0,0,0,0,1,0,2,0,3,13,0,13,2,0,0,0,13,13,0,0,0,0,1,0,2,0,3,13,0,13,2,0,0,0,13,13,0,0,0,0,13,13,0];
num_constraints3= 389;
max_constraints3 = 28833;
scopes3x = [147,167,111,147,81,83,126,78,81,82,143,122,78,80,166,145,140,142,167,126,41,81,40,82,78,142,121,140,140,49,126,39,166,126,125,142,89,147,85,147,129,122,83,145,165,90,81,140,80,142,83,121,147,81,85,81,129,78,81,129,146,122,82,147,81,81,145,140,83,82,146,143,145,78,129,147,145,129,125,81,143,145,142,85,142,129,127,129,146,85,140,145,41,147,83,142,40,129,143,166,142,125,82,166,145,129,147,82,125,145,146,125,141,142,100,147,129,84,127,82,40,147,143,81,122,142,126,140,81,140,82,81,82,81,146,147,78,147,81,145,41,84,146,140,143,84,82,111,167,166,90,49,140,147,39,167,126,146,80,85,82,41,147,141,134,81,84,125,111,126,78,39,83,80,81,122,83,146,141,81,40,49,147,126,140,122,142,122,147,82,142,111,145,83,141,145,142,167,126,167,91,82,145,111,87,122,121,147,140,82,147,81,142,82,126,82,84,81,147,122,145,165,82,142,133,126,129,41,82,134,129,140,147,147,122,129,133,122,82,84,140,147,111,39,142,40,147,147,89,81,125,165,141,125,145,165,129,166,142,141,84,165,145,134,140,145,145,142,90,84,145,147,142,142,125,140,82,165,142,80,129,125,145,140,147,126,165,142,165,147,125,81,127,81,81,140,134,145,147,140,145,140,140,82,141,81,147,140,85,82,39,82,141,165,145,165,142,87,82,140,166,127,166,80,147,122,133,166,127,140,80,125,147,82,82,82,81,145,127,81,165,85,126,142,127,126,122,133,127,125,140,140,167,147,147,122,82,134,133,127,166,127,126,82,127,143,167,81,127,145,87,125,165,89,127,167,85,82,111,127,145,122,143,142,166,127,166,125,142];
scopes3y = [88,146,82,83,138,74,140,134,111,139,120,140,134,134,144,83,83,83,146,145,72,134,72,72,100,83,82,84,111,39,140,72,144,145,147,84,146,168,74,168,143,140,73,163,141,146,100,83,134,84,75,82,83,111,76,137,143,91,138,143,121,140,139,84,137,138,163,85,73,74,121,121,82,134,82,168,82,146,145,139,121,84,85,76,84,141,82,146,121,74,84,163,72,84,75,82,72,143,121,141,82,142,73,141,85,146,85,138,145,82,121,142,121,82,134,84,146,73,141,137,72,164,121,138,147,85,142,82,134,82,75,137,120,137,120,88,134,85,134,85,72,75,120,82,120,73,72,82,146,141,133,40,85,85,72,146,142,120,100,75,120,72,164,120,103,100,75,145,82,142,134,72,76,91,139,142,74,120,120,111,72,41,86,142,82,145,163,142,83,73,83,82,111,76,120,83,111,147,145,147,134,74,83,82,133,145,82,168,83,75,83,139,163,137,140,138,76,139,168,145,84,143,74,82,147,140,141,72,74,79,82,83,83,83,140,141,147,145,137,74,163,84,82,72,82,72,163,168,133,100,142,143,121,147,84,146,82,143,163,121,76,141,84,94,163,85,82,84,146,74,82,163,85,82,147,82,73,143,85,134,141,142,164,84,85,147,146,164,141,84,140,139,143,139,137,163,107,82,163,84,85,85,82,75,120,100,84,82,73,73,72,72,121,144,164,146,164,146,73,164,143,143,146,134,86,147,147,143,141,164,134,145,85,75,74,75,138,164,143,138,144,73,147,164,82,145,142,147,146,140,85,164,146,85,164,147,120,98,147,141,146,146,147,139,82,120,146,137,143,82,146,140,144,146,146,147,75,138,82,146,83,142,120,83,144,141,146,140,82];
scopes3z = [131,151,137,132,119,130,83,99,137,114,149,83,103,107,151,130,128,130,149,85,60,107,58,119,134,124,74,128,82,72,82,60,149,84,83,128,131,154,128,150,150,85,128,150,150,132,139,124,98,130,128,75,124,138,128,99,148,134,99,151,150,84,119,128,103,103,151,130,130,114,148,150,128,107,73,149,124,150,82,110,148,123,130,130,123,151,74,148,151,130,130,149,50,130,130,124,48,149,151,151,123,85,110,150,123,151,128,119,83,114,149,84,151,114,79,131,149,128,150,110,57,150,149,110,83,123,83,123,99,124,114,107,74,114,150,132,98,130,103,124,48,128,148,114,150,130,114,72,154,149,146,72,123,131,48,155,82,151,134,128,75,57,149,148,79,134,130,84,139,85,94,57,128,134,119,85,128,149,151,139,60,72,131,84,119,83,151,84,128,119,123,73,82,130,149,124,82,151,82,149,79,128,123,75,146,82,73,155,130,119,130,99,150,114,85,114,128,103,152,85,128,150,110,128,88,84,150,58,130,99,74,123,131,123,82,148,83,84,119,128,150,132,138,58,130,50,150,151,146,137,83,151,150,85,130,150,75,150,149,148,130,151,124,79,151,128,110,124,131,130,130,151,128,110,84,128,128,149,124,94,149,82,150,123,132,83,151,150,149,123,83,107,150,114,110,149,79,123,149,124,130,128,110,128,150,138,124,130,128,130,50,110,149,150,151,149,151,132,114,150,151,148,150,99,132,84,85,149,148,149,103,85,123,110,119,130,107,149,151,114,151,130,85,149,73,83,83,84,150,82,124,151,152,124,151,85,73,79,86,151,151,148,84,110,75,148,150,119,149,119,131,85,149,132,149,150,130,110,74,151,128,82,151,128,150,149,149,84,119];
num_tuples3 = [15,31,63,15,31,31,15,31,31,63,31,15,31,31,15,31,31,31,31,15,15,31,15,31,31,15,15,31,31,7,15,15,15,15,15,31,15,31,31,31,31,15,31,15,31,15,31,15,31,31,31,15,15,31,31,31,15,31,31,31,31,15,63,31,31,31,15,31,31,31,15,31,31,31,15,31,15,31,15,31,15,15,31,31,15,31,15,15,31,31,31,15,15,31,31,15,7,31,31,31,15,15,31,31,15,31,31,63,15,31,31,15,31,31,31,15,31,31,31,63,15,15,31,31,15,15,15,15,31,15,31,31,15,31,31,15,31,31,31,15,7,31,15,31,31,31,31,31,31,31,15,7,15,15,7,31,15,31,31,31,15,15,15,15,31,31,31,15,63,15,31,15,31,31,31,15,31,31,31,31,15,7,15,15,31,15,15,15,31,31,15,31,31,31,31,15,31,15,15,15,31,31,15,31,15,15,15,31,31,31,31,31,15,63,15,63,31,31,31,15,31,31,31,31,15,15,31,15,31,31,15,15,15,15,15,15,15,15,63,31,15,15,63,15,31,15,15,31,15,31,15,31,31,15,31,31,15,31,15,15,31,31,15,31,15,31,31,15,15,31,31,15,31,31,15,31,31,31,15,31,31,15,15,15,15,15,31,15,31,15,15,31,31,31,31,15,31,15,15,15,31,31,31,31,31,31,15,31,31,31,15,31,31,15,15,31,15,15,31,15,31,15,31,31,15,15,15,31,15,15,31,15,15,31,31,31,31,15,31,31,15,31,15,15,15,15,15,15,31,15,15,15,31,15,15,15,15,31,15,31,31,15,15,63,15,15,31,31,31,31,15,15,15,15,31,15,31,63,31,31,31,15,31,31,15,31,31,15,31];
cum_tuples3 = [0,15,46,109,124,155,186,201,232,263,326,357,372,403,434,449,480,511,542,573,588,603,634,649,680,711,726,741,772,803,810,825,840,855,870,885,916,931,962,993,1024,1055,1070,1101,1116,1147,1162,1193,1208,1239,1270,1301,1316,1331,1362,1393,1424,1439,1470,1501,1532,1563,1578,1641,1672,1703,1734,1749,1780,1811,1842,1857,1888,1919,1950,1965,1996,2011,2042,2057,2088,2103,2118,2149,2180,2195,2226,2241,2256,2287,2318,2349,2364,2379,2410,2441,2456,2463,2494,2525,2556,2571,2586,2617,2648,2663,2694,2725,2788,2803,2834,2865,2880,2911,2942,2973,2988,3019,3050,3081,3144,3159,3174,3205,3236,3251,3266,3281,3296,3327,3342,3373,3404,3419,3450,3481,3496,3527,3558,3589,3604,3611,3642,3657,3688,3719,3750,3781,3812,3843,3874,3889,3896,3911,3926,3933,3964,3979,4010,4041,4072,4087,4102,4117,4132,4163,4194,4225,4240,4303,4318,4349,4364,4395,4426,4457,4472,4503,4534,4565,4596,4611,4618,4633,4648,4679,4694,4709,4724,4755,4786,4801,4832,4863,4894,4925,4940,4971,4986,5001,5016,5047,5078,5093,5124,5139,5154,5169,5200,5231,5262,5293,5324,5339,5402,5417,5480,5511,5542,5573,5588,5619,5650,5681,5712,5727,5742,5773,5788,5819,5850,5865,5880,5895,5910,5925,5940,5955,5970,6033,6064,6079,6094,6157,6172,6203,6218,6233,6264,6279,6310,6325,6356,6387,6402,6433,6464,6479,6510,6525,6540,6571,6602,6617,6648,6663,6694,6725,6740,6755,6786,6817,6832,6863,6894,6909,6940,6971,7002,7017,7048,7079,7094,7109,7124,7139,7154,7185,7200,7231,7246,7261,7292,7323,7354,7385,7400,7431,7446,7461,7476,7507,7538,7569,7600,7631,7662,7677,7708,7739,7770,7785,7816,7847,7862,7877,7908,7923,7938,7969,7984,8015,8030,8061,8092,8107,8122,8137,8168,8183,8198,8229,8244,8259,8290,8321,8352,8383,8398,8429,8460,8475,8506,8521,8536,8551,8566,8581,8596,8627,8642,8657,8672,8703,8718,8733,8748,8763,8794,8809,8840,8871,8886,8901,8964,8979,8994,9025,9056,9087,9118,9133,9148,9163,9178,9209,9224,9255,9318,9349,9380,9411,9426,9457,9488,9503,9534,9565,9580];
constraints3 = [0,0,0,0,0,2,0,1,0,0,1,2,0,2,0,0,2,2,0,3,0,0,3,2,13,0,0,13,0,2,13,1,0,13,1,2,13,2,0,13,2,2,13,3,0,0,0,0,0,0,1,0,0,2,0,0,3,0,1,0,0,1,1,0,1,2,0,1,3,0,2,0,0,2,1,0,2,2,0,2,3,0,3,0,0,3,1,0,3,2,0,3,3,13,0,0,13,0,1,13,0,2,13,0,3,13,1,0,13,1,1,13,1,2,13,1,3,13,2,0,13,2,1,13,2,2,13,2,3,13,3,0,13,3,1,13,3,3,0,0,0,0,0,1,0,0,2,0,0,3,0,1,0,0,1,1,0,1,2,0,1,3,0,2,0,0,2,1,0,2,2,0,2,3,0,3,0,0,3,1,0,3,2,0,3,3,1,0,0,1,0,1,1,0,2,1,0,3,1,1,0,1,1,1,1,1,2,1,1,3,1,2,0,1,2,1,1,2,2,1,2,3,1,3,0,1,3,1,1,3,2,1,3,3,2,0,0,2,0,1,2,0,2,2,0,3,2,1,0,2,1,1,2,1,2,2,1,3,2,2,0,2,2,1,2,2,2,2,2,3,2,3,0,2,3,2,2,3,3,3,0,0,3,0,1,3,0,2,3,0,3,3,1,0,3,1,1,3,1,2,3,1,3,3,2,0,3,2,1,3,2,2,3,2,3,3,3,0,3,3,1,3,3,2,3,3,3,0,0,0,0,0,2,0,1,0,0,1,2,0,2,0,0,2,2,0,3,0,0,3,2,13,0,0,13,0,2,13,1,0,13,1,2,13,2,0,13,2,2,13,3,0,0,0,0,0,0,1,0,0,2,0,0,3,0,1,0,0,1,1,0,1,2,0,1,3,0,2,0,0,2,1,0,2,2,0,2,3,0,3,0,0,3,1,0,3,2,0,3,3,13,0,0,13,0,1,13,0,2,13,0,3,13,1,0,13,1,1,13,1,3,13,2,0,13,2,1,13,2,2,13,2,3,13,3,0,13,3,1,13,3,2,13,3,3,0,0,0,0,0,1,0,0,2,0,0,3,0,13,0,0,13,1,0,13,2,0,13,3,1,0,0,1,0,1,1,0,2,1,0,3,1,13,0,1,13,1,1,13,2,1,13,3,2,0,0,2,0,1,2,0,2,2,0,3,2,13,0,2,13,2,2,13,3,3,0,0,3,0,1,3,0,2,3,0,3,3,13,0,3,13,1,3,13,2,3,13,3,0,0,0,0,0,1,0,0,2,0,0,3,0,13,0,0,13,1,0,13,2,0,13,3,2,0,0,2,0,1,2,0,2,2,0,3,2,13,0,2,13,1,2,13,2,0,0,0,0,0,1,0,0,2,0,0,3,0,1,0,0,1,1,0,1,2,0,1,3,0,2,0,0,2,1,0,2,2,0,2,3,0,3,0,0,3,1,0,3,2,0,3,3,13,0,0,13,0,1,13,0,2,13,0,3,13,1,0,13,1,1,13,1,3,13,2,0,13,2,1,13,2,2,13,2,3,13,3,0,13,3,1,13,3,2,13,3,3,0,0,0,0,0,1,0,0,2,0,0,3,0,1,0,0,1,1,0,1,2,0,1,3,0,2,0,0,2,1,0,2,2,0,2,3,0,3,0,0,3,1,0,3,2,0,3,3,13,0,0,13,0,1,13,0,2,13,0,3,13,1,0,13,1,1,13,1,2,13,1,3,13,2,0,13,2,2,13,2,3,13,3,0,13,3,1,13,3,2,13,3,3,0,0,0,0,0,1,0,0,2,0,0,3,0,1,0,0,1,1,0,1,2,0,1,3,0,2,0,0,2,1,0,2,2,0,2,3,0,3,0,0,3,1,0,3,2,0,3,3,1,0,0,1,0,1,1,0,2,1,0,3,1,1,0,1,1,1,1,1,2,1,1,3,1,2,0,1,2,1,1,2,2,1,2,3,1,3,0,1,3,1,1,3,2,1,3,3,2,0,0,2,0,1,2,0,2,2,0,3,2,1,0,2,1,1,2,1,2,2,1,3,2,2,0,2,2,1,2,2,2,2,2,3,2,3,0,2,3,1,2,3,2,2,3,3,3,0,0,3,0,1,3,0,2,3,0,3,3,1,0,3,1,1,3,1,3,3,2,0,3,2,1,3,2,2,3,2,3,3,3,0,3,3,1,3,3,2,3,3,3,0,0,0,0,0,1,0,0,2,0,0,3,0,13,0,0,13,1,0,13,2,0,13,3,1,0,0,1,0,1,1,0,2,1,0,3,1,13,0,1,13,1,1,13,2,1,13,3,2,0,0,2,0,1,2,0,2,2,0,3,2,13,0,2,13,2,2,13,3,3,0,0,3,0,1,3,0,2,3,0,3,3,13,0,3,13,1,3,13,2,3,13,3,0,0,0,0,0,1,0,0,2,0,0,3,0,13,0,0,13,1,0,13,2,0,13,3,2,0,0,2,0,1,2,0,2,2,0,3,2,13,0,2,13,1,2,13,2,0,0,0,0,0,1,0,0,2,0,0,3,0,1,0,0,1,1,0,1,2,0,1,3,0,2,0,0,2,1,0,2,2,0,2,3,0,3,0,0,3,1,0,3,2,0,3,3,13,0,0,13,0,1,13,0,2,13,0,3,13,1,0,13,1,1,13,1,3,13,2,0,13,2,1,13,2,2,13,2,3,13,3,0,13,3,1,13,3,2,13,3,3,0,0,0,0,0,1,0,0,2,0,0,3,0,1,0,0,1,1,0,1,2,0,1,3,0,2,0,0,2,1,0,2,2,0,2,3,0,3,0,0,3,1,0,3,2,0,3,3,13,0,0,13,0,1,13,0,2,13,0,3,13,1,0,13,1,1,13,1,3,13,2,0,13,2,1,13,2,2,13,2,3,13,3,0,13,3,1,13,3,2,13,3,3,0,0,0,0,0,1,0,0,2,0,0,3,0,13,0,0,13,1,0,13,2,0,13,3,13,0,0,13,0,1,13,0,2,13,0,3,13,13,0,13,13,1,13,13,3,0,0,0,0,0,1,0,0,2,0,0,3,0,1,0,0,1,1,0,1,2,0,1,3,0,2,0,0,2,1,0,2,2,0,2,3,0,3,0,0,3,1,0,3,2,0,3,3,13,0,0,13,0,1,13,0,2,13,0,3,13,1,0,13,1,1,13,1,2,13,1,3,13,2,0,13,2,1,13,2,2,13,2,3,13,3,0,13,3,1,13,3,3,0,0,0,0,0,1,0,0,2,0,0,3,0,1,0,0,1,1,0,1,2,0,1,3,0,2,0,0,2,1,0,2,2,0,2,3,0,3,0,0,3,1,0,3,2,0,3,3,13,0,0,13,0,1,13,0,2,13,0,3,13,1,0,13,1,1,13,1,2,13,1,3,13,2,0,13,2,1,13,2,2,13,2,3,13,3,0,13,3,1,13,3,3,0,0,0,0,0,1,0,0,2,0,0,3,0,1,0,0,1,1,0,1,2,0,1,3,0,2,0,0,2,1,0,2,2,0,2,3,0,3,0,0,3,1,0,3,2,0,3,3,13,0,0,13,0,1,13,0,2,13,0,3,13,1,0,13,1,1,13,1,2,13,1,3,13,2,0,13,2,1,13,2,2,13,2,3,13,3,0,13,3,1,13,3,3,0,0,0,0,0,1,0,0,2,0,0,3,0,1,0,0,1,1,0,1,2,0,1,3,0,2,0,0,2,1,0,2,2,0,2,3,0,3,0,0,3,1,0,3,2,0,3,3,13,0,0,13,0,1,13,0,2,13,0,3,13,1,0,13,1,1,13,1,2,13,1,3,13,2,0,13,2,1,13,2,2,13,2,3,13,3,0,13,3,1,13,3,3,0,0,0,0,0,1,0,0,2,0,0,3,0,13,0,0,13,1,0,13,2,0,13,3,2,0,0,2,0,1,2,0,2,2,0,3,2,13,0,2,13,1,2,13,2,0,0,0,0,0,1,0,0,2,0,0,3,0,13,0,0,13,1,0,13,2,0,13,3,13,0,0,13,0,1,13,0,2,13,0,3,13,13,0,13,13,1,13,13,3,0,0,0,0,0,1,0,0,2,0,0,3,0,1,0,0,1,1,0,1,2,0,1,3,0,2,0,0,2,1,0,2,2,0,2,3,0,3,0,0,3,1,0,3,2,0,3,3,13,0,0,13,0,1,13,0,2,13,0,3,13,1,0,13,1,1,13,1,3,13,2,0,13,2,1,13,2,2,13,2,3,13,3,0,13,3,1,13,3,2,13,3,3,0,0,0,0,0,1,0,0,2,0,0,3,0,13,0,0,13,1,0,13,2,0,13,3,13,0,0,13,0,1,13,0,2,13,0,3,13,13,0,13,13,1,13,13,3,0,0,0,0,0,1,0,0,2,0,0,3,0,13,0,0,13,1,0,13,2,0,13,3,1,0,0,1,0,1,1,0,2,1,0,3,1,13,0,1,13,1,1,13,2,1,13,3,2,0,0,2,0,1,2,0,2,2,0,3,2,13,0,2,13,2,2,13,3,3,0,0,3,0,1,3,0,2,3,0,3,3,13,0,3,13,1,3,13,2,3,13,3,0,0,0,0,0,1,0,0,2,0,0,3,0,1,0,0,1,1,0,1,2,0,1,3,0,2,0,0,2,1,0,2,2,0,2,3,0,3,0,0,3,1,0,3,2,0,3,3,13,0,0,13,0,1,13,0,2,13,0,3,13,1,0,13,1,1,13,1,2,13,1,3,13,2,0,13,2,2,13,2,3,13,3,0,13,3,1,13,3,2,13,3,3,0,0,0,0,0,2,0,1,0,0,1,2,0,2,0,0,2,2,0,3,0,0,3,2,13,0,0,13,0,2,13,1,0,13,1,2,13,2,0,13,2,2,13,3,0,0,0,0,0,0,13,0,1,0,0,1,13,0,2,0,0,2,13,0,3,0,0,3,13,13,0,0,13,0,13,13,1,0,13,1,13,13,2,0,13,3,0,13,3,13,0,0,0,0,0,1,0,0,2,0,0,3,0,1,0,0,1,1,0,1,2,0,1,3,0,2,0,0,2,1,0,2,2,0,2,3,0,3,0,0,3,1,0,3,2,0,3,3,13,0,0,13,0,1,13,0,2,13,0,3,13,1,0,13,1,1,13,1,2,13,1,3,13,2,0,13,2,1,13,2,2,13,2,3,13,3,0,13,3,1,13,3,3,0,0,0,0,0,1,0,0,2,0,0,3,0,1,0,0,1,1,0,1,2,0,1,3,0,2,0,0,2,1,0,2,2,0,2,3,0,3,0,0,3,1,0,3,2,0,3,3,13,0,0,13,0,1,13,0,2,13,0,3,13,1,0,13,1,1,13,1,2,13,1,3,13,2,0,13,2,1,13,2,2,13,3,0,13,3,1,13,3,2,13,3,3,0,0,0,0,0,13,0,13,0,0,13,13,2,0,0,2,0,13,2,13,0,0,0,0,0,0,1,0,0,2,0,0,3,0,13,0,0,13,1,0,13,2,0,13,3,2,0,0,2,0,1,2,0,2,2,0,3,2,13,0,2,13,1,2,13,2,0,0,0,0,0,1,0,0,2,0,0,3,0,13,0,0,13,1,0,13,2,0,13,3,13,0,0,13,0,1,13,0,2,13,0,3,13,13,0,13,13,1,13,13,3,0,0,0,0,0,1,0,0,2,0,0,3,0,13,0,0,13,1,0,13,2,0,13,3,13,0,0,13,0,1,13,0,2,13,0,3,13,13,0,13,13,1,13,13,3,0,0,0,0,0,1,0,0,2,0,0,3,0,13,0,0,13,1,0,13,2,0,13,3,2,0,0,2,0,1,2,0,2,2,0,3,2,13,0,2,13,1,2,13,2,0,0,0,0,0,1,0,0,2,0,0,3,0,13,0,0,13,1,0,13,2,0,13,3,2,0,0,2,0,1,2,0,2,2,0,3,2,13,0,2,13,1,2,13,2,0,0,0,0,0,1,0,0,2,0,0,3,0,1,0,0,1,1,0,1,2,0,1,3,0,2,0,0,2,1,0,2,2,0,2,3,0,3,0,0,3,1,0,3,2,0,3,3,13,0,0,13,0,1,13,0,2,13,0,3,13,1,0,13,1,1,13,1,2,13,1,3,13,2,0,13,2,1,13,2,2,13,2,3,13,3,0,13,3,1,13,3,3,0,0,0,0,0,2,0,1,0,0,1,2,0,2,0,0,2,2,0,3,0,0,3,2,13,0,0,13,0,2,13,1,0,13,2,0,13,2,2,13,3,0,13,3,2,0,0,0,0,0,1,0,0,2,0,0,3,0,1,0,0,1,1,0,1,2,0,1,3,0,2,0,0,2,1,0,2,2,0,2,3,0,3,0,0,3,1,0,3,2,0,3,3,13,0,0,13,0,1,13,0,2,13,0,3,13,1,0,13,1,1,13,1,3,13,2,0,13,2,1,13,2,2,13,2,3,13,3,0,13,3,1,13,3,2,13,3,3,0,0,0,0,0,1,0,0,2,0,0,3,0,13,0,0,13,1,0,13,2,0,13,3,1,0,0,1,0,1,1,0,2,1,0,3,1,13,0,1,13,1,1,13,2,1,13,3,2,0,0,2,0,1,2,0,2,2,0,3,2,13,0,2,13,2,2,13,3,3,0,0,3,0,1,3,0,2,3,0,3,3,13,0,3,13,1,3,13,2,3,13,3,0,0,0,0,0,1,0,0,2,0,0,3,0,1,0,0,1,1,0,1,2,0,1,3,0,2,0,0,2,1,0,2,2,0,2,3,0,3,0,0,3,1,0,3,2,0,3,3,13,0,0,13,0,1,13,0,2,13,0,3,13,1,0,13,1,1,13,1,3,13,2,0,13,2,1,13,2,2,13,2,3,13,3,0,13,3,1,13,3,2,13,3,3,0,0,0,0,0,1,0,0,2,0,0,3,0,1,0,0,1,1,0,1,2,0,1,3,0,2,0,0,2,1,0,2,2,0,2,3,0,3,0,0,3,1,0,3,2,0,3,3,13,0,0,13,0,1,13,0,2,13,0,3,13,1,0,13,1,1,13,1,2,13,1,3,13,2,0,13,2,2,13,2,3,13,3,0,13,3,1,13,3,2,13,3,3,0,0,0,0,0,1,0,0,2,0,0,3,0,13,0,0,13,1,0,13,2,0,13,3,2,0,0,2,0,1,2,0,2,2,0,3,2,13,0,2,13,1,2,13,2,0,0,0,0,0,1,0,0,2,0,0,3,0,13,0,0,13,1,0,13,2,0,13,3,1,0,0,1,0,1,1,0,2,1,0,3,1,13,0,1,13,1,1,13,2,1,13,3,2,0,0,2,0,1,2,0,2,2,0,3,2,13,0,2,13,2,2,13,3,3,0,0,3,0,1,3,0,2,3,0,3,3,13,0,3,13,1,3,13,2,3,13,3,0,0,0,0,0,1,0,0,2,0,0,3,0,13,0,0,13,1,0,13,2,0,13,3,13,0,0,13,0,1,13,0,2,13,0,3,13,13,0,13,13,1,13,13,3,0,0,0,0,0,1,0,0,2,0,0,3,0,1,0,0,1,1,0,1,2,0,1,3,0,2,0,0,2,1,0,2,2,0,2,3,0,3,0,0,3,1,0,3,2,0,3,3,13,0,0,13,0,1,13,0,2,13,0,3,13,1,0,13,1,1,13,1,2,13,1,3,13,2,0,13,2,1,13,2,2,13,2,3,13,3,0,13,3,1,13,3,3,0,0,0,0,0,2,0,1,0,0,1,2,0,2,0,0,2,2,0,3,0,0,3,2,13,0,0,13,0,2,13,1,0,13,2,0,13,2,2,13,3,0,13,3,2,0,0,0,0,0,1,0,0,2,0,0,3,0,1,0,0,1,1,0,1,2,0,1,3,0,2,0,0,2,1,0,2,2,0,2,3,0,3,0,0,3,1,0,3,2,0,3,3,13,0,0,13,0,1,13,0,2,13,0,3,13,1,0,13,1,1,13,1,2,13,1,3,13,2,0,13,2,2,13,2,3,13,3,0,13,3,1,13,3,2,13,3,3,0,0,0,0,0,2,0,1,0,0,1,2,0,2,0,0,2,2,0,3,0,0,3,2,13,0,0,13,0,2,13,1,0,13,1,2,13,2,0,13,2,2,13,3,0,0,0,0,0,0,1,0,0,2,0,0,3,0,1,0,0,1,1,0,1,2,0,1,3,0,2,0,0,2,1,0,2,2,0,2,3,0,3,0,0,3,1,0,3,2,0,3,3,13,0,0,13,0,1,13,0,2,13,0,3,13,1,0,13,1,1,13,1,3,13,2,0,13,2,1,13,2,2,13,2,3,13,3,0,13,3,1,13,3,2,13,3,3,0,0,0,0,0,1,0,0,2,0,0,3,0,1,0,0,1,1,0,1,2,0,1,3,0,2,0,0,2,1,0,2,2,0,2,3,0,3,0,0,3,1,0,3,2,0,3,3,13,0,0,13,0,1,13,0,2,13,0,3,13,1,0,13,1,1,13,1,2,13,1,3,13,2,0,13,2,1,13,2,2,13,2,3,13,3,0,13,3,1,13,3,3,0,0,0,0,0,1,0,0,2,0,0,3,0,13,0,0,13,1,0,13,2,0,13,3,1,0,0,1,0,1,1,0,2,1,0,3,1,13,0,1,13,1,1,13,2,1,13,3,2,0,0,2,0,1,2,0,2,2,0,3,2,13,0,2,13,2,2,13,3,3,0,0,3,0,1,3,0,2,3,0,3,3,13,0,3,13,1,3,13,2,3,13,3,0,0,0,0,0,13,0,1,0,0,1,13,0,2,0,0,2,13,0,3,0,0,3,13,13,0,0,13,0,13,13,1,0,13,1,13,13,2,0,13,3,0,13,3,13,0,0,0,0,0,2,0,1,0,0,1,2,0,2,0,0,2,2,0,3,0,0,3,2,13,0,0,13,0,2,13,1,0,13,1,2,13,2,0,13,2,2,13,3,0,0,0,0,0,0,1,0,0,2,0,0,3,0,1,0,0,1,1,0,1,2,0,1,3,0,2,0,0,2,1,0,2,2,0,2,3,0,3,0,0,3,1,0,3,2,0,3,3,13,0,0,13,0,1,13,0,2,13,0,3,13,1,0,13,1,1,13,1,2,13,1,3,13,2,0,13,2,2,13,2,3,13,3,0,13,3,1,13,3,2,13,3,3,0,0,0,0,0,1,0,0,2,0,0,3,0,13,0,0,13,1,0,13,2,0,13,3,1,0,0,1,0,1,1,0,2,1,0,3,1,13,0,1,13,1,1,13,2,1,13,3,2,0,0,2,0,1,2,0,2,2,0,3,2,13,0,2,13,2,2,13,3,3,0,0,3,0,1,3,0,2,3,0,3,3,13,0,3,13,1,3,13,2,3,13,3,0,0,0,0,0,1,0,0,2,0,0,3,0,1,0,0,1,1,0,1,2,0,1,3,0,2,0,0,2,1,0,2,2,0,2,3,0,3,0,0,3,1,0,3,2,0,3,3,13,0,0,13,0,1,13,0,2,13,0,3,13,1,0,13,1,1,13,1,3,13,2,0,13,2,1,13,2,2,13,2,3,13,3,0,13,3,1,13,3,2,13,3,3,0,0,0,0,0,13,0,1,0,0,1,13,0,2,0,0,2,13,0,3,0,0,3,13,13,0,0,13,0,13,13,1,0,13,1,13,13,2,0,13,3,0,13,3,13,0,0,0,0,0,1,0,0,2,0,0,3,0,1,0,0,1,1,0,1,2,0,1,3,0,2,0,0,2,1,0,2,2,0,2,3,0,3,0,0,3,1,0,3,2,0,3,3,13,0,0,13,0,1,13,0,2,13,0,3,13,1,0,13,1,1,13,1,2,13,1,3,13,2,0,13,2,2,13,2,3,13,3,0,13,3,1,13,3,2,13,3,3,0,0,0,0,0,1,0,0,2,0,0,3,0,1,0,0,1,1,0,1,2,0,1,3,0,2,0,0,2,1,0,2,2,0,2,3,0,3,0,0,3,1,0,3,2,0,3,3,13,0,0,13,0,1,13,0,2,13,0,3,13,1,0,13,1,1,13,1,3,13,2,0,13,2,1,13,2,2,13,2,3,13,3,0,13,3,1,13,3,2,13,3,3,0,0,0,0,0,1,0,0,2,0,0,3,0,1,0,0,1,1,0,1,2,0,1,3,0,2,0,0,2,1,0,2,2,0,2,3,0,3,0,0,3,1,0,3,2,0,3,3,13,0,0,13,0,1,13,0,2,13,0,3,13,1,0,13,1,1,13,1,2,13,1,3,13,2,0,13,2,2,13,2,3,13,3,0,13,3,1,13,3,2,13,3,3,0,0,0,0,0,1,0,0,2,0,0,3,0,13,0,0,13,1,0,13,2,0,13,3,1,0,0,1,0,1,1,0,2,1,0,3,1,13,0,1,13,1,1,13,2,1,13,3,2,0,0,2,0,1,2,0,2,2,0,3,2,13,0,2,13,2,2,13,3,3,0,0,3,0,1,3,0,2,3,0,3,3,13,0,3,13,1,3,13,2,3,13,3,0,0,0,0,0,1,0,0,2,0,0,3,0,13,0,0,13,1,0,13,2,0,13,3,2,0,0,2,0,1,2,0,2,2,0,3,2,13,0,2,13,1,2,13,2,0,0,0,0,0,1,0,0,2,0,0,3,0,1,0,0,1,1,0,1,2,0,1,3,0,2,0,0,2,1,0,2,2,0,2,3,0,3,0,0,3,1,0,3,2,0,3,3,1,0,0,1,0,1,1,0,2,1,0,3,1,1,0,1,1,1,1,1,2,1,1,3,1,2,0,1,2,1,1,2,2,1,2,3,1,3,0,1,3,1,1,3,2,1,3,3,2,0,0,2,0,1,2,0,2,2,0,3,2,1,0,2,1,1,2,1,2,2,1,3,2,2,0,2,2,1,2,2,2,2,2,3,2,3,0,2,3,1,2,3,2,2,3,3,3,0,0,3,0,1,3,0,2,3,0,3,3,1,0,3,1,1,3,1,3,3,2,0,3,2,1,3,2,2,3,2,3,3,3,0,3,3,1,3,3,2,3,3,3,0,0,0,0,0,1,0,0,2,0,0,3,0,1,0,0,1,1,0,1,2,0,1,3,0,2,0,0,2,1,0,2,2,0,2,3,0,3,0,0,3,1,0,3,2,0,3,3,13,0,0,13,0,1,13,0,2,13,0,3,13,1,0,13,1,1,13,1,2,13,1,3,13,2,0,13,2,1,13,2,2,13,2,3,13,3,0,13,3,1,13,3,3,0,0,0,0,0,1,0,0,2,0,0,3,0,1,0,0,1,1,0,1,2,0,1,3,0,2,0,0,2,1,0,2,2,0,2,3,0,3,0,0,3,1,0,3,2,0,3,3,13,0,0,13,0,1,13,0,2,13,0,3,13,1,0,13,1,1,13,1,3,13,2,0,13,2,1,13,2,2,13,2,3,13,3,0,13,3,1,13,3,2,13,3,3,0,0,0,0,0,1,0,0,2,0,0,3,0,1,0,0,1,1,0,1,2,0,1,3,0,2,0,0,2,1,0,2,2,0,2,3,0,3,0,0,3,1,0,3,2,0,3,3,13,0,0,13,0,1,13,0,2,13,0,3,13,1,0,13,1,1,13,1,3,13,2,0,13,2,1,13,2,2,13,2,3,13,3,0,13,3,1,13,3,2,13,3,3,0,0,0,0,0,1,0,0,2,0,0,3,0,13,0,0,13,1,0,13,2,0,13,3,13,0,0,13,0,1,13,0,2,13,0,3,13,13,0,13,13,1,13,13,3,0,0,0,0,0,1,0,0,2,0,0,3,0,1,0,0,1,1,0,1,2,0,1,3,0,2,0,0,2,1,0,2,2,0,2,3,0,3,0,0,3,1,0,3,2,0,3,3,13,0,0,13,0,1,13,0,2,13,0,3,13,1,0,13,1,1,13,1,2,13,1,3,13,2,0,13,2,1,13,2,2,13,2,3,13,3,0,13,3,1,13,3,3,0,0,0,0,0,1,0,0,2,0,0,3,0,13,0,0,13,1,0,13,2,0,13,3,1,0,0,1,0,1,1,0,2,1,0,3,1,13,0,1,13,1,1,13,2,1,13,3,2,0,0,2,0,1,2,0,2,2,0,3,2,13,0,2,13,2,2,13,3,3,0,0,3,0,1,3,0,2,3,0,3,3,13,0,3,13,1,3,13,2,3,13,3,0,0,0,0,0,1,0,0,2,0,0,3,0,13,0,0,13,1,0,13,2,0,13,3,1,0,0,1,0,1,1,0,2,1,0,3,1,13,0,1,13,1,1,13,2,1,13,3,2,0,0,2,0,1,2,0,2,2,0,3,2,13,0,2,13,2,2,13,3,3,0,0,3,0,1,3,0,2,3,0,3,3,13,0,3,13,1,3,13,2,3,13,3,0,0,0,0,0,13,0,13,0,0,13,13,1,0,0,1,0,13,1,13,0,1,13,13,2,0,0,2,0,13,2,13,0,3,0,0,3,0,13,3,13,0,3,13,13,0,0,0,0,0,1,0,0,2,0,0,3,0,13,0,0,13,1,0,13,2,0,13,3,1,0,0,1,0,1,1,0,2,1,0,3,1,13,0,1,13,1,1,13,2,1,13,3,2,0,0,2,0,1,2,0,2,2,0,3,2,13,0,2,13,2,2,13,3,3,0,0,3,0,1,3,0,2,3,0,3,3,13,0,3,13,1,3,13,2,3,13,3,0,0,0,0,0,1,0,0,2,0,0,3,0,1,0,0,1,1,0,1,2,0,1,3,0,2,0,0,2,1,0,2,2,0,2,3,0,3,0,0,3,1,0,3,2,0,3,3,13,0,0,13,0,1,13,0,2,13,0,3,13,1,0,13,1,1,13,1,2,13,1,3,13,2,0,13,2,1,13,2,2,13,2,3,13,3,0,13,3,1,13,3,3,0,0,0,0,0,1,0,0,2,0,0,3,0,1,0,0,1,1,0,1,2,0,1,3,0,2,0,0,2,1,0,2,2,0,2,3,0,3,0,0,3,1,0,3,2,0,3,3,13,0,0,13,0,1,13,0,2,13,0,3,13,1,0,13,1,1,13,1,3,13,2,0,13,2,1,13,2,2,13,2,3,13,3,0,13,3,1,13,3,2,13,3,3,0,0,0,0,0,13,0,1,0,0,1,13,0,2,0,0,2,13,0,3,0,0,3,13,13,0,0,13,0,13,13,1,0,13,1,13,13,2,0,13,3,0,13,3,13,0,0,0,0,0,1,0,0,2,0,0,3,0,1,0,0,1,1,0,1,2,0,1,3,0,2,0,0,2,1,0,2,2,0,2,3,0,3,0,0,3,1,0,3,2,0,3,3,13,0,0,13,0,1,13,0,2,13,0,3,13,1,0,13,1,1,13,1,3,13,2,0,13,2,1,13,2,2,13,2,3,13,3,0,13,3,1,13,3,2,13,3,3,0,0,0,0,0,2,0,1,0,0,1,2,0,2,0,0,2,2,0,3,0,0,3,2,13,0,0,13,0,2,13,1,0,13,1,2,13,2,0,13,2,2,13,3,0,0,0,0,0,0,1,0,0,2,0,0,3,0,1,0,0,1,1,0,1,2,0,1,3,0,2,0,0,2,1,0,2,2,0,2,3,0,3,0,0,3,1,0,3,2,0,3,3,13,0,0,13,0,1,13,0,2,13,0,3,13,1,0,13,1,1,13,1,2,13,1,3,13,2,0,13,2,2,13,2,3,13,3,0,13,3,1,13,3,2,13,3,3,0,0,0,0,0,1,0,0,2,0,0,3,0,13,0,0,13,1,0,13,2,0,13,3,2,0,0,2,0,1,2,0,2,2,0,3,2,13,0,2,13,1,2,13,2,0,0,0,0,0,1,0,0,2,0,0,3,0,1,0,0,1,1,0,1,2,0,1,3,0,2,0,0,2,1,0,2,2,0,2,3,0,3,0,0,3,1,0,3,2,0,3,3,13,0,0,13,0,1,13,0,2,13,0,3,13,1,0,13,1,1,13,1,3,13,2,0,13,2,1,13,2,2,13,2,3,13,3,0,13,3,1,13,3,2,13,3,3,0,0,0,0,0,13,0,13,0,0,13,13,1,0,0,1,0,13,1,13,0,1,13,13,2,0,0,2,0,13,2,13,0,3,0,0,3,0,13,3,13,0,3,13,13,0,0,0,0,0,2,0,1,0,0,1,2,0,2,0,0,2,2,0,3,0,0,3,2,13,0,0,13,0,2,13,1,0,13,1,2,13,2,0,13,2,2,13,3,0,0,0,0,0,0,1,0,0,2,0,0,3,0,1,0,0,1,1,0,1,2,0,1,3,0,2,0,0,2,1,0,2,2,0,2,3,0,3,0,0,3,1,0,3,2,0,3,3,13,0,0,13,0,1,13,0,2,13,0,3,13,1,0,13,1,1,13,1,2,13,1,3,13,2,0,13,2,1,13,2,2,13,2,3,13,3,0,13,3,1,13,3,3,0,0,0,0,0,1,0,0,2,0,0,3,0,13,0,0,13,1,0,13,2,0,13,3,1,0,0,1,0,1,1,0,2,1,0,3,1,13,0,1,13,1,1,13,2,1,13,3,2,0,0,2,0,1,2,0,2,2,0,3,2,13,0,2,13,2,2,13,3,3,0,0,3,0,1,3,0,2,3,0,3,3,13,0,3,13,1,3,13,2,3,13,3,0,0,0,0,0,2,0,1,0,0,1,2,0,2,0,0,2,2,0,3,0,0,3,2,13,0,0,13,0,2,13,1,0,13,1,2,13,2,0,13,2,2,13,3,0,0,0,0,0,0,1,0,0,2,0,0,3,0,1,0,0,1,1,0,1,2,0,1,3,0,2,0,0,2,1,0,2,2,0,2,3,0,3,0,0,3,1,0,3,2,0,3,3,13,0,0,13,0,1,13,0,2,13,0,3,13,1,0,13,1,1,13,1,2,13,1,3,13,2,0,13,2,2,13,2,3,13,3,0,13,3,1,13,3,2,13,3,3,0,0,0,0,0,13,0,1,0,0,1,13,0,2,0,0,2,13,0,3,0,0,3,13,13,0,0,13,0,13,13,1,0,13,1,13,13,2,0,13,3,0,13,3,13,0,0,0,0,0,13,0,1,0,0,1,13,0,2,0,0,2,13,0,3,0,0,3,13,13,0,0,13,0,13,13,1,0,13,1,13,13,2,0,13,3,0,13,3,13,0,0,0,0,0,1,0,0,2,0,0,3,0,13,0,0,13,1,0,13,2,0,13,3,1,0,0,1,0,1,1,0,2,1,0,3,1,13,0,1,13,1,1,13,2,1,13,3,2,0,0,2,0,1,2,0,2,2,0,3,2,13,0,2,13,2,2,13,3,3,0,0,3,0,1,3,0,2,3,0,3,3,13,0,3,13,1,3,13,2,3,13,3,0,0,0,0,0,1,0,0,2,0,0,3,0,13,0,0,13,1,0,13,2,0,13,3,1,0,0,1,0,1,1,0,2,1,0,3,1,13,0,1,13,1,1,13,2,1,13,3,2,0,0,2,0,1,2,0,2,2,0,3,2,13,0,2,13,2,2,13,3,3,0,0,3,0,1,3,0,2,3,0,3,3,13,0,3,13,1,3,13,2,3,13,3,0,0,0,0,0,1,0,0,2,0,0,3,0,1,0,0,1,1,0,1,2,0,1,3,0,2,0,0,2,1,0,2,2,0,2,3,0,3,0,0,3,1,0,3,2,0,3,3,13,0,0,13,0,1,13,0,2,13,0,3,13,1,0,13,1,1,13,1,2,13,1,3,13,2,0,13,2,1,13,2,2,13,2,3,13,3,0,13,3,1,13,3,3,0,0,0,0,0,1,0,0,2,0,0,3,0,13,0,0,13,1,0,13,2,0,13,3,13,0,0,13,0,1,13,0,2,13,0,3,13,13,0,13,13,1,13,13,3,0,0,0,0,0,1,0,0,2,0,0,3,0,13,0,0,13,1,0,13,2,0,13,3,13,0,0,13,0,1,13,0,2,13,0,3,13,13,0,13,13,1,13,13,3,0,0,0,0,0,1,0,0,2,0,0,3,0,1,0,0,1,1,0,1,2,0,1,3,0,2,0,0,2,1,0,2,2,0,2,3,0,3,0,0,3,1,0,3,2,0,3,3,13,0,0,13,0,1,13,0,2,13,0,3,13,1,0,13,1,1,13,1,2,13,1,3,13,2,0,13,2,1,13,2,2,13,2,3,13,3,0,13,3,1,13,3,3,0,0,0,0,0,1,0,0,2,0,0,3,0,13,0,0,13,1,0,13,2,0,13,3,1,0,0,1,0,1,1,0,2,1,0,3,1,13,0,1,13,1,1,13,2,1,13,3,2,0,0,2,0,1,2,0,2,2,0,3,2,13,0,2,13,2,2,13,3,3,0,0,3,0,1,3,0,2,3,0,3,3,13,0,3,13,1,3,13,2,3,13,3,0,0,0,0,0,2,0,1,0,0,1,2,0,2,0,0,2,2,0,3,0,0,3,2,13,0,0,13,0,2,13,1,0,13,1,2,13,2,0,13,2,2,13,3,0,0,0,0,0,0,2,0,13,0,0,13,2,13,0,0,13,0,2,13,13,0,0,0,0,0,0,1,0,0,2,0,0,3,0,1,0,0,1,1,0,1,2,0,1,3,0,2,0,0,2,1,0,2,2,0,2,3,0,3,0,0,3,1,0,3,2,0,3,3,13,0,0,13,0,1,13,0,2,13,0,3,13,1,0,13,1,1,13,1,2,13,1,3,13,2,0,13,2,2,13,2,3,13,3,0,13,3,1,13,3,2,13,3,3,0,0,0,0,0,1,0,0,2,0,0,3,0,13,0,0,13,1,0,13,2,0,13,3,1,0,0,1,0,1,1,0,2,1,0,3,1,13,0,1,13,1,1,13,2,1,13,3,2,0,0,2,0,1,2,0,2,2,0,3,2,13,0,2,13,2,2,13,3,3,0,0,3,0,1,3,0,2,3,0,3,3,13,0,3,13,1,3,13,2,3,13,3,0,0,0,0,0,1,0,0,2,0,0,3,0,1,0,0,1,1,0,1,2,0,1,3,0,2,0,0,2,1,0,2,2,0,2,3,0,3,0,0,3,1,0,3,2,0,3,3,13,0,0,13,0,1,13,0,2,13,0,3,13,1,0,13,1,1,13,1,2,13,1,3,13,2,0,13,2,1,13,2,2,13,2,3,13,3,0,13,3,1,13,3,3,0,0,0,0,0,2,0,1,0,0,1,2,0,2,0,0,2,2,0,3,0,0,3,2,13,0,0,13,0,2,13,1,0,13,1,2,13,2,0,13,2,2,13,3,0,0,0,0,0,0,1,0,0,2,0,0,3,0,13,0,0,13,1,0,13,2,0,13,3,2,0,0,2,0,1,2,0,2,2,0,3,2,13,0,2,13,1,2,13,2,0,0,0,0,0,1,0,0,2,0,0,3,0,13,0,0,13,1,0,13,2,0,13,3,1,0,0,1,0,1,1,0,2,1,0,3,1,13,0,1,13,1,1,13,2,1,13,3,2,0,0,2,0,1,2,0,2,2,0,3,2,13,0,2,13,2,2,13,3,3,0,0,3,0,1,3,0,2,3,0,3,3,13,0,3,13,1,3,13,2,3,13,3,0,0,0,0,0,1,0,0,2,0,0,3,0,1,0,0,1,1,0,1,2,0,1,3,0,2,0,0,2,1,0,2,2,0,2,3,0,3,0,0,3,1,0,3,2,0,3,3,13,0,0,13,0,1,13,0,2,13,0,3,13,1,0,13,1,1,13,1,2,13,1,3,13,2,0,13,2,1,13,2,2,13,2,3,13,3,0,13,3,1,13,3,3,0,0,0,0,0,2,0,1,0,0,1,2,0,2,0,0,2,2,0,3,0,0,3,2,13,0,0,13,0,2,13,1,0,13,1,2,13,2,0,13,2,2,13,3,0,0,0,0,0,0,1,0,0,2,0,0,3,0,1,0,0,1,1,0,1,2,0,1,3,0,2,0,0,2,1,0,2,2,0,2,3,0,3,0,0,3,1,0,3,2,0,3,3,13,0,0,13,0,1,13,0,2,13,0,3,13,1,0,13,1,1,13,1,2,13,1,3,13,2,0,13,2,2,13,2,3,13,3,0,13,3,1,13,3,2,13,3,3,0,0,0,0,0,1,0,0,2,0,0,3,0,1,0,0,1,1,0,1,2,0,1,3,0,2,0,0,2,1,0,2,2,0,2,3,0,3,0,0,3,1,0,3,2,0,3,3,13,0,0,13,0,1,13,0,2,13,0,3,13,1,0,13,1,1,13,1,2,13,1,3,13,2,0,13,2,1,13,2,2,13,2,3,13,3,0,13,3,1,13,3,3,0,0,0,0,0,1,0,0,2,0,0,3,0,1,0,0,1,1,0,1,2,0,1,3,0,2,0,0,2,1,0,2,2,0,2,3,0,3,0,0,3,1,0,3,2,0,3,3,1,0,0,1,0,1,1,0,2,1,0,3,1,1,0,1,1,1,1,1,2,1,1,3,1,2,0,1,2,1,1,2,2,1,2,3,1,3,0,1,3,1,1,3,2,1,3,3,2,0,0,2,0,1,2,0,2,2,0,3,2,1,0,2,1,1,2,1,2,2,1,3,2,2,0,2,2,1,2,2,2,2,2,3,2,3,0,2,3,1,2,3,2,2,3,3,3,0,0,3,0,1,3,0,2,3,0,3,3,1,0,3,1,1,3,1,3,3,2,0,3,2,1,3,2,2,3,2,3,3,3,0,3,3,1,3,3,2,3,3,3,0,0,0,0,0,1,0,0,2,0,0,3,0,13,0,0,13,1,0,13,2,0,13,3,2,0,0,2,0,1,2,0,2,2,0,3,2,13,0,2,13,1,2,13,2,0,0,0,0,0,1,0,0,2,0,0,3,0,1,0,0,1,1,0,1,2,0,1,3,0,2,0,0,2,1,0,2,2,0,2,3,0,3,0,0,3,1,0,3,2,0,3,3,13,0,0,13,0,1,13,0,2,13,0,3,13,1,0,13,1,1,13,1,2,13,1,3,13,2,0,13,2,1,13,2,2,13,2,3,13,3,0,13,3,1,13,3,3,0,0,0,0,0,1,0,0,2,0,0,3,0,13,0,0,13,1,0,13,2,0,13,3,1,0,0,1,0,1,1,0,2,1,0,3,1,13,0,1,13,1,1,13,2,1,13,3,2,0,0,2,0,1,2,0,2,2,0,3,2,13,0,2,13,2,2,13,3,3,0,0,3,0,1,3,0,2,3,0,3,3,13,0,3,13,1,3,13,2,3,13,3,0,0,0,0,0,1,0,0,2,0,0,3,0,13,0,0,13,1,0,13,2,0,13,3,2,0,0,2,0,1,2,0,2,2,0,3,2,13,0,2,13,1,2,13,2,0,0,0,0,0,1,0,0,2,0,0,3,0,13,0,0,13,1,0,13,2,0,13,3,1,0,0,1,0,1,1,0,2,1,0,3,1,13,0,1,13,1,1,13,2,1,13,3,2,0,0,2,0,1,2,0,2,2,0,3,2,13,0,2,13,2,2,13,3,3,0,0,3,0,1,3,0,2,3,0,3,3,13,0,3,13,1,3,13,2,3,13,3,0,0,0,0,0,1,0,0,2,0,0,3,0,1,0,0,1,1,0,1,2,0,1,3,0,2,0,0,2,1,0,2,2,0,2,3,0,3,0,0,3,1,0,3,2,0,3,3,13,0,0,13,0,1,13,0,2,13,0,3,13,1,0,13,1,1,13,1,2,13,1,3,13,2,0,13,2,1,13,2,2,13,2,3,13,3,0,13,3,1,13,3,3,0,0,0,0,0,13,0,1,0,0,1,13,0,2,0,0,2,13,0,3,0,0,3,13,1,0,0,1,0,13,1,1,0,1,1,13,1,2,0,1,2,13,1,3,0,1,3,13,2,0,0,2,0,13,2,1,0,2,2,0,2,2,13,2,3,0,2,3,13,3,0,0,3,0,13,3,1,0,3,1,13,3,2,0,3,2,13,3,3,0,3,3,13,0,0,0,0,0,2,0,1,0,0,1,2,0,2,0,0,2,2,0,3,0,0,3,2,13,0,0,13,0,2,13,1,0,13,1,2,13,2,0,13,2,2,13,3,0,0,0,0,0,0,1,0,0,2,0,0,3,0,1,0,0,1,1,0,1,2,0,1,3,0,2,0,0,2,1,0,2,2,0,2,3,0,3,0,0,3,1,0,3,2,0,3,3,13,0,0,13,0,1,13,0,2,13,0,3,13,1,0,13,1,1,13,1,2,13,1,3,13,2,0,13,2,2,13,2,3,13,3,0,13,3,1,13,3,2,13,3,3,0,0,0,0,0,1,0,0,2,0,0,3,0,13,0,0,13,1,0,13,2,0,13,3,1,0,0,1,0,1,1,0,2,1,0,3,1,13,0,1,13,1,1,13,2,1,13,3,2,0,0,2,0,1,2,0,2,2,0,3,2,13,0,2,13,2,2,13,3,3,0,0,3,0,1,3,0,2,3,0,3,3,13,0,3,13,1,3,13,2,3,13,3,0,0,0,0,0,1,0,0,2,0,0,3,0,1,0,0,1,1,0,1,2,0,1,3,0,2,0,0,2,1,0,2,2,0,2,3,0,3,0,0,3,1,0,3,2,0,3,3,13,0,0,13,0,1,13,0,2,13,0,3,13,1,0,13,1,1,13,1,2,13,1,3,13,2,0,13,2,2,13,2,3,13,3,0,13,3,1,13,3,2,13,3,3,0,0,0,0,0,1,0,0,2,0,0,3,0,1,0,0,1,1,0,1,2,0,1,3,0,2,0,0,2,1,0,2,2,0,2,3,0,3,0,0,3,1,0,3,2,0,3,3,1,0,0,1,0,1,1,0,2,1,0,3,1,1,0,1,1,1,1,1,2,1,1,3,1,2,0,1,2,1,1,2,2,1,2,3,1,3,0,1,3,1,1,3,2,1,3,3,2,0,0,2,0,1,2,0,2,2,0,3,2,1,0,2,1,1,2,1,2,2,1,3,2,2,0,2,2,1,2,2,2,2,2,3,2,3,0,2,3,1,2,3,2,2,3,3,3,0,0,3,0,1,3,0,2,3,0,3,3,1,0,3,1,1,3,1,3,3,2,0,3,2,1,3,2,2,3,2,3,3,3,0,3,3,1,3,3,2,3,3,3,0,0,0,0,0,1,0,0,2,0,0,3,0,13,0,0,13,1,0,13,2,0,13,3,13,0,0,13,0,1,13,0,2,13,0,3,13,13,0,13,13,1,13,13,3,0,0,0,0,0,1,0,0,2,0,0,3,0,13,0,0,13,1,0,13,2,0,13,3,13,0,0,13,0,1,13,0,2,13,0,3,13,13,0,13,13,1,13,13,3,0,0,0,0,0,1,0,0,2,0,0,3,0,13,0,0,13,1,0,13,2,0,13,3,1,0,0,1,0,1,1,0,2,1,0,3,1,13,0,1,13,1,1,13,2,1,13,3,2,0,0,2,0,1,2,0,2,2,0,3,2,13,0,2,13,2,2,13,3,3,0,0,3,0,1,3,0,2,3,0,3,3,13,0,3,13,1,3,13,2,3,13,3,0,0,0,0,0,1,0,0,2,0,0,3,0,1,0,0,1,1,0,1,2,0,1,3,0,2,0,0,2,1,0,2,2,0,2,3,0,3,0,0,3,1,0,3,2,0,3,3,13,0,0,13,0,1,13,0,2,13,0,3,13,1,0,13,1,1,13,1,3,13,2,0,13,2,1,13,2,2,13,2,3,13,3,0,13,3,1,13,3,2,13,3,3,0,0,0,0,0,1,0,0,2,0,0,3,0,13,0,0,13,1,0,13,2,0,13,3,2,0,0,2,0,1,2,0,2,2,0,3,2,13,0,2,13,1,2,13,2,0,0,0,0,0,2,0,1,0,0,1,2,0,2,0,0,2,2,0,3,0,0,3,2,13,0,0,13,0,2,13,1,0,13,1,2,13,2,0,13,2,2,13,3,0,0,0,0,0,0,1,0,0,2,0,0,3,0,13,0,0,13,1,0,13,2,0,13,3,2,0,0,2,0,1,2,0,2,2,0,3,2,13,0,2,13,1,2,13,2,0,0,0,0,0,2,0,1,0,0,1,2,0,2,0,0,2,2,0,3,0,0,3,2,13,0,0,13,0,2,13,1,0,13,1,2,13,2,0,13,2,2,13,3,0,0,0,0,0,0,1,0,0,2,0,0,3,0,1,0,0,1,1,0,1,2,0,1,3,0,2,0,0,2,1,0,2,2,0,2,3,0,3,0,0,3,1,0,3,2,0,3,3,13,0,0,13,0,1,13,0,2,13,0,3,13,1,0,13,1,1,13,1,3,13,2,0,13,2,1,13,2,2,13,2,3,13,3,0,13,3,1,13,3,2,13,3,3,0,0,0,0,0,2,0,1,0,0,1,2,0,2,0,0,2,2,0,3,0,0,3,2,13,0,0,13,0,2,13,1,0,13,1,2,13,2,0,13,2,2,13,3,0,0,0,0,0,0,1,0,0,2,0,0,3,0,13,0,0,13,1,0,13,2,0,13,3,1,0,0,1,0,1,1,0,2,1,0,3,1,13,0,1,13,1,1,13,2,1,13,3,2,0,0,2,0,1,2,0,2,2,0,3,2,13,0,2,13,2,2,13,3,3,0,0,3,0,1,3,0,2,3,0,3,3,13,0,3,13,1,3,13,2,3,13,3,0,0,0,0,0,1,0,0,2,0,0,3,0,1,0,0,1,1,0,1,2,0,1,3,0,2,0,0,2,1,0,2,2,0,2,3,0,3,0,0,3,1,0,3,2,0,3,3,13,0,0,13,0,1,13,0,2,13,0,3,13,1,0,13,1,1,13,1,3,13,2,0,13,2,1,13,2,2,13,2,3,13,3,0,13,3,1,13,3,2,13,3,3,0,0,0,0,0,13,0,13,0,0,13,13,1,0,0,1,0,13,1,13,0,1,13,13,2,0,0,2,0,13,2,13,0,3,0,0,3,0,13,3,13,0,3,13,13,0,0,0,0,0,1,0,0,2,0,0,3,0,1,0,0,1,1,0,1,2,0,1,3,0,2,0,0,2,1,0,2,2,0,2,3,0,3,0,0,3,1,0,3,2,0,3,3,13,0,0,13,0,1,13,0,2,13,0,3,13,1,0,13,1,1,13,1,3,13,2,0,13,2,1,13,2,2,13,2,3,13,3,0,13,3,1,13,3,2,13,3,3,0,0,0,0,0,1,0,0,2,0,0,3,0,13,0,0,13,1,0,13,2,0,13,3,1,0,0,1,0,1,1,0,2,1,0,3,1,13,0,1,13,1,1,13,2,1,13,3,2,0,0,2,0,1,2,0,2,2,0,3,2,13,0,2,13,2,2,13,3,3,0,0,3,0,1,3,0,2,3,0,3,3,13,0,3,13,1,3,13,2,3,13,3,0,0,0,0,0,2,0,1,0,0,1,2,0,2,0,0,2,2,0,3,0,0,3,2,13,0,0,13,0,2,13,1,0,13,1,2,13,2,0,13,2,2,13,3,0,0,0,0,0,0,1,0,0,2,0,0,3,0,1,0,0,1,1,0,1,2,0,1,3,0,2,0,0,2,1,0,2,2,0,2,3,0,3,0,0,3,1,0,3,2,0,3,3,13,0,0,13,0,1,13,0,2,13,0,3,13,1,0,13,1,1,13,1,3,13,2,0,13,2,1,13,2,2,13,2,3,13,3,0,13,3,1,13,3,2,13,3,3,0,0,0,0,0,1,0,0,2,0,0,3,0,1,0,0,1,1,0,1,2,0,1,3,0,2,0,0,2,1,0,2,2,0,2,3,0,3,0,0,3,1,0,3,2,0,3,3,13,0,0,13,0,1,13,0,2,13,0,3,13,1,0,13,1,1,13,1,2,13,1,3,13,2,0,13,2,1,13,2,2,13,2,3,13,3,0,13,3,1,13,3,3,0,0,0,0,0,1,0,0,2,0,0,3,0,1,0,0,1,1,0,1,2,0,1,3,0,2,0,0,2,1,0,2,2,0,2,3,0,3,0,0,3,1,0,3,2,0,3,3,13,0,0,13,0,1,13,0,2,13,0,3,13,1,0,13,1,1,13,1,3,13,2,0,13,2,1,13,2,2,13,2,3,13,3,0,13,3,1,13,3,2,13,3,3,0,0,0,0,0,2,0,1,0,0,1,2,0,2,0,0,2,2,0,3,0,0,3,2,13,0,0,13,0,2,13,1,0,13,1,2,13,2,0,13,2,2,13,3,0,0,0,0,0,0,2,0,13,0,0,13,2,13,0,0,13,0,2,13,13,0,0,0,0,0,0,1,0,0,2,0,0,3,0,13,0,0,13,1,0,13,2,0,13,3,1,0,0,1,0,1,1,0,2,1,0,3,1,13,0,1,13,1,1,13,2,1,13,3,2,0,0,2,0,1,2,0,2,2,0,3,2,13,0,2,13,2,2,13,3,3,0,0,3,0,1,3,0,2,3,0,3,3,13,0,3,13,1,3,13,2,3,13,3,0,0,0,0,0,13,0,13,0,0,13,13,1,0,0,1,0,13,1,13,0,1,13,13,2,0,0,2,0,13,2,13,0,3,0,0,3,0,13,3,13,0,3,13,13,0,0,0,0,0,1,0,0,2,0,0,3,0,1,0,0,1,1,0,1,2,0,1,3,0,2,0,0,2,1,0,2,2,0,2,3,0,3,0,0,3,1,0,3,2,0,3,3,13,0,0,13,0,1,13,0,2,13,0,3,13,1,0,13,1,1,13,1,2,13,1,3,13,2,0,13,2,1,13,2,2,13,2,3,13,3,0,13,3,1,13,3,3,0,0,0,0,0,1,0,0,2,0,0,3,0,13,0,0,13,1,0,13,2,0,13,3,1,0,0,1,0,1,1,0,2,1,0,3,1,13,0,1,13,1,1,13,2,1,13,3,2,0,0,2,0,1,2,0,2,2,0,3,2,13,0,2,13,2,2,13,3,3,0,0,3,0,1,3,0,2,3,0,3,3,13,0,3,13,1,3,13,2,3,13,3,0,0,0,0,0,1,0,0,2,0,0,3,0,13,0,0,13,1,0,13,2,0,13,3,1,0,0,1,0,1,1,0,2,1,0,3,1,13,0,1,13,1,1,13,2,1,13,3,2,0,0,2,0,1,2,0,2,2,0,3,2,13,0,2,13,2,2,13,3,3,0,0,3,0,1,3,0,2,3,0,3,3,13,0,3,13,1,3,13,2,3,13,3,0,0,0,0,0,1,0,0,2,0,0,3,0,13,0,0,13,1,0,13,2,0,13,3,1,0,0,1,0,1,1,0,2,1,0,3,1,13,0,1,13,1,1,13,2,1,13,3,2,0,0,2,0,1,2,0,2,2,0,3,2,13,0,2,13,2,2,13,3,3,0,0,3,0,1,3,0,2,3,0,3,3,13,0,3,13,1,3,13,2,3,13,3,0,0,0,0,0,13,0,1,0,0,1,13,0,2,0,0,2,13,0,3,0,0,3,13,1,0,0,1,0,13,1,1,0,1,1,13,1,2,0,1,3,0,1,3,13,2,0,0,2,0,13,2,1,0,2,1,13,2,2,0,2,2,13,2,3,0,2,3,13,3,0,0,3,0,13,3,1,0,3,1,13,3,2,0,3,2,13,3,3,0,3,3,13,0,0,0,0,0,1,0,0,2,0,0,3,0,1,0,0,1,1,0,1,2,0,1,3,0,2,0,0,2,1,0,2,2,0,2,3,0,3,0,0,3,1,0,3,2,0,3,3,13,0,0,13,0,1,13,0,2,13,0,3,13,1,0,13,1,1,13,1,2,13,1,3,13,2,0,13,2,1,13,2,2,13,2,3,13,3,0,13,3,1,13,3,3,0,0,0,0,0,1,0,0,2,0,0,3,0,1,0,0,1,1,0,1,2,0,1,3,0,2,0,0,2,1,0,2,2,0,2,3,0,3,0,0,3,1,0,3,2,0,3,3,13,0,0,13,0,1,13,0,2,13,0,3,13,1,0,13,1,1,13,1,2,13,1,3,13,2,0,13,2,1,13,2,2,13,2,3,13,3,0,13,3,1,13,3,3,0,0,0,0,0,1,0,0,2,0,0,3,0,2,0,0,2,1,0,2,2,0,2,3,13,0,0,13,0,1,13,0,2,13,0,3,13,2,0,13,2,2,13,2,3,0,0,0,0,0,13,0,13,0,0,13,13,2,0,0,2,0,13,2,13,0,0,0,0,0,0,2,0,1,0,0,1,2,0,2,0,0,2,2,0,3,0,0,3,2,13,0,0,13,0,2,13,1,0,13,1,2,13,2,0,13,2,2,13,3,0,0,0,0,0,0,2,0,1,0,0,1,2,0,2,0,0,2,2,0,3,0,0,3,2,13,0,0,13,0,2,13,1,0,13,1,2,13,2,0,13,2,2,13,3,0,0,0,0,0,0,2,0,13,0,0,13,2,13,0,0,13,0,2,13,13,0,0,0,0,0,0,1,0,0,2,0,0,3,0,1,0,0,1,1,0,1,2,0,1,3,0,2,0,0,2,1,0,2,2,0,2,3,0,3,0,0,3,1,0,3,2,0,3,3,13,0,0,13,0,1,13,0,2,13,0,3,13,1,0,13,1,1,13,1,2,13,1,3,13,2,0,13,2,1,13,2,2,13,2,3,13,3,0,13,3,1,13,3,3,0,0,0,0,0,1,0,0,2,0,0,3,0,13,0,0,13,1,0,13,2,0,13,3,2,0,0,2,0,1,2,0,2,2,0,3,2,13,0,2,13,1,2,13,2,0,0,0,0,0,1,0,0,2,0,0,3,0,13,0,0,13,1,0,13,2,0,13,3,1,0,0,1,0,1,1,0,2,1,0,3,1,13,0,1,13,1,1,13,2,1,13,3,2,0,0,2,0,1,2,0,2,2,0,3,2,13,0,2,13,2,2,13,3,3,0,0,3,0,1,3,0,2,3,0,3,3,13,0,3,13,1,3,13,2,3,13,3,0,0,0,0,0,1,0,0,2,0,0,3,0,1,0,0,1,1,0,1,2,0,1,3,0,2,0,0,2,1,0,2,2,0,2,3,0,3,0,0,3,1,0,3,2,0,3,3,13,0,0,13,0,1,13,0,2,13,0,3,13,1,0,13,1,1,13,1,2,13,1,3,13,2,0,13,2,2,13,2,3,13,3,0,13,3,1,13,3,2,13,3,3,0,0,0,0,0,1,0,0,2,0,0,3,0,13,0,0,13,1,0,13,2,0,13,3,1,0,0,1,0,1,1,0,2,1,0,3,1,13,0,1,13,1,1,13,2,1,13,3,2,0,0,2,0,1,2,0,2,2,0,3,2,13,0,2,13,2,2,13,3,3,0,0,3,0,1,3,0,2,3,0,3,3,13,0,3,13,1,3,13,2,3,13,3,0,0,0,0,0,13,0,13,0,0,13,13,1,0,0,1,0,13,1,13,0,1,13,13,2,0,0,2,0,13,2,13,0,3,0,0,3,0,13,3,13,0,3,13,13,0,0,0,0,0,1,0,0,2,0,0,3,0,13,0,0,13,1,0,13,2,0,13,3,13,0,0,13,0,1,13,0,2,13,0,3,13,13,0,13,13,1,13,13,3,0,0,0,0,0,1,0,0,2,0,0,3,0,13,0,0,13,1,0,13,2,0,13,3,13,0,0,13,0,1,13,0,2,13,0,3,13,13,0,13,13,1,13,13,3,0,0,0,0,0,13,0,13,0,0,13,13,1,0,0,1,0,13,1,13,0,1,13,13,2,0,0,2,0,13,2,13,0,3,0,0,3,0,13,3,13,0,3,13,13,0,0,0,0,0,13,0,1,0,0,1,13,0,2,0,0,2,13,0,3,0,0,3,13,1,0,0,1,0,13,1,1,0,1,1,13,1,2,0,1,3,0,1,3,13,2,0,0,2,0,13,2,1,0,2,1,13,2,2,0,2,2,13,2,3,0,2,3,13,3,0,0,3,0,13,3,1,0,3,1,13,3,2,0,3,2,13,3,3,0,3,3,13,0,0,0,0,0,1,0,0,2,0,0,3,0,1,0,0,1,1,0,1,2,0,1,3,0,2,0,0,2,1,0,2,2,0,2,3,0,3,0,0,3,1,0,3,2,0,3,3,13,0,0,13,0,1,13,0,2,13,0,3,13,1,0,13,1,1,13,1,2,13,1,3,13,2,0,13,2,2,13,2,3,13,3,0,13,3,1,13,3,2,13,3,3,0,0,0,0,0,1,0,0,2,0,0,3,0,13,0,0,13,1,0,13,2,0,13,3,1,0,0,1,0,1,1,0,2,1,0,3,1,13,0,1,13,1,1,13,2,1,13,3,2,0,0,2,0,1,2,0,2,2,0,3,2,13,0,2,13,2,2,13,3,3,0,0,3,0,1,3,0,2,3,0,3,3,13,0,3,13,1,3,13,2,3,13,3,0,0,0,0,0,1,0,0,2,0,0,3,0,13,0,0,13,1,0,13,2,0,13,3,2,0,0,2,0,1,2,0,2,2,0,3,2,13,0,2,13,1,2,13,2,0,0,0,0,0,1,0,0,2,0,0,3,0,1,0,0,1,1,0,1,2,0,1,3,0,2,0,0,2,1,0,2,2,0,2,3,0,3,0,0,3,1,0,3,2,0,3,3,1,0,0,1,0,1,1,0,2,1,0,3,1,1,0,1,1,1,1,1,2,1,1,3,1,2,0,1,2,1,1,2,2,1,2,3,1,3,0,1,3,1,1,3,2,1,3,3,2,0,0,2,0,1,2,0,2,2,0,3,2,1,0,2,1,1,2,1,2,2,1,3,2,2,0,2,2,1,2,2,2,2,2,3,2,3,0,2,3,2,2,3,3,3,0,0,3,0,1,3,0,2,3,0,3,3,1,0,3,1,1,3,1,2,3,1,3,3,2,0,3,2,1,3,2,2,3,2,3,3,3,0,3,3,1,3,3,2,3,3,3,0,0,0,0,0,1,0,0,2,0,0,3,0,13,0,0,13,1,0,13,2,0,13,3,2,0,0,2,0,1,2,0,2,2,0,3,2,13,0,2,13,1,2,13,2,0,0,0,0,0,1,0,0,2,0,0,3,0,1,0,0,1,1,0,1,2,0,1,3,0,2,0,0,2,1,0,2,2,0,2,3,0,3,0,0,3,1,0,3,2,0,3,3,13,0,0,13,0,1,13,0,2,13,0,3,13,1,0,13,1,1,13,1,3,13,2,0,13,2,1,13,2,2,13,2,3,13,3,0,13,3,1,13,3,2,13,3,3,0,0,0,0,0,1,0,0,2,0,0,3,0,13,0,0,13,1,0,13,2,0,13,3,13,0,0,13,0,1,13,0,2,13,0,3,13,13,0,13,13,1,13,13,3,0,0,0,0,0,1,0,0,2,0,0,3,0,13,0,0,13,1,0,13,2,0,13,3,1,0,0,1,0,1,1,0,2,1,0,3,1,13,0,1,13,1,1,13,2,1,13,3,2,0,0,2,0,1,2,0,2,2,0,3,2,13,0,2,13,2,2,13,3,3,0,0,3,0,1,3,0,2,3,0,3,3,13,0,3,13,1,3,13,2,3,13,3,0,0,0,0,0,1,0,0,2,0,0,3,0,1,0,0,1,1,0,1,2,0,1,3,0,2,0,0,2,1,0,2,2,0,2,3,0,3,0,0,3,1,0,3,2,0,3,3,13,0,0,13,0,1,13,0,2,13,0,3,13,1,0,13,1,1,13,1,2,13,1,3,13,2,0,13,2,2,13,2,3,13,3,0,13,3,1,13,3,2,13,3,3,0,0,0,0,0,1,0,0,2,0,0,3,0,1,0,0,1,1,0,1,2,0,1,3,0,2,0,0,2,1,0,2,2,0,2,3,0,3,0,0,3,1,0,3,2,0,3,3,13,0,0,13,0,1,13,0,2,13,0,3,13,1,0,13,1,1,13,1,3,13,2,0,13,2,1,13,2,2,13,2,3,13,3,0,13,3,1,13,3,2,13,3,3,0,0,0,0,0,1,0,0,2,0,0,3,0,13,0,0,13,1,0,13,2,0,13,3,2,0,0,2,0,1,2,0,2,2,0,3,2,13,0,2,13,1,2,13,2,0,0,0,0,0,1,0,0,2,0,0,3,0,13,0,0,13,1,0,13,2,0,13,3,1,0,0,1,0,1,1,0,2,1,0,3,1,13,0,1,13,1,1,13,2,1,13,3,2,0,0,2,0,1,2,0,2,2,0,3,2,13,0,2,13,2,2,13,3,3,0,0,3,0,1,3,0,2,3,0,3,3,13,0,3,13,1,3,13,2,3,13,3,0,0,0,0,0,1,0,0,2,0,0,3,0,13,0,0,13,1,0,13,2,0,13,3,1,0,0,1,0,1,1,0,2,1,0,3,1,13,0,1,13,1,1,13,2,1,13,3,2,0,0,2,0,1,2,0,2,2,0,3,2,13,0,2,13,2,2,13,3,3,0,0,3,0,1,3,0,2,3,0,3,3,13,0,3,13,1,3,13,2,3,13,3,0,0,0,0,0,1,0,0,2,0,0,3,0,13,0,0,13,1,0,13,2,0,13,3,1,0,0,1,0,1,1,0,2,1,0,3,1,13,0,1,13,1,1,13,2,1,13,3,2,0,0,2,0,1,2,0,2,2,0,3,2,13,0,2,13,2,2,13,3,3,0,0,3,0,1,3,0,2,3,0,3,3,13,0,3,13,1,3,13,2,3,13,3,0,0,0,0,0,1,0,0,2,0,0,3,0,1,0,0,1,1,0,1,2,0,1,3,0,2,0,0,2,1,0,2,2,0,2,3,0,3,0,0,3,1,0,3,2,0,3,3,13,0,0,13,0,1,13,0,2,13,0,3,13,1,0,13,1,1,13,1,2,13,1,3,13,2,0,13,2,2,13,2,3,13,3,0,13,3,1,13,3,2,13,3,3,0,0,0,0,0,1,0,0,2,0,0,3,0,13,0,0,13,1,0,13,2,0,13,3,13,0,0,13,0,1,13,0,2,13,0,3,13,13,0,13,13,1,13,13,3,0,0,0,0,0,13,0,13,0,0,13,13,2,0,0,2,0,13,2,13,0,0,0,0,0,0,2,0,1,0,0,1,2,0,2,0,0,2,2,0,3,0,0,3,2,13,0,0,13,0,2,13,1,0,13,1,2,13,2,0,13,2,2,13,3,0,0,0,0,0,0,1,0,0,2,0,0,3,0,13,0,0,13,1,0,13,2,0,13,3,2,0,0,2,0,1,2,0,2,2,0,3,2,13,0,2,13,1,2,13,2,0,0,0,0,0,1,0,0,2,0,0,3,0,1,0,0,1,1,0,1,2,0,1,3,0,2,0,0,2,1,0,2,2,0,2,3,0,3,0,0,3,1,0,3,2,0,3,3,13,0,0,13,0,1,13,0,2,13,0,3,13,1,0,13,1,1,13,1,2,13,1,3,13,2,0,13,2,1,13,2,2,13,2,3,13,3,0,13,3,1,13,3,3,0,0,0,0,0,1,0,0,2,0,0,3,0,13,0,0,13,1,0,13,2,0,13,3,2,0,0,2,0,1,2,0,2,2,0,3,2,13,0,2,13,1,2,13,2,0,0,0,0,0,1,0,0,2,0,0,3,0,13,0,0,13,1,0,13,2,0,13,3,13,0,0,13,0,1,13,0,2,13,0,3,13,13,0,13,13,1,13,13,3,0,0,0,0,0,1,0,0,2,0,0,3,0,13,0,0,13,1,0,13,2,0,13,3,2,0,0,2,0,1,2,0,2,2,0,3,2,13,0,2,13,1,2,13,2,0,0,0,0,0,1,0,0,2,0,0,3,0,1,0,0,1,1,0,1,2,0,1,3,0,2,0,0,2,1,0,2,2,0,2,3,0,3,0,0,3,1,0,3,2,0,3,3,13,0,0,13,0,1,13,0,2,13,0,3,13,1,0,13,1,1,13,1,2,13,1,3,13,2,0,13,2,1,13,2,2,13,2,3,13,3,0,13,3,1,13,3,3,0,0,0,0,0,1,0,0,2,0,0,3,0,13,0,0,13,1,0,13,2,0,13,3,1,0,0,1,0,1,1,0,2,1,0,3,1,13,0,1,13,1,1,13,2,1,13,3,2,0,0,2,0,1,2,0,2,2,0,3,2,13,0,2,13,2,2,13,3,3,0,0,3,0,1,3,0,2,3,0,3,3,13,0,3,13,1,3,13,2,3,13,3,0,0,0,0,0,2,0,1,0,0,1,2,0,2,0,0,2,2,0,3,0,0,3,2,13,0,0,13,0,2,13,1,0,13,1,2,13,2,0,13,2,2,13,3,0,0,0,0,0,0,13,0,1,0,0,1,13,0,2,0,0,2,13,0,3,0,0,3,13,1,0,0,1,0,13,1,1,0,1,1,13,1,2,0,1,3,0,1,3,13,2,0,0,2,0,13,2,1,0,2,1,13,2,2,0,2,2,13,2,3,0,2,3,13,3,0,0,3,0,13,3,1,0,3,1,13,3,2,0,3,2,13,3,3,0,3,3,13,0,0,0,0,0,1,0,0,2,0,0,3,0,1,0,0,1,1,0,1,2,0,1,3,0,2,0,0,2,1,0,2,2,0,2,3,0,3,0,0,3,1,0,3,2,0,3,3,13,0,0,13,0,1,13,0,2,13,0,3,13,1,0,13,1,1,13,1,2,13,1,3,13,2,0,13,2,1,13,2,2,13,3,0,13,3,1,13,3,2,13,3,3,0,0,0,0,0,1,0,0,2,0,0,3,0,13,0,0,13,1,0,13,2,0,13,3,1,0,0,1,0,1,1,0,2,1,0,3,1,13,0,1,13,1,1,13,2,1,13,3,2,0,0,2,0,1,2,0,2,2,0,3,2,13,0,2,13,2,2,13,3,3,0,0,3,0,1,3,0,2,3,0,3,3,13,0,3,13,1,3,13,2,3,13,3,0,0,0,0,0,1,0,0,2,0,0,3,0,13,0,0,13,1,0,13,2,0,13,3,1,0,0,1,0,1,1,0,2,1,0,3,1,13,0,1,13,1,1,13,2,1,13,3,2,0,0,2,0,1,2,0,2,2,0,3,2,13,0,2,13,2,2,13,3,3,0,0,3,0,1,3,0,2,3,0,3,3,13,0,3,13,1,3,13,2,3,13,3,0,0,0,0,0,2,0,1,0,0,1,2,0,2,0,0,2,2,0,3,0,0,3,2,13,0,0,13,0,2,13,1,0,13,1,2,13,2,0,13,2,2,13,3,0,0,0,0,0,0,1,0,0,2,0,0,3,0,1,0,0,1,1,0,1,2,0,1,3,0,2,0,0,2,1,0,2,2,0,2,3,0,3,0,0,3,1,0,3,2,0,3,3,13,0,0,13,0,1,13,0,2,13,0,3,13,1,0,13,1,1,13,1,2,13,1,3,13,2,0,13,2,1,13,2,2,13,3,0,13,3,1,13,3,2,13,3,3,0,0,0,0,0,1,0,0,2,0,0,3,0,13,0,0,13,1,0,13,2,0,13,3,13,0,0,13,0,1,13,0,2,13,0,3,13,13,0,13,13,1,13,13,3,0,0,0,0,0,1,0,0,2,0,0,3,0,13,0,0,13,1,0,13,2,0,13,3,2,0,0,2,0,1,2,0,2,2,0,3,2,13,0,2,13,1,2,13,2,0,0,0,0,0,1,0,0,2,0,0,3,0,13,0,0,13,1,0,13,2,0,13,3,13,0,0,13,0,1,13,0,2,13,0,3,13,13,0,13,13,1,13,13,3,0,0,0,0,0,13,0,1,0,0,1,13,0,2,0,0,2,13,0,3,0,0,3,13,1,0,0,1,0,13,1,1,0,1,1,13,1,2,0,1,2,13,1,3,0,1,3,13,2,0,0,2,0,13,2,1,0,2,2,0,2,2,13,2,3,0,2,3,13,3,0,0,3,0,13,3,1,0,3,1,13,3,2,0,3,2,13,3,3,0,3,3,13,0,0,0,0,0,1,0,0,2,0,0,3,0,13,0,0,13,1,0,13,2,0,13,3,1,0,0,1,0,1,1,0,2,1,0,3,1,13,0,1,13,1,1,13,2,1,13,3,2,0,0,2,0,1,2,0,2,2,0,3,2,13,0,2,13,2,2,13,3,3,0,0,3,0,1,3,0,2,3,0,3,3,13,0,3,13,1,3,13,2,3,13,3,0,0,0,0,0,2,0,1,0,0,1,2,0,2,0,0,2,2,0,3,0,0,3,2,13,0,0,13,0,2,13,1,0,13,1,2,13,2,0,13,2,2,13,3,0,0,0,0,0,0,13,0,1,0,0,1,13,0,2,0,0,2,13,0,3,0,0,3,13,1,0,0,1,0,13,1,1,0,1,1,13,1,2,0,1,3,0,1,3,13,2,0,0,2,0,13,2,1,0,2,1,13,2,2,0,2,2,13,2,3,0,2,3,13,3,0,0,3,0,13,3,1,0,3,1,13,3,2,0,3,2,13,3,3,0,3,3,13,0,0,0,0,0,1,0,0,2,0,0,3,0,2,0,0,2,1,0,2,2,0,2,3,13,0,0,13,0,1,13,0,2,13,0,3,13,2,0,13,2,2,13,2,3,0,0,0,0,0,1,0,0,2,0,0,3,0,13,0,0,13,1,0,13,2,0,13,3,2,0,0,2,0,1,2,0,2,2,0,3,2,13,0,2,13,1,2,13,2,0,0,0,0,0,13,0,1,0,0,1,13,0,2,0,0,2,13,0,3,0,0,3,13,13,0,0,13,0,13,13,1,0,13,1,13,13,2,0,13,3,0,13,3,13,0,0,0,0,0,1,0,0,2,0,0,3,0,1,0,0,1,1,0,1,2,0,1,3,0,2,0,0,2,1,0,2,2,0,2,3,0,3,0,0,3,1,0,3,2,0,3,3,13,0,0,13,0,1,13,0,2,13,0,3,13,1,0,13,1,1,13,1,3,13,2,0,13,2,1,13,2,2,13,2,3,13,3,0,13,3,1,13,3,2,13,3,3,0,0,0,0,0,1,0,0,2,0,0,3,0,1,0,0,1,1,0,1,2,0,1,3,0,2,0,0,2,1,0,2,2,0,2,3,0,3,0,0,3,1,0,3,2,0,3,3,13,0,0,13,0,1,13,0,2,13,0,3,13,1,0,13,1,1,13,1,2,13,1,3,13,2,0,13,2,1,13,2,2,13,2,3,13,3,0,13,3,1,13,3,3,0,0,0,0,0,1,0,0,2,0,0,3,0,13,0,0,13,1,0,13,2,0,13,3,1,0,0,1,0,1,1,0,2,1,0,3,1,13,0,1,13,1,1,13,2,1,13,3,2,0,0,2,0,1,2,0,2,2,0,3,2,13,0,2,13,2,2,13,3,3,0,0,3,0,1,3,0,2,3,0,3,3,13,0,3,13,1,3,13,2,3,13,3,0,0,0,0,0,1,0,0,2,0,0,3,0,1,0,0,1,1,0,1,2,0,1,3,0,2,0,0,2,1,0,2,2,0,2,3,0,3,0,0,3,1,0,3,2,0,3,3,13,0,0,13,0,1,13,0,2,13,0,3,13,1,0,13,1,1,13,1,2,13,1,3,13,2,0,13,2,1,13,2,2,13,2,3,13,3,0,13,3,1,13,3,3,0,0,0,0,0,1,0,0,2,0,0,3,0,1,0,0,1,1,0,1,2,0,1,3,0,2,0,0,2,1,0,2,2,0,2,3,0,3,0,0,3,1,0,3,2,0,3,3,13,0,0,13,0,1,13,0,2,13,0,3,13,1,0,13,1,1,13,1,3,13,2,0,13,2,1,13,2,2,13,2,3,13,3,0,13,3,1,13,3,2,13,3,3,0,0,0,0,0,1,0,0,2,0,0,3,0,13,0,0,13,1,0,13,2,0,13,3,13,0,0,13,0,1,13,0,2,13,0,3,13,13,0,13,13,1,13,13,3,0,0,0,0,0,1,0,0,2,0,0,3,0,1,0,0,1,1,0,1,2,0,1,3,0,2,0,0,2,1,0,2,2,0,2,3,0,3,0,0,3,1,0,3,2,0,3,3,1,0,0,1,0,1,1,0,2,1,0,3,1,1,0,1,1,1,1,1,2,1,1,3,1,2,0,1,2,1,1,2,2,1,2,3,1,3,0,1,3,1,1,3,2,1,3,3,2,0,0,2,0,1,2,0,2,2,0,3,2,1,0,2,1,1,2,1,2,2,1,3,2,2,0,2,2,1,2,2,2,2,2,3,2,3,0,2,3,1,2,3,2,2,3,3,3,0,0,3,0,1,3,0,2,3,0,3,3,1,0,3,1,1,3,1,3,3,2,0,3,2,1,3,2,2,3,2,3,3,3,0,3,3,1,3,3,2,3,3,3,0,0,0,0,0,1,0,0,2,0,0,3,0,13,0,0,13,1,0,13,2,0,13,3,2,0,0,2,0,1,2,0,2,2,0,3,2,13,0,2,13,1,2,13,2,0,0,0,0,0,1,0,0,2,0,0,3,0,1,0,0,1,1,0,1,2,0,1,3,0,2,0,0,2,1,0,2,2,0,2,3,0,3,0,0,3,1,0,3,2,0,3,3,1,0,0,1,0,1,1,0,2,1,0,3,1,1,0,1,1,1,1,1,2,1,1,3,1,2,0,1,2,1,1,2,2,1,2,3,1,3,0,1,3,1,1,3,2,1,3,3,2,0,0,2,0,1,2,0,2,2,0,3,2,1,0,2,1,1,2,1,2,2,1,3,2,2,0,2,2,1,2,2,2,2,2,3,2,3,0,2,3,1,2,3,2,2,3,3,3,0,0,3,0,1,3,0,2,3,0,3,3,1,0,3,1,1,3,1,3,3,2,0,3,2,1,3,2,2,3,2,3,3,3,0,3,3,1,3,3,2,3,3,3,0,0,0,0,0,1,0,0,2,0,0,3,0,13,0,0,13,1,0,13,2,0,13,3,1,0,0,1,0,1,1,0,2,1,0,3,1,13,0,1,13,1,1,13,2,1,13,3,2,0,0,2,0,1,2,0,2,2,0,3,2,13,0,2,13,2,2,13,3,3,0,0,3,0,1,3,0,2,3,0,3,3,13,0,3,13,1,3,13,2,3,13,3,0,0,0,0,0,1,0,0,2,0,0,3,0,1,0,0,1,1,0,1,2,0,1,3,0,2,0,0,2,1,0,2,2,0,2,3,0,3,0,0,3,1,0,3,2,0,3,3,13,0,0,13,0,1,13,0,2,13,0,3,13,1,0,13,1,1,13,1,3,13,2,0,13,2,1,13,2,2,13,2,3,13,3,0,13,3,1,13,3,2,13,3,3,0,0,0,0,0,1,0,0,2,0,0,3,0,1,0,0,1,1,0,1,2,0,1,3,0,2,0,0,2,1,0,2,2,0,2,3,0,3,0,0,3,1,0,3,2,0,3,3,13,0,0,13,0,1,13,0,2,13,0,3,13,1,0,13,1,1,13,1,3,13,2,0,13,2,1,13,2,2,13,2,3,13,3,0,13,3,1,13,3,2,13,3,3,0,0,0,0,0,1,0,0,2,0,0,3,0,13,0,0,13,1,0,13,2,0,13,3,2,0,0,2,0,1,2,0,2,2,0,3,2,13,0,2,13,1,2,13,2,0,0,0,0,0,1,0,0,2,0,0,3,0,1,0,0,1,1,0,1,2,0,1,3,0,2,0,0,2,1,0,2,2,0,2,3,0,3,0,0,3,1,0,3,2,0,3,3,13,0,0,13,0,1,13,0,2,13,0,3,13,1,0,13,1,1,13,1,2,13,1,3,13,2,0,13,2,1,13,2,2,13,2,3,13,3,0,13,3,1,13,3,3,0,0,0,0,0,1,0,0,2,0,0,3,0,1,0,0,1,1,0,1,2,0,1,3,0,2,0,0,2,1,0,2,2,0,2,3,0,3,0,0,3,1,0,3,2,0,3,3,13,0,0,13,0,1,13,0,2,13,0,3,13,1,0,13,1,1,13,1,2,13,1,3,13,2,0,13,2,1,13,2,2,13,2,3,13,3,0,13,3,1,13,3,3,0,0,0,0,0,1,0,0,2,0,0,3,0,13,0,0,13,1,0,13,2,0,13,3,1,0,0,1,0,1,1,0,2,1,0,3,1,13,0,1,13,1,1,13,2,1,13,3,2,0,0,2,0,1,2,0,2,2,0,3,2,13,0,2,13,2,2,13,3,3,0,0,3,0,1,3,0,2,3,0,3,3,13,0,3,13,1,3,13,2,3,13,3,0,0,0,0,0,1,0,0,2,0,0,3,0,1,0,0,1,1,0,1,2,0,1,3,0,2,0,0,2,1,0,2,2,0,2,3,0,3,0,0,3,1,0,3,2,0,3,3,13,0,0,13,0,1,13,0,2,13,0,3,13,1,0,13,1,1,13,1,2,13,1,3,13,2,0,13,2,1,13,2,2,13,2,3,13,3,0,13,3,1,13,3,3,0,0,0,0,0,1,0,0,2,0,0,3,0,13,0,0,13,1,0,13,2,0,13,3,2,0,0,2,0,1,2,0,2,2,0,3,2,13,0,2,13,1,2,13,2,0,0,0,0,0,1,0,0,2,0,0,3,0,13,0,0,13,1,0,13,2,0,13,3,2,0,0,2,0,1,2,0,2,2,0,3,2,13,0,2,13,1,2,13,2,0,0,0,0,0,1,0,0,2,0,0,3,0,1,0,0,1,1,0,1,2,0,1,3,0,2,0,0,2,1,0,2,2,0,2,3,0,3,0,0,3,1,0,3,2,0,3,3,13,0,0,13,0,1,13,0,2,13,0,3,13,1,0,13,1,1,13,1,2,13,1,3,13,2,0,13,2,2,13,2,3,13,3,0,13,3,1,13,3,2,13,3,3,0,0,0,0,0,1,0,0,2,0,0,3,0,13,0,0,13,1,0,13,2,0,13,3,13,0,0,13,0,1,13,0,2,13,0,3,13,13,0,13,13,1,13,13,3,0,0,0,0,0,1,0,0,2,0,0,3,0,13,0,0,13,1,0,13,2,0,13,3,1,0,0,1,0,1,1,0,2,1,0,3,1,13,0,1,13,1,1,13,2,1,13,3,2,0,0,2,0,1,2,0,2,2,0,3,2,13,0,2,13,2,2,13,3,3,0,0,3,0,1,3,0,2,3,0,3,3,13,0,3,13,1,3,13,2,3,13,3,0,0,0,0,0,1,0,0,2,0,0,3,0,13,0,0,13,1,0,13,2,0,13,3,1,0,0,1,0,1,1,0,2,1,0,3,1,13,0,1,13,1,1,13,3,2,0,0,2,0,1,2,0,2,2,0,3,2,13,0,2,13,1,2,13,2,2,13,3,3,0,0,3,0,1,3,0,2,3,0,3,3,13,0,3,13,1,3,13,2,3,13,3,0,0,0,0,0,13,0,1,0,0,1,13,0,2,0,0,2,13,0,3,0,0,3,13,13,0,0,13,0,13,13,1,0,13,1,13,13,2,0,13,3,0,13,3,13,0,0,0,0,0,2,0,1,0,0,1,2,0,2,0,0,2,2,0,3,0,0,3,2,13,0,0,13,0,2,13,1,0,13,1,2,13,2,0,13,2,2,13,3,0,0,0,0,0,0,2,0,1,0,0,1,2,0,2,0,0,2,2,0,3,0,0,3,2,13,0,0,13,0,2,13,1,0,13,1,2,13,2,0,13,2,2,13,3,0,0,0,0,0,0,2,0,1,0,0,1,2,0,2,0,0,2,2,0,3,0,0,3,2,13,0,0,13,0,2,13,1,0,13,1,2,13,2,0,13,2,2,13,3,0,0,0,0,0,0,1,0,0,2,0,0,3,0,13,0,0,13,1,0,13,2,0,13,3,2,0,0,2,0,1,2,0,2,2,0,3,2,13,0,2,13,1,2,13,2,0,0,0,0,0,13,0,1,0,0,1,13,0,2,0,0,2,13,0,3,0,0,3,13,13,0,0,13,0,13,13,1,0,13,1,13,13,2,0,13,3,0,13,3,13,0,0,0,0,0,1,0,0,2,0,0,3,0,13,0,0,13,1,0,13,2,0,13,3,2,0,0,2,0,1,2,0,2,2,0,3,2,13,0,2,13,1,2,13,2,0,0,0,0,0,1,0,0,2,0,0,3,0,13,0,0,13,1,0,13,2,0,13,3,2,0,0,2,0,1,2,0,2,2,0,3,2,13,0,2,13,1,2,13,2,0,0,0,0,0,1,0,0,2,0,0,3,0,1,0,0,1,1,0,1,2,0,1,3,0,2,0,0,2,1,0,2,2,0,2,3,0,3,0,0,3,1,0,3,2,0,3,3,1,0,0,1,0,1,1,0,2,1,0,3,1,1,0,1,1,1,1,1,2,1,1,3,1,2,0,1,2,1,1,2,2,1,2,3,1,3,0,1,3,1,1,3,2,1,3,3,2,0,0,2,0,1,2,0,2,2,0,3,2,1,0,2,1,1,2,1,2,2,1,3,2,2,0,2,2,1,2,2,2,2,2,3,2,3,0,2,3,1,2,3,2,2,3,3,3,0,0,3,0,1,3,0,2,3,0,3,3,1,0,3,1,1,3,1,3,3,2,0,3,2,1,3,2,2,3,2,3,3,3,0,3,3,1,3,3,2,3,3,3,0,0,0,0,0,1,0,0,2,0,0,3,0,13,0,0,13,1,0,13,2,0,13,3,1,0,0,1,0,1,1,0,2,1,0,3,1,13,0,1,13,1,1,13,2,1,13,3,2,0,0,2,0,1,2,0,2,2,0,3,2,13,0,2,13,2,2,13,3,3,0,0,3,0,1,3,0,2,3,0,3,3,13,0,3,13,1,3,13,2,3,13,3,0,0,0,0,0,1,0,0,2,0,0,3,0,13,0,0,13,1,0,13,2,0,13,3,13,0,0,13,0,1,13,0,2,13,0,3,13,13,0,13,13,1,13,13,3,0,0,0,0,0,2,0,1,0,0,1,2,0,2,0,0,2,2,0,3,0,0,3,2,13,0,0,13,0,2,13,1,0,13,1,2,13,2,0,13,2,2,13,3,0,0,0,0,0,0,1,0,0,2,0,0,3,0,1,0,0,1,1,0,1,2,0,1,3,0,2,0,0,2,1,0,2,2,0,2,3,0,3,0,0,3,1,0,3,2,0,3,3,1,0,0,1,0,1,1,0,2,1,0,3,1,1,0,1,1,1,1,1,2,1,1,3,1,2,0,1,2,1,1,2,2,1,2,3,1,3,0,1,3,1,1,3,2,1,3,3,2,0,0,2,0,1,2,0,2,2,0,3,2,1,0,2,1,1,2,1,2,2,1,3,2,2,0,2,2,1,2,2,2,2,2,3,2,3,0,2,3,2,2,3,3,3,0,0,3,0,1,3,0,2,3,0,3,3,1,0,3,1,1,3,1,2,3,1,3,3,2,0,3,2,1,3,2,2,3,2,3,3,3,0,3,3,1,3,3,2,3,3,3,0,0,0,0,0,1,0,0,2,0,0,3,0,13,0,0,13,1,0,13,2,0,13,3,13,0,0,13,0,1,13,0,2,13,0,3,13,13,0,13,13,1,13,13,3,0,0,0,0,0,1,0,0,2,0,0,3,0,1,0,0,1,1,0,1,2,0,1,3,0,2,0,0,2,1,0,2,2,0,2,3,0,3,0,0,3,1,0,3,2,0,3,3,13,0,0,13,0,1,13,0,2,13,0,3,13,1,0,13,1,1,13,1,2,13,1,3,13,2,0,13,2,1,13,2,2,13,2,3,13,3,0,13,3,1,13,3,3,0,0,0,0,0,1,0,0,2,0,0,3,0,13,0,0,13,1,0,13,2,0,13,3,13,0,0,13,0,1,13,0,2,13,0,3,13,13,0,13,13,1,13,13,3,0,0,0,0,0,1,0,0,2,0,0,3,0,13,0,0,13,1,0,13,2,0,13,3,13,0,0,13,0,1,13,0,2,13,0,3,13,13,0,13,13,1,13,13,3,0,0,0,0,0,1,0,0,2,0,0,3,0,1,0,0,1,1,0,1,2,0,1,3,0,2,0,0,2,1,0,2,2,0,2,3,0,3,0,0,3,1,0,3,2,0,3,3,13,0,0,13,0,1,13,0,2,13,0,3,13,1,0,13,1,1,13,1,3,13,2,0,13,2,1,13,2,2,13,2,3,13,3,0,13,3,1,13,3,2,13,3,3,0,0,0,0,0,1,0,0,2,0,0,3,0,2,0,0,2,1,0,2,2,0,2,3,13,0,0,13,0,1,13,0,2,13,0,3,13,2,0,13,2,2,13,2,3,0,0,0,0,0,1,0,0,2,0,0,3,0,1,0,0,1,1,0,1,2,0,1,3,0,2,0,0,2,1,0,2,2,0,2,3,0,3,0,0,3,1,0,3,2,0,3,3,13,0,0,13,0,1,13,0,2,13,0,3,13,1,0,13,1,1,13,1,2,13,1,3,13,2,0,13,2,2,13,2,3,13,3,0,13,3,1,13,3,2,13,3,3,0,0,0,0,0,1,0,0,2,0,0,3,0,13,0,0,13,1,0,13,2,0,13,3,2,0,0,2,0,1,2,0,2,2,0,3,2,13,0,2,13,1,2,13,2,0,0,0,0,0,1,0,0,2,0,0,3,0,1,0,0,1,1,0,1,2,0,1,3,0,2,0,0,2,1,0,2,2,0,2,3,0,3,0,0,3,1,0,3,2,0,3,3,13,0,0,13,0,1,13,0,2,13,0,3,13,1,0,13,1,1,13,1,2,13,1,3,13,2,0,13,2,1,13,2,2,13,2,3,13,3,0,13,3,1,13,3,3,0,0,0,0,0,1,0,0,2,0,0,3,0,13,0,0,13,1,0,13,2,0,13,3,1,0,0,1,0,1,1,0,2,1,0,3,1,13,0,1,13,1,1,13,2,1,13,3,2,0,0,2,0,1,2,0,2,2,0,3,2,13,0,2,13,2,2,13,3,3,0,0,3,0,1,3,0,2,3,0,3,3,13,0,3,13,1,3,13,2,3,13,3,0,0,0,0,0,1,0,0,2,0,0,3,0,13,0,0,13,1,0,13,2,0,13,3,2,0,0,2,0,1,2,0,2,2,0,3,2,13,0,2,13,1,2,13,2,0,0,0,0,0,1,0,0,2,0,0,3,0,1,0,0,1,1,0,1,2,0,1,3,0,2,0,0,2,1,0,2,2,0,2,3,0,3,0,0,3,1,0,3,2,0,3,3,13,0,0,13,0,1,13,0,2,13,0,3,13,1,0,13,1,1,13,1,2,13,1,3,13,2,0,13,2,1,13,2,2,13,2,3,13,3,0,13,3,1,13,3,3,0,0,0,0,0,1,0,0,2,0,0,3,0,1,0,0,1,1,0,1,2,0,1,3,0,2,0,0,2,1,0,2,2,0,2,3,0,3,0,0,3,1,0,3,2,0,3,3,13,0,0,13,0,1,13,0,2,13,0,3,13,1,0,13,1,1,13,1,2,13,1,3,13,2,0,13,2,1,13,2,2,13,2,3,13,3,0,13,3,1,13,3,3,0,0,0,0,0,13,0,1,0,0,1,13,0,2,0,0,2,13,0,3,0,0,3,13,13,0,0,13,0,13,13,1,0,13,1,13,13,2,0,13,3,0,13,3,13,0,0,0,0,0,1,0,0,2,0,0,3,0,1,0,0,1,1,0,1,2,0,1,3,0,2,0,0,2,1,0,2,2,0,2,3,0,3,0,0,3,1,0,3,2,0,3,3,13,0,0,13,0,1,13,0,2,13,0,3,13,1,0,13,1,1,13,1,2,13,1,3,13,2,0,13,2,1,13,2,2,13,2,3,13,3,0,13,3,1,13,3,3,0,0,0,0,0,1,0,0,2,0,0,3,0,13,0,0,13,1,0,13,2,0,13,3,13,0,0,13,0,1,13,0,2,13,0,3,13,13,0,13,13,1,13,13,3,0,0,0,0,0,13,0,13,0,0,13,13,1,0,0,1,0,13,1,13,0,1,13,13,2,0,0,2,0,13,2,13,0,3,0,0,3,0,13,3,13,0,3,13,13,0,0,0,0,0,1,0,0,2,0,0,3,0,13,0,0,13,1,0,13,2,0,13,3,1,0,0,1,0,1,1,0,2,1,0,3,1,13,0,1,13,1,1,13,2,1,13,3,2,0,0,2,0,1,2,0,2,2,0,3,2,13,0,2,13,2,2,13,3,3,0,0,3,0,1,3,0,2,3,0,3,3,13,0,3,13,1,3,13,2,3,13,3,0,0,0,0,0,1,0,0,2,0,0,3,0,1,0,0,1,1,0,1,2,0,1,3,0,2,0,0,2,1,0,2,2,0,2,3,0,3,0,0,3,1,0,3,2,0,3,3,13,0,0,13,0,1,13,0,2,13,0,3,13,1,0,13,1,1,13,1,2,13,1,3,13,2,0,13,2,1,13,2,2,13,2,3,13,3,0,13,3,1,13,3,3,0,0,0,0,0,2,0,1,0,0,1,2,0,2,0,0,2,2,0,3,0,0,3,2,13,0,0,13,0,2,13,1,0,13,1,2,13,2,0,13,2,2,13,3,0,0,0,0,0,0,13,0,1,0,0,1,13,0,2,0,0,2,13,0,3,0,0,3,13,1,0,0,1,0,13,1,1,0,1,1,13,1,2,0,1,3,0,1,3,13,2,0,0,2,0,13,2,1,0,2,1,13,2,2,0,2,2,13,2,3,0,2,3,13,3,0,0,3,0,13,3,1,0,3,1,13,3,2,0,3,2,13,3,3,0,3,3,13,0,0,0,0,0,1,0,0,2,0,0,3,0,13,0,0,13,1,0,13,2,0,13,3,13,0,0,13,0,1,13,0,2,13,0,3,13,13,0,13,13,1,13,13,3,0,0,0,0,0,1,0,0,2,0,0,3,0,1,0,0,1,1,0,1,2,0,1,3,0,2,0,0,2,1,0,2,2,0,2,3,0,3,0,0,3,1,0,3,2,0,3,3,13,0,0,13,0,1,13,0,2,13,0,3,13,1,0,13,1,1,13,1,2,13,1,3,13,2,0,13,2,1,13,2,2,13,2,3,13,3,0,13,3,1,13,3,3,0,0,0,0,0,1,0,0,2,0,0,3,0,1,0,0,1,1,0,1,2,0,1,3,0,2,0,0,2,1,0,2,2,0,2,3,0,3,0,0,3,1,0,3,2,0,3,3,13,0,0,13,0,1,13,0,2,13,0,3,13,1,0,13,1,1,13,1,2,13,1,3,13,2,0,13,2,1,13,2,2,13,2,3,13,3,0,13,3,1,13,3,3,0,0,0,0,0,2,0,1,0,0,1,2,0,2,0,0,2,2,0,3,0,0,3,2,13,0,0,13,0,2,13,1,0,13,1,2,13,2,0,13,2,2,13,3,0,0,0,0,0,0,2,0,1,0,0,1,2,0,2,0,0,2,2,0,3,0,0,3,2,13,0,0,13,0,2,13,1,0,13,2,0,13,2,2,13,3,0,13,3,2,0,0,0,0,0,1,0,0,2,0,0,3,0,13,0,0,13,1,0,13,2,0,13,3,1,0,0,1,0,1,1,0,2,1,0,3,1,13,0,1,13,1,1,13,2,1,13,3,2,0,0,2,0,1,2,0,2,2,0,3,2,13,0,2,13,2,2,13,3,3,0,0,3,0,1,3,0,2,3,0,3,3,13,0,3,13,1,3,13,2,3,13,3,0,0,0,0,0,1,0,0,2,0,0,3,0,1,0,0,1,1,0,1,2,0,1,3,0,2,0,0,2,1,0,2,2,0,2,3,0,3,0,0,3,1,0,3,2,0,3,3,13,0,0,13,0,1,13,0,2,13,0,3,13,1,0,13,1,1,13,1,2,13,1,3,13,2,0,13,2,1,13,2,2,13,2,3,13,3,0,13,3,1,13,3,3,0,0,0,0,0,1,0,0,2,0,0,3,0,13,0,0,13,1,0,13,2,0,13,3,13,0,0,13,0,1,13,0,2,13,0,3,13,13,0,13,13,1,13,13,3,0,0,0,0,0,1,0,0,2,0,0,3,0,1,0,0,1,1,0,1,2,0,1,3,0,2,0,0,2,1,0,2,2,0,2,3,0,3,0,0,3,1,0,3,2,0,3,3,13,0,0,13,0,1,13,0,2,13,0,3,13,1,0,13,1,1,13,1,2,13,1,3,13,2,0,13,2,1,13,2,2,13,2,3,13,3,0,13,3,1,13,3,3,0,0,0,0,0,1,0,0,2,0,0,3,0,1,0,0,1,1,0,1,2,0,1,3,0,2,0,0,2,1,0,2,2,0,2,3,0,3,0,0,3,1,0,3,2,0,3,3,13,0,0,13,0,1,13,0,2,13,0,3,13,1,0,13,1,1,13,1,2,13,1,3,13,2,0,13,2,1,13,2,2,13,2,3,13,3,0,13,3,1,13,3,3,0,0,0,0,0,1,0,0,2,0,0,3,0,13,0,0,13,1,0,13,2,0,13,3,2,0,0,2,0,1,2,0,2,2,0,3,2,13,0,2,13,1,2,13,2,0,0,0,0,0,1,0,0,2,0,0,3,0,1,0,0,1,1,0,1,2,0,1,3,0,2,0,0,2,1,0,2,2,0,2,3,0,3,0,0,3,1,0,3,2,0,3,3,13,0,0,13,0,1,13,0,2,13,0,3,13,1,0,13,1,1,13,1,2,13,1,3,13,2,0,13,2,1,13,2,2,13,2,3,13,3,0,13,3,1,13,3,3,0,0,0,0,0,1,0,0,2,0,0,3,0,13,0,0,13,1,0,13,2,0,13,3,1,0,0,1,0,1,1,0,2,1,0,3,1,13,0,1,13,1,1,13,2,1,13,3,2,0,0,2,0,1,2,0,2,2,0,3,2,13,0,2,13,2,2,13,3,3,0,0,3,0,1,3,0,2,3,0,3,3,13,0,3,13,1,3,13,2,3,13,3,0,0,0,0,0,1,0,0,2,0,0,3,0,1,0,0,1,1,0,1,2,0,1,3,0,2,0,0,2,1,0,2,2,0,2,3,0,3,0,0,3,1,0,3,2,0,3,3,13,0,0,13,0,1,13,0,2,13,0,3,13,1,0,13,1,1,13,1,2,13,1,3,13,2,0,13,2,1,13,2,2,13,2,3,13,3,0,13,3,1,13,3,3,0,0,0,0,0,2,0,1,0,0,1,2,0,2,0,0,2,2,0,3,0,0,3,2,13,0,0,13,0,2,13,1,0,13,1,2,13,2,0,13,2,2,13,3,0,0,0,0,0,0,1,0,0,2,0,0,3,0,1,0,0,1,1,0,1,2,0,1,3,0,2,0,0,2,1,0,2,2,0,2,3,0,3,0,0,3,1,0,3,2,0,3,3,13,0,0,13,0,1,13,0,2,13,0,3,13,1,0,13,1,1,13,1,3,13,2,0,13,2,1,13,2,2,13,2,3,13,3,0,13,3,1,13,3,2,13,3,3,0,0,0,0,0,1,0,0,2,0,0,3,0,1,0,0,1,1,0,1,2,0,1,3,0,2,0,0,2,1,0,2,2,0,2,3,0,3,0,0,3,1,0,3,2,0,3,3,13,0,0,13,0,1,13,0,2,13,0,3,13,1,0,13,1,1,13,1,2,13,1,3,13,2,0,13,2,2,13,2,3,13,3,0,13,3,1,13,3,2,13,3,3,0,0,0,0,0,1,0,0,2,0,0,3,0,13,0,0,13,1,0,13,2,0,13,3,2,0,0,2,0,1,2,0,2,2,0,3,2,13,0,2,13,1,2,13,2,0,0,0,0,0,1,0,0,2,0,0,3,0,13,0,0,13,1,0,13,2,0,13,3,13,0,0,13,0,1,13,0,2,13,0,3,13,13,0,13,13,1,13,13,3,0,0,0,0,0,2,0,1,0,0,1,2,0,2,0,0,2,2,0,3,0,0,3,2,13,0,0,13,0,2,13,1,0,13,1,2,13,2,0,13,2,2,13,3,0,0,0,0,0,0,2,0,1,0,0,1,2,0,2,0,0,2,2,0,3,0,0,3,2,13,0,0,13,0,2,13,1,0,13,1,2,13,2,0,13,2,2,13,3,0,0,0,0,0,0,1,0,0,2,0,0,3,0,13,0,0,13,1,0,13,2,0,13,3,2,0,0,2,0,1,2,0,2,2,0,3,2,13,0,2,13,1,2,13,2,0,0,0,0,0,1,0,0,2,0,0,3,0,1,0,0,1,1,0,1,2,0,1,3,0,2,0,0,2,1,0,2,2,0,2,3,0,3,0,0,3,1,0,3,2,0,3,3,13,0,0,13,0,1,13,0,2,13,0,3,13,1,0,13,1,1,13,1,2,13,1,3,13,2,0,13,2,1,13,2,2,13,2,3,13,3,0,13,3,1,13,3,3,0,0,0,0,0,1,0,0,2,0,0,3,0,13,0,0,13,1,0,13,2,0,13,3,13,0,0,13,0,1,13,0,2,13,0,3,13,13,0,13,13,1,13,13,3,0,0,0,0,0,1,0,0,2,0,0,3,0,1,0,0,1,1,0,1,2,0,1,3,0,2,0,0,2,1,0,2,2,0,2,3,0,3,0,0,3,1,0,3,2,0,3,3,13,0,0,13,0,1,13,0,2,13,0,3,13,1,0,13,1,1,13,1,2,13,1,3,13,2,0,13,2,1,13,2,2,13,2,3,13,3,0,13,3,1,13,3,3,0,0,0,0,0,2,0,1,0,0,1,2,0,2,0,0,2,2,0,3,0,0,3,2,13,0,0,13,0,2,13,1,0,13,1,2,13,2,0,13,2,2,13,3,0,0,0,0,0,0,1,0,0,2,0,0,3,0,13,0,0,13,1,0,13,2,0,13,3,2,0,0,2,0,1,2,0,2,2,0,3,2,13,0,2,13,1,2,13,2,0,0,0,0,0,1,0,0,2,0,0,3,0,1,0,0,1,1,0,1,2,0,1,3,0,2,0,0,2,1,0,2,2,0,2,3,0,3,0,0,3,1,0,3,2,0,3,3,13,0,0,13,0,1,13,0,2,13,0,3,13,1,0,13,1,1,13,1,3,13,2,0,13,2,1,13,2,2,13,2,3,13,3,0,13,3,1,13,3,2,13,3,3,0,0,0,0,0,1,0,0,2,0,0,3,0,1,0,0,1,1,0,1,2,0,1,3,0,2,0,0,2,1,0,2,2,0,2,3,0,3,0,0,3,1,0,3,2,0,3,3,13,0,0,13,0,1,13,0,2,13,0,3,13,1,0,13,1,1,13,1,2,13,1,3,13,2,0,13,2,2,13,2,3,13,3,0,13,3,1,13,3,2,13,3,3,0,0,0,0,0,1,0,0,2,0,0,3,0,1,0,0,1,1,0,1,2,0,1,3,0,2,0,0,2,1,0,2,2,0,2,3,0,3,0,0,3,1,0,3,2,0,3,3,13,0,0,13,0,1,13,0,2,13,0,3,13,1,0,13,1,1,13,1,3,13,2,0,13,2,1,13,2,2,13,2,3,13,3,0,13,3,1,13,3,2,13,3,3,0,0,0,0,0,1,0,0,2,0,0,3,0,1,0,0,1,1,0,1,2,0,1,3,0,2,0,0,2,1,0,2,2,0,2,3,0,3,0,0,3,1,0,3,2,0,3,3,13,0,0,13,0,1,13,0,2,13,0,3,13,1,0,13,1,1,13,1,3,13,2,0,13,2,1,13,2,2,13,2,3,13,3,0,13,3,1,13,3,2,13,3,3,0,0,0,0,0,1,0,0,2,0,0,3,0,13,0,0,13,1,0,13,2,0,13,3,13,0,0,13,0,1,13,0,2,13,0,3,13,13,0,13,13,1,13,13,3,0,0,0,0,0,13,0,1,0,0,1,13,0,2,0,0,2,13,0,3,0,0,3,13,1,0,0,1,0,13,1,1,0,1,1,13,1,2,0,1,3,0,1,3,13,2,0,0,2,0,13,2,1,0,2,1,13,2,2,0,2,2,13,2,3,0,2,3,13,3,0,0,3,0,13,3,1,0,3,1,13,3,2,0,3,2,13,3,3,0,3,3,13,0,0,0,0,0,2,0,1,0,0,1,2,0,2,0,0,2,2,0,3,0,0,3,2,13,0,0,13,0,2,13,1,0,13,1,2,13,2,0,13,2,2,13,3,0,0,0,0,0,0,1,0,0,2,0,0,3,0,13,0,0,13,1,0,13,2,0,13,3,13,0,0,13,0,1,13,0,2,13,0,3,13,13,0,13,13,1,13,13,3,0,0,0,0,0,2,0,1,0,0,1,2,0,2,0,0,2,2,0,3,0,0,3,2,13,0,0,13,0,2,13,1,0,13,1,2,13,2,0,13,2,2,13,3,0,0,0,0,0,0,1,0,0,2,0,0,3,0,1,0,0,1,1,0,1,2,0,1,3,0,2,0,0,2,1,0,2,2,0,2,3,0,3,0,0,3,1,0,3,2,0,3,3,13,0,0,13,0,1,13,0,2,13,0,3,13,1,0,13,1,1,13,1,2,13,1,3,13,2,0,13,2,1,13,2,2,13,2,3,13,3,0,13,3,1,13,3,3,0,0,0,0,0,1,0,0,2,0,0,3,0,1,0,0,1,1,0,1,2,0,1,3,0,2,0,0,2,1,0,2,2,0,2,3,0,3,0,0,3,1,0,3,2,0,3,3,13,0,0,13,0,1,13,0,2,13,0,3,13,1,0,13,1,1,13,1,2,13,1,3,13,2,0,13,2,1,13,2,2,13,2,3,13,3,0,13,3,1,13,3,3,0,0,0,0,0,1,0,0,2,0,0,3,0,1,0,0,1,1,0,1,2,0,1,3,0,2,0,0,2,1,0,2,2,0,2,3,0,3,0,0,3,1,0,3,2,0,3,3,13,0,0,13,0,1,13,0,2,13,0,3,13,1,0,13,1,1,13,1,2,13,1,3,13,2,0,13,2,1,13,2,2,13,2,3,13,3,0,13,3,1,13,3,3,0,0,0,0,0,1,0,0,2,0,0,3,0,13,0,0,13,1,0,13,2,0,13,3,1,0,0,1,0,1,1,0,2,1,0,3,1,13,0,1,13,1,1,13,2,1,13,3,2,0,0,2,0,1,2,0,2,2,0,3,2,13,0,2,13,2,2,13,3,3,0,0,3,0,1,3,0,2,3,0,3,3,13,0,3,13,1,3,13,2,3,13,3,0,0,0,0,0,1,0,0,2,0,0,3,0,13,0,0,13,1,0,13,2,0,13,3,1,0,0,1,0,1,1,0,2,1,0,3,1,13,0,1,13,1,1,13,2,1,13,3,2,0,0,2,0,1,2,0,2,2,0,3,2,13,0,2,13,2,2,13,3,3,0,0,3,0,1,3,0,2,3,0,3,3,13,0,3,13,1,3,13,2,3,13,3,0,0,0,0,0,1,0,0,2,0,0,3,0,1,0,0,1,1,0,1,2,0,1,3,0,2,0,0,2,1,0,2,2,0,2,3,0,3,0,0,3,1,0,3,2,0,3,3,13,0,0,13,0,1,13,0,2,13,0,3,13,1,0,13,1,1,13,1,2,13,1,3,13,2,0,13,2,2,13,2,3,13,3,0,13,3,1,13,3,2,13,3,3,0,0,0,0,0,2,0,1,0,0,1,2,0,2,0,0,2,2,0,3,0,0,3,2,13,0,0,13,0,2,13,1,0,13,1,2,13,2,0,13,2,2,13,3,0,0,0,0,0,0,1,0,0,2,0,0,3,0,1,0,0,1,1,0,1,2,0,1,3,0,2,0,0,2,1,0,2,2,0,2,3,0,3,0,0,3,1,0,3,2,0,3,3,13,0,0,13,0,1,13,0,2,13,0,3,13,1,0,13,1,1,13,1,2,13,1,3,13,2,0,13,2,1,13,2,2,13,2,3,13,3,0,13,3,1,13,3,3,0,0,0,0,0,1,0,0,2,0,0,3,0,13,0,0,13,1,0,13,2,0,13,3,1,0,0,1,0,1,1,0,2,1,0,3,1,13,0,1,13,1,1,13,2,1,13,3,2,0,0,2,0,1,2,0,2,2,0,3,2,13,0,2,13,2,2,13,3,3,0,0,3,0,1,3,0,2,3,0,3,3,13,0,3,13,1,3,13,2,3,13,3,0,0,0,0,0,1,0,0,2,0,0,3,0,13,0,0,13,1,0,13,2,0,13,3,1,0,0,1,0,1,1,0,2,1,0,3,1,13,0,1,13,1,1,13,2,1,13,3,2,0,0,2,0,1,2,0,2,2,0,3,2,13,0,2,13,2,2,13,3,3,0,0,3,0,1,3,0,2,3,0,3,3,13,0,3,13,1,3,13,2,3,13,3,0,0,0,0,0,1,0,0,2,0,0,3,0,13,0,0,13,1,0,13,2,0,13,3,13,0,0,13,0,1,13,0,2,13,0,3,13,13,0,13,13,1,13,13,3,0,0,0,0,0,1,0,0,2,0,0,3,0,13,0,0,13,1,0,13,2,0,13,3,1,0,0,1,0,1,1,0,2,1,0,3,1,13,0,1,13,1,1,13,2,1,13,3,2,0,0,2,0,1,2,0,2,2,0,3,2,13,0,2,13,2,2,13,3,3,0,0,3,0,1,3,0,2,3,0,3,3,13,0,3,13,1,3,13,2,3,13,3,0,0,0,0,0,1,0,0,2,0,0,3,0,13,0,0,13,1,0,13,2,0,13,3,1,0,0,1,0,1,1,0,2,1,0,3,1,13,0,1,13,1,1,13,2,1,13,3,2,0,0,2,0,1,2,0,2,2,0,3,2,13,0,2,13,2,2,13,3,3,0,0,3,0,1,3,0,2,3,0,3,3,13,0,3,13,1,3,13,2,3,13,3,0,0,0,0,0,1,0,0,2,0,0,3,0,13,0,0,13,1,0,13,2,0,13,3,13,0,0,13,0,1,13,0,2,13,0,3,13,13,0,13,13,1,13,13,3,0,0,0,0,0,1,0,0,2,0,0,3,0,13,0,0,13,1,0,13,2,0,13,3,13,0,0,13,0,1,13,0,2,13,0,3,13,13,0,13,13,1,13,13,3,0,0,0,0,0,1,0,0,2,0,0,3,0,1,0,0,1,1,0,1,2,0,1,3,0,2,0,0,2,1,0,2,2,0,2,3,0,3,0,0,3,1,0,3,2,0,3,3,13,0,0,13,0,1,13,0,2,13,0,3,13,1,0,13,1,1,13,1,2,13,1,3,13,2,0,13,2,1,13,2,2,13,2,3,13,3,0,13,3,1,13,3,3,0,0,0,0,0,1,0,0,2,0,0,3,0,13,0,0,13,1,0,13,2,0,13,3,13,0,0,13,0,1,13,0,2,13,0,3,13,13,0,13,13,1,13,13,3,0,0,0,0,0,2,0,1,0,0,1,2,0,2,0,0,2,2,0,3,0,0,3,2,13,0,0,13,0,2,13,1,0,13,2,0,13,2,2,13,3,0,13,3,2,0,0,0,0,0,1,0,0,2,0,0,3,0,13,0,0,13,1,0,13,2,0,13,3,1,0,0,1,0,1,1,0,2,1,0,3,1,13,0,1,13,1,1,13,2,1,13,3,2,0,0,2,0,1,2,0,2,2,0,3,2,13,0,2,13,2,2,13,3,3,0,0,3,0,1,3,0,2,3,0,3,3,13,0,3,13,1,3,13,2,3,13,3,0,0,0,0,0,1,0,0,2,0,0,3,0,13,0,0,13,1,0,13,2,0,13,3,13,0,0,13,0,1,13,0,2,13,0,3,13,13,0,13,13,1,13,13,3,0,0,0,0,0,1,0,0,2,0,0,3,0,1,0,0,1,1,0,1,2,0,1,3,0,2,0,0,2,1,0,2,2,0,2,3,0,3,0,0,3,1,0,3,2,0,3,3,13,0,0,13,0,1,13,0,2,13,0,3,13,1,0,13,1,1,13,1,2,13,1,3,13,2,0,13,2,1,13,2,2,13,2,3,13,3,0,13,3,1,13,3,3,0,0,0,0,0,13,0,1,0,0,1,13,0,2,0,0,2,13,0,3,0,0,3,13,13,0,0,13,0,13,13,1,0,13,1,13,13,2,0,13,3,0,13,3,13,0,0,0,0,0,1,0,0,2,0,0,3,0,1,0,0,1,1,0,1,2,0,1,3,0,2,0,0,2,1,0,2,2,0,2,3,0,3,0,0,3,1,0,3,2,0,3,3,13,0,0,13,0,1,13,0,2,13,0,3,13,1,0,13,1,1,13,1,2,13,1,3,13,2,0,13,2,1,13,2,2,13,2,3,13,3,0,13,3,1,13,3,3,0,0,0,0,0,1,0,0,2,0,0,3,0,1,0,0,1,1,0,1,2,0,1,3,0,2,0,0,2,1,0,2,2,0,2,3,0,3,0,0,3,1,0,3,2,0,3,3,13,0,0,13,0,1,13,0,2,13,0,3,13,1,0,13,1,1,13,1,3,13,2,0,13,2,1,13,2,2,13,2,3,13,3,0,13,3,1,13,3,2,13,3,3,0,0,0,0,0,2,0,1,0,0,1,2,0,2,0,0,2,2,0,3,0,0,3,2,13,0,0,13,0,2,13,1,0,13,1,2,13,2,0,13,2,2,13,3,0,0,0,0,0,0,1,0,0,2,0,0,3,0,13,0,0,13,1,0,13,2,0,13,3,2,0,0,2,0,1,2,0,2,2,0,3,2,13,0,2,13,1,2,13,2,0,0,0,0,0,1,0,0,2,0,0,3,0,13,0,0,13,1,0,13,2,0,13,3,2,0,0,2,0,1,2,0,2,2,0,3,2,13,0,2,13,1,2,13,2,0,0,0,0,0,1,0,0,2,0,0,3,0,1,0,0,1,1,0,1,2,0,1,3,0,2,0,0,2,1,0,2,2,0,2,3,0,3,0,0,3,1,0,3,2,0,3,3,13,0,0,13,0,1,13,0,2,13,0,3,13,1,0,13,1,1,13,1,2,13,1,3,13,2,0,13,2,1,13,2,2,13,2,3,13,3,0,13,3,1,13,3,3,0,0,0,0,0,13,0,1,0,0,1,13,0,2,0,0,2,13,0,3,0,0,3,13,13,0,0,13,0,13,13,1,0,13,1,13,13,2,0,13,3,0,13,3,13,0,0,0,0,0,1,0,0,2,0,0,3,0,13,0,0,13,1,0,13,2,0,13,3,13,0,0,13,0,1,13,0,2,13,0,3,13,13,0,13,13,1,13,13,3,0,0,0,0,0,1,0,0,2,0,0,3,0,1,0,0,1,1,0,1,2,0,1,3,0,2,0,0,2,1,0,2,2,0,2,3,0,3,0,0,3,1,0,3,2,0,3,3,13,0,0,13,0,1,13,0,2,13,0,3,13,1,0,13,1,1,13,1,3,13,2,0,13,2,1,13,2,2,13,2,3,13,3,0,13,3,1,13,3,2,13,3,3,0,0,0,0,0,1,0,0,2,0,0,3,0,13,0,0,13,1,0,13,2,0,13,3,2,0,0,2,0,1,2,0,2,2,0,3,2,13,0,2,13,1,2,13,2,0,0,0,0,0,2,0,1,0,0,1,2,0,2,0,0,2,2,0,3,0,0,3,2,13,0,0,13,0,2,13,1,0,13,1,2,13,2,0,13,2,2,13,3,0,0,0,0,0,0,1,0,0,2,0,0,3,0,13,0,0,13,1,0,13,2,0,13,3,1,0,0,1,0,1,1,0,2,1,0,3,1,13,0,1,13,1,1,13,2,1,13,3,2,0,0,2,0,1,2,0,2,2,0,3,2,13,0,2,13,2,2,13,3,3,0,0,3,0,1,3,0,2,3,0,3,3,13,0,3,13,1,3,13,2,3,13,3,0,0,0,0,0,1,0,0,2,0,0,3,0,13,0,0,13,1,0,13,2,0,13,3,1,0,0,1,0,1,1,0,2,1,0,3,1,13,0,1,13,1,1,13,2,1,13,3,2,0,0,2,0,1,2,0,2,2,0,3,2,13,0,2,13,2,2,13,3,3,0,0,3,0,1,3,0,2,3,0,3,3,13,0,3,13,1,3,13,2,3,13,3,0,0,0,0,0,1,0,0,2,0,0,3,0,13,0,0,13,1,0,13,2,0,13,3,1,0,0,1,0,1,1,0,2,1,0,3,1,13,0,1,13,1,1,13,2,1,13,3,2,0,0,2,0,1,2,0,2,2,0,3,2,13,0,2,13,2,2,13,3,3,0,0,3,0,1,3,0,2,3,0,3,3,13,0,3,13,1,3,13,2,3,13,3,0,0,0,0,0,1,0,0,2,0,0,3,0,1,0,0,1,1,0,1,2,0,1,3,0,2,0,0,2,1,0,2,2,0,2,3,0,3,0,0,3,1,0,3,2,0,3,3,13,0,0,13,0,1,13,0,2,13,0,3,13,1,0,13,1,1,13,1,3,13,2,0,13,2,1,13,2,2,13,2,3,13,3,0,13,3,1,13,3,2,13,3,3,0,0,0,0,0,1,0,0,2,0,0,3,0,13,0,0,13,1,0,13,2,0,13,3,13,0,0,13,0,1,13,0,2,13,0,3,13,13,0,13,13,1,13,13,3,0,0,0,0,0,1,0,0,2,0,0,3,0,1,0,0,1,1,0,1,2,0,1,3,0,2,0,0,2,1,0,2,2,0,2,3,0,3,0,0,3,1,0,3,2,0,3,3,13,0,0,13,0,1,13,0,2,13,0,3,13,1,0,13,1,1,13,1,2,13,1,3,13,2,0,13,2,2,13,2,3,13,3,0,13,3,1,13,3,2,13,3,3,0,0,0,0,0,1,0,0,2,0,0,3,0,1,0,0,1,1,0,1,2,0,1,3,0,2,0,0,2,1,0,2,2,0,2,3,0,3,0,0,3,1,0,3,2,0,3,3,13,0,0,13,0,1,13,0,2,13,0,3,13,1,0,13,1,1,13,1,3,13,2,0,13,2,1,13,2,2,13,2,3,13,3,0,13,3,1,13,3,2,13,3,3,0,0,0,0,0,1,0,0,2,0,0,3,0,13,0,0,13,1,0,13,2,0,13,3,13,0,0,13,0,1,13,0,2,13,0,3,13,13,0,13,13,1,13,13,3,0,0,0,0,0,1,0,0,2,0,0,3,0,13,0,0,13,1,0,13,2,0,13,3,1,0,0,1,0,1,1,0,2,1,0,3,1,13,0,1,13,1,1,13,2,1,13,3,2,0,0,2,0,1,2,0,2,2,0,3,2,13,0,2,13,2,2,13,3,3,0,0,3,0,1,3,0,2,3,0,3,3,13,0,3,13,1,3,13,2,3,13,3,0,0,0,0,0,1,0,0,2,0,0,3,0,13,0,0,13,1,0,13,2,0,13,3,2,0,0,2,0,1,2,0,2,2,0,3,2,13,0,2,13,1,2,13,2,0,0,0,0,0,1,0,0,2,0,0,3,0,13,0,0,13,1,0,13,2,0,13,3,13,0,0,13,0,1,13,0,2,13,0,3,13,13,0,13,13,1,13,13,3,0,0,0,0,0,13,0,1,0,0,1,13,0,2,0,0,2,13,0,3,0,0,3,13,13,0,0,13,0,13,13,1,0,13,1,13,13,2,0,13,3,0,13,3,13,0,0,0,0,0,1,0,0,2,0,0,3,0,13,0,0,13,1,0,13,2,0,13,3,2,0,0,2,0,1,2,0,2,2,0,3,2,13,0,2,13,1,2,13,2,0,0,0,0,0,1,0,0,2,0,0,3,0,13,0,0,13,1,0,13,2,0,13,3,2,0,0,2,0,1,2,0,2,2,0,3,2,13,0,2,13,1,2,13,2,0,0,0,0,0,1,0,0,2,0,0,3,0,13,0,0,13,1,0,13,2,0,13,3,2,0,0,2,0,1,2,0,2,2,0,3,2,13,0,2,13,1,2,13,2,0,0,0,0,0,1,0,0,2,0,0,3,0,1,0,0,1,1,0,1,2,0,1,3,0,2,0,0,2,1,0,2,2,0,2,3,0,3,0,0,3,1,0,3,2,0,3,3,13,0,0,13,0,1,13,0,2,13,0,3,13,1,0,13,1,1,13,1,2,13,1,3,13,2,0,13,2,2,13,2,3,13,3,0,13,3,1,13,3,2,13,3,3,0,0,0,0,0,1,0,0,2,0,0,3,0,13,0,0,13,1,0,13,2,0,13,3,2,0,0,2,0,1,2,0,2,2,0,3,2,13,0,2,13,1,2,13,2,0,0,0,0,0,2,0,1,0,0,1,2,0,2,0,0,2,2,0,3,0,0,3,2,13,0,0,13,0,2,13,1,0,13,1,2,13,2,0,13,2,2,13,3,0,0,0,0,0,0,1,0,0,2,0,0,3,0,13,0,0,13,1,0,13,2,0,13,3,13,0,0,13,0,1,13,0,2,13,0,3,13,13,0,13,13,1,13,13,3,0,0,0,0,0,1,0,0,2,0,0,3,0,1,0,0,1,1,0,1,2,0,1,3,0,2,0,0,2,1,0,2,2,0,2,3,0,3,0,0,3,1,0,3,2,0,3,3,13,0,0,13,0,1,13,0,2,13,0,3,13,1,0,13,1,1,13,1,2,13,1,3,13,2,0,13,2,1,13,2,2,13,2,3,13,3,0,13,3,1,13,3,3,0,0,0,0,0,2,0,1,0,0,1,2,0,2,0,0,2,2,0,3,0,0,3,2,13,0,0,13,0,2,13,1,0,13,1,2,13,2,0,13,2,2,13,3,0,0,0,0,0,0,1,0,0,2,0,0,3,0,13,0,0,13,1,0,13,2,0,13,3,13,0,0,13,0,1,13,0,2,13,0,3,13,13,0,13,13,1,13,13,3,0,0,0,0,0,1,0,0,2,0,0,3,0,13,0,0,13,1,0,13,2,0,13,3,2,0,0,2,0,1,2,0,2,2,0,3,2,13,0,2,13,1,2,13,2,0,0,0,0,0,13,0,13,0,0,13,13,1,0,0,1,0,13,1,13,0,1,13,13,2,0,0,2,0,13,2,13,0,3,0,0,3,0,13,3,13,0,3,13,13,0,0,0,0,0,13,0,1,0,0,1,13,0,2,0,0,2,13,0,3,0,0,3,13,1,0,0,1,0,13,1,1,0,1,1,13,1,2,0,1,3,0,1,3,13,2,0,0,2,0,13,2,1,0,2,1,13,2,2,0,2,2,13,2,3,0,2,3,13,3,0,0,3,0,13,3,1,0,3,1,13,3,2,0,3,2,13,3,3,0,3,3,13,0,0,0,0,0,1,0,0,2,0,0,3,0,13,0,0,13,1,0,13,2,0,13,3,2,0,0,2,0,1,2,0,2,2,0,3,2,13,0,2,13,1,2,13,2,0,0,0,0,0,1,0,0,2,0,0,3,0,1,0,0,1,1,0,1,2,0,1,3,0,2,0,0,2,1,0,2,2,0,2,3,0,3,0,0,3,1,0,3,2,0,3,3,13,0,0,13,0,1,13,0,2,13,0,3,13,1,0,13,1,1,13,1,2,13,1,3,13,2,0,13,2,2,13,2,3,13,3,0,13,3,1,13,3,2,13,3,3,0,0,0,0,0,1,0,0,2,0,0,3,0,1,0,0,1,1,0,1,2,0,1,3,0,2,0,0,2,1,0,2,2,0,2,3,0,3,0,0,3,1,0,3,2,0,3,3,13,0,0,13,0,1,13,0,2,13,0,3,13,1,0,13,1,1,13,1,2,13,1,3,13,2,0,13,2,1,13,2,2,13,2,3,13,3,0,13,3,1,13,3,3,0,0,0,0,0,13,0,1,0,0,1,13,0,2,0,0,2,13,0,3,0,0,3,13,13,0,0,13,0,13,13,1,0,13,1,13,13,2,0,13,3,0,13,3,13,0,0,0,0,0,1,0,0,2,0,0,3,0,13,0,0,13,1,0,13,2,0,13,3,2,0,0,2,0,1,2,0,2,2,0,3,2,13,0,2,13,1,2,13,2,0,0,0,0,0,1,0,0,2,0,0,3,0,1,0,0,1,1,0,1,2,0,1,3,0,2,0,0,2,1,0,2,2,0,2,3,0,3,0,0,3,1,0,3,2,0,3,3,1,0,0,1,0,1,1,0,2,1,0,3,1,1,0,1,1,1,1,1,2,1,1,3,1,2,0,1,2,1,1,2,2,1,2,3,1,3,0,1,3,1,1,3,2,1,3,3,2,0,0,2,0,1,2,0,2,2,0,3,2,1,0,2,1,1,2,1,2,2,1,3,2,2,0,2,2,1,2,2,2,2,2,3,2,3,0,2,3,1,2,3,2,2,3,3,3,0,0,3,0,1,3,0,2,3,0,3,3,1,0,3,1,1,3,1,3,3,2,0,3,2,1,3,2,2,3,2,3,3,3,0,3,3,1,3,3,2,3,3,3,0,0,0,0,0,13,0,1,0,0,1,13,0,2,0,0,2,13,0,3,0,0,3,13,13,0,0,13,0,13,13,1,0,13,1,13,13,2,0,13,3,0,13,3,13,0,0,0,0,0,13,0,13,0,0,13,13,1,0,0,1,0,13,1,13,0,1,13,13,2,0,0,2,0,13,2,13,0,3,0,0,3,0,13,3,13,0,3,13,13,0,0,0,0,0,1,0,0,2,0,0,3,0,1,0,0,1,1,0,1,2,0,1,3,0,2,0,0,2,1,0,2,2,0,2,3,0,3,0,0,3,1,0,3,2,0,3,3,13,0,0,13,0,1,13,0,2,13,0,3,13,1,0,13,1,1,13,1,2,13,1,3,13,2,0,13,2,1,13,2,2,13,2,3,13,3,0,13,3,1,13,3,3,0,0,0,0,0,1,0,0,2,0,0,3,0,1,0,0,1,1,0,1,2,0,1,3,0,2,0,0,2,1,0,2,2,0,2,3,0,3,0,0,3,1,0,3,2,0,3,3,13,0,0,13,0,1,13,0,2,13,0,3,13,1,0,13,1,1,13,1,3,13,2,0,13,2,1,13,2,2,13,2,3,13,3,0,13,3,1,13,3,2,13,3,3,0,0,0,0,0,1,0,0,2,0,0,3,0,1,0,0,1,1,0,1,2,0,1,3,0,2,0,0,2,1,0,2,2,0,2,3,0,3,0,0,3,1,0,3,2,0,3,3,13,0,0,13,0,1,13,0,2,13,0,3,13,1,0,13,1,1,13,1,2,13,1,3,13,2,0,13,2,2,13,2,3,13,3,0,13,3,1,13,3,2,13,3,3,0,0,0,0,0,1,0,0,2,0,0,3,0,1,0,0,1,1,0,1,2,0,1,3,0,2,0,0,2,1,0,2,2,0,2,3,0,3,0,0,3,1,0,3,2,0,3,3,13,0,0,13,0,1,13,0,2,13,0,3,13,1,0,13,1,1,13,1,2,13,1,3,13,2,0,13,2,1,13,2,2,13,2,3,13,3,0,13,3,1,13,3,3,0,0,0,0,0,2,0,1,0,0,1,2,0,2,0,0,2,2,0,3,0,0,3,2,13,0,0,13,0,2,13,1,0,13,2,0,13,2,2,13,3,0,13,3,2,0,0,0,0,0,1,0,0,2,0,0,3,0,13,0,0,13,1,0,13,2,0,13,3,2,0,0,2,0,1,2,0,2,2,0,3,2,13,0,2,13,1,2,13,2,0,0,0,0,0,1,0,0,2,0,0,3,0,13,0,0,13,1,0,13,2,0,13,3,13,0,0,13,0,1,13,0,2,13,0,3,13,13,0,13,13,1,13,13,3,0,0,0,0,0,2,0,1,0,0,1,2,0,2,0,0,2,2,0,3,0,0,3,2,13,0,0,13,0,2,13,1,0,13,2,0,13,2,2,13,3,0,13,3,2,0,0,0,0,0,1,0,0,2,0,0,3,0,1,0,0,1,1,0,1,2,0,1,3,0,2,0,0,2,1,0,2,2,0,2,3,0,3,0,0,3,1,0,3,2,0,3,3,13,0,0,13,0,1,13,0,2,13,0,3,13,1,0,13,1,1,13,1,2,13,1,3,13,2,0,13,2,2,13,2,3,13,3,0,13,3,1,13,3,2,13,3,3,0,0,0,0,0,1,0,0,2,0,0,3,0,13,0,0,13,1,0,13,2,0,13,3,13,0,0,13,0,1,13,0,2,13,0,3,13,13,0,13,13,1,13,13,3,0,0,0,0,0,1,0,0,2,0,0,3,0,13,0,0,13,1,0,13,2,0,13,3,1,0,0,1,0,1,1,0,2,1,0,3,1,13,0,1,13,1,1,13,2,1,13,3,2,0,0,2,0,1,2,0,2,2,0,3,2,13,0,2,13,2,2,13,3,3,0,0,3,0,1,3,0,2,3,0,3,3,13,0,3,13,1,3,13,2,3,13,3,0,0,0,0,0,1,0,0,2,0,0,3,0,1,0,0,1,1,0,1,2,0,1,3,0,2,0,0,2,1,0,2,2,0,2,3,0,3,0,0,3,1,0,3,2,0,3,3,1,0,0,1,0,1,1,0,2,1,0,3,1,1,0,1,1,1,1,1,2,1,1,3,1,2,0,1,2,1,1,2,2,1,2,3,1,3,0,1,3,1,1,3,2,1,3,3,2,0,0,2,0,1,2,0,2,2,0,3,2,1,0,2,1,1,2,1,2,2,1,3,2,2,0,2,2,1,2,2,2,2,2,3,2,3,0,2,3,1,2,3,2,2,3,3,3,0,0,3,0,1,3,0,2,3,0,3,3,1,0,3,1,1,3,1,3,3,2,0,3,2,1,3,2,2,3,2,3,3,3,0,3,3,1,3,3,2,3,3,3,0,0,0,0,0,13,0,1,0,0,1,13,0,2,0,0,2,13,0,3,0,0,3,13,1,0,0,1,0,13,1,1,0,1,1,13,1,2,0,1,3,0,1,3,13,2,0,0,2,0,13,2,1,0,2,1,13,2,2,0,2,2,13,2,3,0,2,3,13,3,0,0,3,0,13,3,1,0,3,1,13,3,2,0,3,2,13,3,3,0,3,3,13,0,0,0,0,0,1,0,0,2,0,0,3,0,1,0,0,1,1,0,1,2,0,1,3,0,2,0,0,2,1,0,2,2,0,2,3,0,3,0,0,3,1,0,3,2,0,3,3,13,0,0,13,0,1,13,0,2,13,0,3,13,1,0,13,1,1,13,1,2,13,1,3,13,2,0,13,2,2,13,2,3,13,3,0,13,3,1,13,3,2,13,3,3,0,0,0,0,0,1,0,0,2,0,0,3,0,1,0,0,1,1,0,1,2,0,1,3,0,2,0,0,2,1,0,2,2,0,2,3,0,3,0,0,3,1,0,3,2,0,3,3,13,0,0,13,0,1,13,0,2,13,0,3,13,1,0,13,1,1,13,1,2,13,1,3,13,2,0,13,2,1,13,2,2,13,2,3,13,3,0,13,3,1,13,3,3,0,0,0,0,0,1,0,0,2,0,0,3,0,13,0,0,13,1,0,13,2,0,13,3,2,0,0,2,0,1,2,0,2,2,0,3,2,13,0,2,13,1,2,13,2,0,0,0,0,0,1,0,0,2,0,0,3,0,13,0,0,13,1,0,13,2,0,13,3,1,0,0,1,0,1,1,0,2,1,0,3,1,13,0,1,13,1,1,13,2,1,13,3,2,0,0,2,0,1,2,0,2,2,0,3,2,13,0,2,13,2,2,13,3,3,0,0,3,0,1,3,0,2,3,0,3,3,13,0,3,13,1,3,13,2,3,13,3,0,0,0,0,0,1,0,0,2,0,0,3,0,1,0,0,1,1,0,1,2,0,1,3,0,2,0,0,2,1,0,2,2,0,2,3,0,3,0,0,3,1,0,3,2,0,3,3,13,0,0,13,0,1,13,0,2,13,0,3,13,1,0,13,1,1,13,1,2,13,1,3,13,2,0,13,2,1,13,2,2,13,2,3,13,3,0,13,3,1,13,3,3,0,0,0,0,0,1,0,0,2,0,0,3,0,13,0,0,13,1,0,13,2,0,13,3,13,0,0,13,0,1,13,0,2,13,0,3,13,13,0,13,13,1,13,13,3,0,0,0,0,0,1,0,0,2,0,0,3,0,1,0,0,1,1,0,1,2,0,1,3,0,2,0,0,2,1,0,2,2,0,2,3,0,3,0,0,3,1,0,3,2,0,3,3,13,0,0,13,0,1,13,0,2,13,0,3,13,1,0,13,1,1,13,1,2,13,1,3,13,2,0,13,2,2,13,2,3,13,3,0,13,3,1,13,3,2,13,3,3,0,0,0,0,0,1,0,0,2,0,0,3,0,1,0,0,1,1,0,1,2,0,1,3,0,2,0,0,2,1,0,2,2,0,2,3,0,3,0,0,3,1,0,3,2,0,3,3,13,0,0,13,0,1,13,0,2,13,0,3,13,1,0,13,1,1,13,1,2,13,1,3,13,2,0,13,2,1,13,2,2,13,2,3,13,3,0,13,3,1,13,3,3,0,0,0,0,0,1,0,0,2,0,0,3,0,13,0,0,13,1,0,13,2,0,13,3,2,0,0,2,0,1,2,0,2,2,0,3,2,13,0,2,13,1,2,13,2,0,0,0,0,0,1,0,0,2,0,0,3,0,1,0,0,1,1,0,1,2,0,1,3,0,2,0,0,2,1,0,2,2,0,2,3,0,3,0,0,3,1,0,3,2,0,3,3,13,0,0,13,0,1,13,0,2,13,0,3,13,1,0,13,1,1,13,1,2,13,1,3,13,2,0,13,2,1,13,2,2,13,2,3,13,3,0,13,3,1,13,3,3];
