num_variables= 240;
min_domain = 0;
max_domain = 13;
domains = [{0,1,2,3},{0,1,2,3},{0,1,2,3},{0,1,2,3},{0,13},{0,2},{0,2},{0,13},{0,1,2,3},{0,1,2,3},{0,1,2,3},{0,13},{0,13},{0,13},{0,2},{0,2},{0,13},{0,13},{0,1,2,3},{0,1,2,3},{0,13},{0,13},{0,13},{0,13},{0,13},{0,13},{0,1,2,3},{0,1,2,3},{0,13},{0,1,2,3},{0,13},{0,1,2,3},{0,13},{0,13},{0,13},{0,13},{0,13},{0,13},{0,13},{0,13},{0,2},{0,2},{0,13},{0,13},{0,13},{0,2},{0,2},{0,1,2,3},{0,13},{0,13},{0,13},{0,13},{0,13},{0,13},{0,1,2,3},{0,13},{0,1,2,3},{0,13},{0,13},{0,13},{0,13},{0,13},{0,13},{0,13},{0,13},{0,13},{0,13},{0,13},{0,13},{0,13},{0,1,2,3},{0,1,2,3},{0,1,2,3},{0,1,2,3},{0,1,2,3},{0,13},{0,1,2,3},{0,13},{0,13},{0,1,2,3},{0,13},{0,13},{0,1,2,3},{0,13},{0,13},{0,13},{0,1,2,3},{0,1,2,3},{0,1,2,3},{0,13},{0,13},{0,13},{0,1,2,3},{0,1,2,3},{0,13},{0,13},{0,13},{0,2},{0,2},{0,2},{0,2},{0,2},{0,13},{0,2},{0,2},{0,2},{0,1,2,3},{0,1,2,3},{0,13},{0,1,2,3},{0,1,2,3},{0,1,2,3},{0,13},{0,1,2,3},{0,13},{0,1,2,3},{0,13},{0,13},{0,1,2,3},{0,13},{0,13},{0,1,2,3},{0,1,2,3},{0,1,2,3},{0,1,2,3},{0,13},{0,1,2,3},{0,1,2,3},{0,1,2,3},{0,1,2,3},{0,1,2,3},{0,13},{0,13},{0,1,2,3},{0,1,2,3},{0,13},{0,13},{0,13},{0,13},{0,13},{0,1,2,3},{0,13},{0,13},{0,13},{0,1,2,3},{0,1,2,3},{0,13},{0,13},{0,13},{0,13},{0,13},{0,1,2,3},{0,1,2,3},{0,13},{0,1,2,3},{0,13},{0,13},{0,13},{0,13},{0,1,2,3},{0,13},{0,1,2,3},{0,1,2,3},{0,13},{0,1,2,3},{0,13},{0,1,2,3},{0,13},{0,1,2,3},{0,13},{0,13},{0,13},{0,13},{0,1,2,3},{0,13},{0,1,2,3},{0,1,2,3},{0,13},{0,1,2,3},{0,1,2,3},{0,1,2,3},{0,13},{0,13},{0,13},{0,13},{0,13},{0,1,2,3},{0,13},{0,1,2,3},{0,13},{0,1,2,3},{0,1,2,3},{0,1,2,3},{0,1,2,3},{0,1,2,3},{0,1,2,3},{0,1,2,3},{0,13},{0,13},{0,1,2,3},{0,1,2,3},{0,1,2,3},{0,1,2,3},{0,1,2,3},{0,2},{0,1,2,3},{0,1,2,3},{0,1,2,3},{0,1,2,3},{0,1,2,3},{0,1,2,3},{0,1,2,3},{0,1,2,3},{0,1,2,3},{0,13},{0,13},{0,13},{0,13},{0,1,2,3},{0,1,2,3},{0,1,2,3},{0,1,2,3},{0,13},{0,13},{0,13},{0,13},{0,1,2,3},{0,1,2,3},{0,1,2,3},{0,1,2,3},{0,1,2,3},{0,1,2,3},{0,1,2,3},{0,1,2,3},{0,1,2,3},{0,1,2,3},{0,1,2,3},{0,13},{0,13},{0,13}];
costs = [1,1,1,1,2,1,1,2,1,1,1,2,2,2,1,1,2,2,1,1,2,2,2,2,2,2,1,1,2,1,2,1,2,2,2,2,2,2,2,2,1,1,2,2,2,1,1,1,2,2,2,2,2,2,1,2,1,2,2,2,2,2,2,2,2,2,2,2,2,2,1,1,1,1,1,2,1,2,2,1,2,2,1,2,2,2,1,1,1,2,2,2,1,1,2,2,2,1000,1000,1000,1000,1000,2,1000,1000,1000,1,1,2,1,1,1,2,1,2,1,2,2,1,2,2,1,1,1,1,2,1,1,1,1,1,2,2,1,1,2,2,2,2,2,1,2,2,2,1,1,2,2,2,2,2,1,1,2,1,2,2,2,2,1,2,1,1000,1000,1000,1000,5,5,5,5,1000,1000,1000,5,1000,1000,5,1000,1,1,1,1000,5,1000,5,1000,1000,1000,1000,1000,1,1,1,1,1,1,1,1000,1000,1,1,1,1,1,1,1000,1000,1,1,1,1000,1,1000,1000,5,5,1000,1000,1,1,1,1,5,2,5,2,1,1,1,5,1,1,1,1,1,1,1,2,2,2];
num_constraints2= 1476;
max_constraints2 = 19868;
scopes2x = [183,212,148,154,215,133,168,218,135,146,191,86,172,153,119,168,55,198,3,171,45,12,157,193,145,170,206,186,213,185,214,164,134,198,184,76,142,160,215,12,222,45,74,207,84,14,116,50,177,102,95,164,230,221,178,195,199,178,192,190,186,58,116,216,201,217,179,178,190,17,123,183,84,143,182,215,27,191,213,193,150,86,146,182,215,168,20,185,195,26,90,113,71,212,198,184,43,171,42,146,195,191,145,78,40,114,214,106,150,27,31,97,48,234,214,222,143,47,168,179,121,154,218,207,148,52,153,28,7,190,175,214,43,86,40,39,140,216,145,49,192,44,150,198,155,199,112,102,45,107,17,170,90,170,58,230,151,112,217,225,126,151,44,82,94,101,185,198,213,153,214,25,182,108,102,148,148,184,151,33,159,90,155,114,223,180,172,54,97,44,16,148,90,212,136,161,183,214,151,92,199,201,45,36,165,166,5,207,108,183,154,222,182,55,118,91,206,197,162,149,206,128,43,13,159,210,208,32,173,179,140,66,192,217,12,121,103,168,76,172,108,94,194,86,13,217,76,102,98,92,76,103,116,204,173,186,87,172,84,204,5,139,31,5,207,178,160,216,57,178,14,138,94,186,26,223,8,183,173,114,218,172,139,82,43,107,94,213,102,75,210,199,211,45,90,216,81,78,4,92,39,151,103,22,116,148,81,205,82,91,219,98,31,92,91,181,184,95,97,199,94,47,89,177,100,126,108,164,233,116,193,30,44,24,131,157,106,186,180,45,171,175,84,92,151,214,116,61,168,11,194,138,181,87,45,114,145,146,199,139,29,25,195,43,146,95,210,237,212,162,214,193,188,82,218,169,146,149,92,194,211,185,183,82,182,218,133,95,131,29,73,14,192,178,114,48,84,161,145,213,149,205,52,79,80,179,221,157,132,81,215,214,180,218,89,28,172,188,77,124,167,108,146,26,162,95,91,197,78,116,43,182,21,229,174,76,140,145,197,12,170,150,118,135,213,9,103,43,208,82,17,149,205,215,166,95,208,106,5,82,212,186,14,193,175,5,140,140,32,194,83,86,74,212,170,225,42,213,11,218,205,192,173,127,86,181,101,151,36,172,128,161,175,164,118,146,40,173,42,180,89,90,130,44,207,79,90,9,59,197,116,192,103,79,79,181,78,22,206,115,44,145,73,202,146,78,203,50,215,98,151,188,86,148,216,203,116,90,101,24,95,182,184,96,90,222,142,157,115,145,29,126,184,168,144,149,212,66,18,186,206,92,218,179,119,188,146,178,217,148,30,190,199,144,86,5,217,45,222,12,95,85,106,12,229,75,148,142,138,148,178,157,127,186,177,183,182,118,139,45,16,203,147,211,223,168,217,105,159,76,216,170,30,159,211,168,91,213,21,150,5,50,138,185,215,202,97,139,40,95,5,225,172,206,45,179,223,190,213,23,70,18,131,169,172,81,214,64,13,217,215,21,135,210,167,43,128,90,144,84,36,150,94,160,171,174,135,64,186,14,91,90,81,175,124,96,162,120,193,179,198,213,200,195,229,211,31,79,194,144,182,215,75,47,230,138,146,217,29,184,75,151,101,7,75,151,175,120,168,216,22,25,171,44,170,118,6,43,183,182,15,181,145,223,171,157,157,82,225,161,206,154,184,94,218,91,102,93,76,181,172,121,226,48,29,76,212,113,52,32,146,103,189,168,13,177,186,14,164,114,7,185,76,28,151,166,211,150,145,55,188,128,191,20,186,84,218,91,211,81,173,182,218,183,206,188,236,126,102,81,138,154,114,160,181,162,13,132,134,108,90,115,101,184,171,86,15,166,217,35,170,207,211,74,16,184,36,204,117,76,149,170,212,82,218,152,50,86,178,214,25,21,17,76,90,193,149,172,90,171,217,186,108,139,30,220,103,188,170,14,30,27,82,109,239,182,149,44,31,79,84,117,206,92,84,155,195,77,72,206,138,129,184,12,185,80,148,147,195,139,20,194,229,159,195,115,171,70,47,16,76,175,78,101,154,82,9,138,138,166,28,213,204,146,225,215,139,139,55,92,92,206,5,216,168,180,135,175,60,197,155,194,84,89,17,216,164,148,204,171,220,145,95,101,144,198,84,172,86,206,75,168,140,166,139,86,204,229,198,116,81,225,69,113,124,81,143,201,82,168,146,45,77,144,40,100,159,126,172,174,82,146,86,116,13,180,161,89,207,38,117,143,197,95,95,225,17,191,79,207,183,194,168,65,208,212,180,102,9,31,44,14,80,151,157,78,149,16,149,210,208,185,14,193,160,21,111,194,119,26,79,113,138,195,218,11,184,139,82,218,126,78,173,92,56,133,31,171,75,105,207,119,44,150,137,8,86,52,97,148,218,221,40,171,232,197,82,170,48,181,79,217,90,182,217,97,42,35,52,79,76,162,32,170,215,83,128,208,79,213,228,13,216,130,193,12,7,160,97,118,78,161,217,180,207,50,96,86,8,16,113,86,197,211,199,70,76,14,208,207,216,199,206,97,197,206,190,153,216,191,166,79,208,184,11,90,118,13,16,55,162,126,192,154,98,155,126,102,78,166,170,53,168,216,138,168,103,147,75,216,194,112,185,39,50,95,3,121,190,149,80,154,81,5,79,127,154,103,178,207,60,172,172,78,151,199,170,210,214,76,85,84,90,175,185,138,210,4,150,103,151,139,181,12,147,211,205,151,222,116,32,215,134,193,205,191,157,203,214,194,94,217,38,205,103,48,194,198,40,144,56,128,161,98,27,212,217,82,87,184,81,139,239,186,143,177,151,198,109,171,58,164,40,171,92,69,223,30,91,48,188,170,52,74,210,91,178,45,183,182,218,60,145,90,94,47,213,92,190,220,190,106,14,98,214,86,177,40,181,14,215,169,164,80,211,45,144,95,219,115,109,169,45,84,193,184,230,109,49,184,194,81,18,91,183,126,178,218,185,210,90,179,180,190,181,232,67,157,44,30,82,84,197,5,76,207,86,188,92,210,145,149,186,167,66,154,151,89,4,214,115,182,218,13,174,185,170,43,121,228,139,137,87,207,166,100,166,159,192,174,170,211,192,79,151,43,114,92,103,64,114,28,186,131,82,149,185,64,168,84,92,150,138,197,80,217,55,138,7,78,48,3,139,76,139,80,81,52,96,80,193,118,170,161,49,149,194,78,146,18,95,142,96,58,123,103,86,78,202,11,144,121,143,200,198,44,195,216,108,183,183,221,182,218,202,184,13,39,124,203,20,182,89,199,145,142,119,91,195,89,132,218,217,134,170,170,207,57,79,165,211,54,199,83,133,161,63,217,237,108,237,213,18,197,154,168];
scopes2y = [181,220,154,152,226,129,226,220,132,149,187,91,167,152,113,176,51,204,1,166,43,18,162,224,147,203,205,193,217,187,211,163,133,209,179,81,137,156,217,17,191,53,72,206,89,10,117,49,174,98,92,177,228,224,165,202,198,180,226,179,181,59,114,219,209,191,189,169,189,20,125,175,81,153,175,208,33,221,224,196,144,80,141,178,224,224,9,179,203,44,85,110,72,210,202,191,53,176,41,155,196,219,141,74,55,112,213,100,143,29,45,93,55,235,223,226,152,48,203,191,124,168,210,204,150,55,168,33,15,191,169,221,50,78,48,35,141,220,155,53,224,43,156,203,168,195,107,99,49,110,9,174,96,177,57,232,143,110,226,220,129,154,53,77,85,105,191,196,222,170,219,23,173,112,101,157,147,176,142,26,181,83,170,109,226,222,164,53,64,50,10,170,87,223,141,160,179,216,148,112,204,196,56,34,163,176,10,208,107,189,144,224,189,53,117,85,209,205,180,153,201,127,49,8,158,195,205,27,176,176,137,68,222,208,20,123,93,163,83,168,109,96,192,81,18,224,87,94,100,110,73,88,112,201,165,179,85,163,75,200,11,134,33,31,205,174,158,210,55,177,12,135,83,189,43,224,9,191,169,111,191,170,135,85,56,85,87,211,104,74,204,208,224,52,93,225,83,77,8,62,38,140,64,18,110,155,87,204,79,83,226,93,29,63,87,192,183,110,65,203,100,41,77,167,99,122,111,167,231,108,221,27,56,23,129,158,98,191,187,58,163,174,88,91,147,218,115,62,200,19,193,113,180,83,55,118,144,142,196,113,44,22,194,52,143,62,208,238,226,181,212,219,192,83,226,167,154,150,94,219,222,183,176,87,176,209,131,63,127,45,77,18,187,179,120,54,93,162,143,221,168,202,54,85,72,222,219,154,129,93,221,225,179,217,91,31,169,180,88,127,176,118,148,49,158,91,93,209,85,111,58,180,23,232,176,74,143,142,201,19,167,153,112,137,219,15,65,55,201,90,18,170,203,219,163,94,200,99,12,92,208,184,17,220,173,4,142,136,33,220,88,83,73,224,226,226,55,216,15,224,196,221,177,122,87,193,100,153,37,171,125,156,179,173,110,151,49,174,48,191,80,112,125,55,200,83,95,6,57,202,118,219,95,87,73,220,120,20,210,117,48,151,72,209,140,87,209,54,220,105,152,193,90,144,209,201,120,107,93,22,61,188,192,64,110,221,153,150,113,140,43,131,194,167,147,155,222,67,20,183,197,89,222,187,117,181,147,167,194,143,33,187,200,170,93,33,221,57,219,11,97,88,104,8,230,85,156,152,141,142,176,147,125,188,163,190,190,111,141,40,6,202,155,223,221,175,219,104,160,77,224,168,29,180,221,178,112,218,22,168,29,51,160,194,218,196,96,160,52,89,17,224,175,198,54,221,219,194,212,22,67,9,125,163,178,107,215,62,19,193,212,20,133,200,163,57,130,111,141,77,35,170,99,180,167,163,136,63,190,20,110,94,77,176,125,65,147,117,189,219,208,225,196,205,231,216,44,74,189,155,185,225,83,55,227,137,153,220,49,193,87,149,98,10,73,144,165,113,173,222,19,24,175,57,163,120,10,54,187,187,19,179,153,220,178,160,155,107,222,158,195,150,181,91,221,63,100,99,85,189,173,122,224,46,26,72,221,117,50,31,152,96,187,164,10,169,185,9,169,110,11,193,79,29,156,167,218,155,152,41,179,123,220,19,187,85,223,111,226,94,167,179,179,194,204,189,235,127,93,85,118,170,115,181,191,160,11,131,132,110,97,109,99,175,173,107,10,175,212,34,201,197,217,77,20,178,38,209,112,120,154,200,219,91,219,156,53,77,163,220,21,19,19,84,92,192,142,166,89,164,225,194,115,144,31,226,92,191,169,19,32,26,94,111,240,191,148,49,43,77,83,110,208,88,87,153,192,85,77,202,143,125,189,33,178,88,153,156,201,143,15,180,228,156,200,111,168,68,57,9,89,163,88,94,155,80,19,142,136,173,26,215,202,144,223,209,142,136,49,93,64,203,9,223,201,192,134,177,56,195,152,224,90,88,10,221,174,152,196,170,224,149,88,104,143,201,92,176,94,196,71,165,120,164,138,85,203,227,200,119,92,221,68,112,123,89,141,200,78,169,145,50,83,142,54,93,179,128,165,167,84,156,79,113,12,219,157,93,195,34,111,155,204,93,64,219,11,189,72,201,178,196,202,62,204,225,221,105,10,49,52,11,74,158,156,72,157,19,147,205,209,189,8,222,179,18,110,222,118,45,80,109,140,193,212,10,182,140,89,208,125,80,163,61,55,130,26,165,77,99,209,120,58,142,141,10,84,48,62,168,225,220,51,169,231,208,81,175,51,222,120,192,75,183,209,63,46,37,51,78,82,156,29,178,222,93,129,202,84,220,231,33,226,129,187,10,6,147,91,115,84,180,180,220,203,55,93,92,11,15,111,89,203,215,209,71,75,13,203,202,217,201,199,94,196,200,192,156,218,226,165,89,196,180,9,88,113,17,11,46,179,124,220,143,99,156,130,106,89,169,173,51,174,212,134,177,62,153,72,208,187,111,192,34,48,112,4,127,180,152,77,156,75,8,81,129,142,63,175,196,59,174,177,81,150,202,164,209,226,88,93,107,91,167,180,115,201,6,147,91,157,115,187,9,152,219,209,168,220,109,26,210,137,179,201,224,153,196,217,179,88,222,37,200,94,41,221,210,43,153,57,122,181,94,31,209,181,75,88,188,88,137,238,182,142,176,170,197,112,174,56,176,53,177,111,67,222,28,88,53,187,166,53,71,202,62,173,48,192,192,192,57,154,80,93,46,223,85,188,219,193,105,5,104,224,82,165,50,221,33,223,165,165,85,220,51,152,111,224,112,107,176,44,91,191,190,231,110,54,185,191,91,19,64,180,123,164,180,188,203,61,220,189,181,219,227,68,152,54,26,88,94,200,26,80,199,75,194,96,196,148,144,192,165,65,147,141,85,7,222,110,194,194,20,165,181,204,48,128,227,118,136,93,210,174,104,177,162,189,169,176,212,191,75,155,51,117,83,97,61,113,27,180,130,93,143,190,65,166,80,87,152,120,194,83,210,54,162,9,75,49,2,120,78,162,87,80,49,62,73,226,109,165,159,51,156,226,83,150,10,96,141,63,55,122,89,88,73,201,6,168,125,147,209,195,51,204,215,117,188,193,226,193,193,200,187,9,37,122,200,10,181,83,210,150,155,115,61,209,87,130,181,223,136,202,224,198,46,88,176,225,51,197,85,132,179,62,179,235,113,239,226,11,193,153,204];
num_tuples2 = [6,13,3,6,3,6,3,6,6,6,13,3,6,13,6,6,6,6,13,3,3,3,6,7,6,7,7,6,6,6,13,6,6,6,6,3,3,6,3,3,14,3,13,13,6,6,6,3,13,3,3,6,13,6,6,13,3,6,7,6,6,3,13,6,13,7,13,6,6,6,13,3,3,6,3,6,6,14,6,13,3,6,13,3,3,3,13,6,13,3,3,6,13,13,6,6,3,6,3,13,13,14,13,6,6,13,13,3,3,6,3,6,13,13,6,6,6,7,7,13,6,3,6,13,3,6,7,6,3,6,6,13,3,3,6,3,6,6,13,3,7,3,3,6,7,6,13,3,3,13,6,6,3,6,6,13,3,13,3,6,6,3,3,6,6,3,6,6,13,7,13,3,3,13,3,3,3,6,3,3,7,6,7,6,3,14,3,3,3,3,7,3,6,6,6,6,6,6,3,7,6,13,3,3,13,6,6,13,13,6,3,6,6,6,3,3,13,7,15,6,13,13,3,3,3,13,7,13,6,13,3,3,14,6,6,6,6,6,6,3,6,6,13,3,3,3,6,7,3,7,6,6,13,13,6,6,6,6,6,13,6,6,3,3,7,6,6,6,13,6,3,6,13,6,3,3,6,6,6,13,7,3,6,3,3,7,13,13,3,13,13,6,6,3,6,3,6,6,6,3,3,3,3,3,13,6,6,7,3,6,6,7,3,3,6,13,3,7,3,6,7,3,13,13,3,6,13,6,13,13,14,13,3,3,13,3,3,6,13,3,6,6,6,3,3,6,6,3,7,13,13,3,13,13,6,6,6,6,6,3,3,3,13,3,6,3,13,6,6,15,13,14,6,6,3,13,6,3,6,14,13,3,6,6,6,6,6,3,13,3,13,3,13,6,6,6,6,6,6,13,3,7,3,3,13,14,13,3,6,6,6,6,13,3,6,6,6,6,13,13,13,6,6,3,6,3,6,13,3,13,3,6,3,13,13,6,3,6,13,6,6,6,6,6,13,7,3,6,13,3,3,3,7,6,6,6,13,3,3,3,13,3,3,14,3,6,3,3,6,14,13,6,13,6,3,3,7,6,7,3,7,14,6,13,6,13,3,6,3,3,13,3,6,3,6,6,3,6,7,13,13,7,13,6,13,6,3,7,6,13,6,14,3,6,6,14,3,6,13,3,6,6,13,13,6,6,13,3,6,3,6,6,3,3,6,13,6,7,7,3,3,3,6,3,7,13,6,3,3,6,3,6,6,6,3,6,13,3,6,3,13,6,6,13,6,6,6,6,7,3,6,6,6,3,6,3,6,6,13,6,3,6,3,3,13,6,3,6,6,3,6,3,13,3,13,3,3,6,6,3,3,13,6,6,6,3,6,3,6,6,3,3,6,7,13,3,7,6,3,3,3,3,7,6,3,13,3,7,3,6,3,3,3,6,3,14,6,6,13,3,3,6,13,13,3,7,6,3,6,7,6,6,6,13,13,6,13,7,6,6,3,3,7,15,6,13,6,3,3,6,7,6,6,6,13,3,6,3,13,14,6,6,13,7,13,6,3,6,13,6,3,3,13,7,13,3,13,6,3,6,13,3,3,7,13,3,6,3,3,6,6,3,3,6,6,3,7,3,6,6,7,13,13,6,3,6,6,7,6,3,13,3,6,6,6,3,3,7,3,13,3,6,3,7,3,6,13,3,3,6,13,3,13,3,6,13,3,6,6,13,7,6,3,6,3,6,6,6,13,7,6,13,14,13,6,3,3,7,6,6,6,6,7,6,13,6,13,6,7,3,3,3,6,15,13,13,6,6,6,13,3,3,3,3,3,7,7,3,6,3,7,13,6,13,7,3,3,13,6,3,3,7,13,3,6,6,3,6,6,13,3,6,6,3,3,13,3,3,6,3,3,6,6,3,6,6,3,6,6,6,13,6,6,6,3,6,3,3,3,6,6,6,13,6,6,13,13,6,13,13,3,13,6,3,3,13,6,3,13,3,7,13,13,3,13,6,3,3,7,7,6,6,6,7,6,6,13,3,3,3,6,6,13,6,3,6,3,3,6,6,3,13,6,3,7,13,13,6,3,13,13,7,3,13,6,6,6,6,13,3,6,6,6,3,3,6,3,6,6,13,13,6,3,3,3,3,13,13,6,13,3,6,3,6,13,6,6,13,3,6,13,3,13,3,3,7,7,6,6,13,3,6,3,6,3,14,3,13,13,3,6,6,13,6,3,6,6,13,6,13,3,13,7,3,13,6,14,3,13,3,3,6,13,3,3,6,3,7,3,7,13,6,3,14,15,3,13,14,6,3,6,3,3,13,6,13,3,3,6,6,6,6,6,3,6,6,3,6,13,3,13,6,3,3,6,6,3,6,3,3,3,13,3,6,13,13,3,3,6,14,3,7,6,3,6,3,3,3,3,3,3,6,6,3,6,13,13,13,3,13,13,3,3,13,13,6,3,6,3,3,3,7,7,14,13,6,6,3,6,3,6,6,13,6,6,6,6,3,13,13,3,6,6,6,13,13,6,6,3,7,6,6,13,6,13,6,3,3,7,7,15,6,14,3,3,6,6,3,6,6,3,3,6,6,6,6,3,6,13,6,13,13,6,3,6,7,13,6,6,6,13,3,6,3,3,13,3,3,3,13,3,6,6,3,3,6,3,13,6,6,6,7,3,6,6,3,13,7,3,3,3,3,13,6,6,13,7,3,13,6,6,6,6,13,7,7,6,13,6,13,13,6,3,7,6,7,14,6,3,6,6,13,7,7,6,13,7,6,13,3,6,3,3,3,3,13,3,6,6,6,3,6,3,6,7,3,6,13,6,6,6,3,3,13,13,3,3,6,6,6,7,6,6,6,13,3,6,3,3,13,6,3,3,3,6,3,13,3,14,3,3,13,6,6,13,3,6,7,6,6,6,13,3,3,13,3,13,6,3,3,13,3,6,3,6,6,3,7,3,13,3,14,13,6,14,13,3,6,3,6,6,6,13,3,6,6,6,6,3,13,6,3,6,13,3,3,6,6,7,13,6,6,7,6,13,6,7,6,6,13,3,3,13,13,6,3,6,6,13,13,6,13,13,6,6,3,6,6,3,3,6,13,6,13,6,3,3,3,3,6,6,6,3,13,13,6,6,7,7,6,6,13,3,3,7,13,6,3,3,13,7,3,6,3,3,3,7,6,6,6,3,6,3,6,13,6,6,6,13,7,3,6,3,13,6,3,13,3,6,3,6,6,6,7,13,6,6,3,13,13,13,6,13,6,6,6,6,3,13,13,6,7,3,6,7,3,6,7,6,13,6,3,6,6,3,7,3,7,13,6,6,6,6,13,6,7];
cum_tuples2 = [0,6,19,22,28,31,37,40,46,52,58,71,74,80,93,99,105,111,117,130,133,136,139,145,152,158,165,172,178,184,190,203,209,215,221,227,230,233,239,242,245,259,262,275,288,294,300,306,309,322,325,328,334,347,353,359,372,375,381,388,394,400,403,416,422,435,442,455,461,467,473,486,489,492,498,501,507,513,527,533,546,549,555,568,571,574,577,590,596,609,612,615,621,634,647,653,659,662,668,671,684,697,711,724,730,736,749,762,765,768,774,777,783,796,809,815,821,827,834,841,854,860,863,869,882,885,891,898,904,907,913,919,932,935,938,944,947,953,959,972,975,982,985,988,994,1001,1007,1020,1023,1026,1039,1045,1051,1054,1060,1066,1079,1082,1095,1098,1104,1110,1113,1116,1122,1128,1131,1137,1143,1156,1163,1176,1179,1182,1195,1198,1201,1204,1210,1213,1216,1223,1229,1236,1242,1245,1259,1262,1265,1268,1271,1278,1281,1287,1293,1299,1305,1311,1317,1320,1327,1333,1346,1349,1352,1365,1371,1377,1390,1403,1409,1412,1418,1424,1430,1433,1436,1449,1456,1471,1477,1490,1503,1506,1509,1512,1525,1532,1545,1551,1564,1567,1570,1584,1590,1596,1602,1608,1614,1620,1623,1629,1635,1648,1651,1654,1657,1663,1670,1673,1680,1686,1692,1705,1718,1724,1730,1736,1742,1748,1761,1767,1773,1776,1779,1786,1792,1798,1804,1817,1823,1826,1832,1845,1851,1854,1857,1863,1869,1875,1888,1895,1898,1904,1907,1910,1917,1930,1943,1946,1959,1972,1978,1984,1987,1993,1996,2002,2008,2014,2017,2020,2023,2026,2029,2042,2048,2054,2061,2064,2070,2076,2083,2086,2089,2095,2108,2111,2118,2121,2127,2134,2137,2150,2163,2166,2172,2185,2191,2204,2217,2231,2244,2247,2250,2263,2266,2269,2275,2288,2291,2297,2303,2309,2312,2315,2321,2327,2330,2337,2350,2363,2366,2379,2392,2398,2404,2410,2416,2422,2425,2428,2431,2444,2447,2453,2456,2469,2475,2481,2496,2509,2523,2529,2535,2538,2551,2557,2560,2566,2580,2593,2596,2602,2608,2614,2620,2626,2629,2642,2645,2658,2661,2674,2680,2686,2692,2698,2704,2710,2723,2726,2733,2736,2739,2752,2766,2779,2782,2788,2794,2800,2806,2819,2822,2828,2834,2840,2846,2859,2872,2885,2891,2897,2900,2906,2909,2915,2928,2931,2944,2947,2953,2956,2969,2982,2988,2991,2997,3010,3016,3022,3028,3034,3040,3053,3060,3063,3069,3082,3085,3088,3091,3098,3104,3110,3116,3129,3132,3135,3138,3151,3154,3157,3171,3174,3180,3183,3186,3192,3206,3219,3225,3238,3244,3247,3250,3257,3263,3270,3273,3280,3294,3300,3313,3319,3332,3335,3341,3344,3347,3360,3363,3369,3372,3378,3384,3387,3393,3400,3413,3426,3433,3446,3452,3465,3471,3474,3481,3487,3500,3506,3520,3523,3529,3535,3549,3552,3558,3571,3574,3580,3586,3599,3612,3618,3624,3637,3640,3646,3649,3655,3661,3664,3667,3673,3686,3692,3699,3706,3709,3712,3715,3721,3724,3731,3744,3750,3753,3756,3762,3765,3771,3777,3783,3786,3792,3805,3808,3814,3817,3830,3836,3842,3855,3861,3867,3873,3879,3886,3889,3895,3901,3907,3910,3916,3919,3925,3931,3944,3950,3953,3959,3962,3965,3978,3984,3987,3993,3999,4002,4008,4011,4024,4027,4040,4043,4046,4052,4058,4061,4064,4077,4083,4089,4095,4098,4104,4107,4113,4119,4122,4125,4131,4138,4151,4154,4161,4167,4170,4173,4176,4179,4186,4192,4195,4208,4211,4218,4221,4227,4230,4233,4236,4242,4245,4259,4265,4271,4284,4287,4290,4296,4309,4322,4325,4332,4338,4341,4347,4354,4360,4366,4372,4385,4398,4404,4417,4424,4430,4436,4439,4442,4449,4464,4470,4483,4489,4492,4495,4501,4508,4514,4520,4526,4539,4542,4548,4551,4564,4578,4584,4590,4603,4610,4623,4629,4632,4638,4651,4657,4660,4663,4676,4683,4696,4699,4712,4718,4721,4727,4740,4743,4746,4753,4766,4769,4775,4778,4781,4787,4793,4796,4799,4805,4811,4814,4821,4824,4830,4836,4843,4856,4869,4875,4878,4884,4890,4897,4903,4906,4919,4922,4928,4934,4940,4943,4946,4953,4956,4969,4972,4978,4981,4988,4991,4997,5010,5013,5016,5022,5035,5038,5051,5054,5060,5073,5076,5082,5088,5101,5108,5114,5117,5123,5126,5132,5138,5144,5157,5164,5170,5183,5197,5210,5216,5219,5222,5229,5235,5241,5247,5253,5260,5266,5279,5285,5298,5304,5311,5314,5317,5320,5326,5341,5354,5367,5373,5379,5385,5398,5401,5404,5407,5410,5413,5420,5427,5430,5436,5439,5446,5459,5465,5478,5485,5488,5491,5504,5510,5513,5516,5523,5536,5539,5545,5551,5554,5560,5566,5579,5582,5588,5594,5597,5600,5613,5616,5619,5625,5628,5631,5637,5643,5646,5652,5658,5661,5667,5673,5679,5692,5698,5704,5710,5713,5719,5722,5725,5728,5734,5740,5746,5759,5765,5771,5784,5797,5803,5816,5829,5832,5845,5851,5854,5857,5870,5876,5879,5892,5895,5902,5915,5928,5931,5944,5950,5953,5956,5963,5970,5976,5982,5988,5995,6001,6007,6020,6023,6026,6029,6035,6041,6054,6060,6063,6069,6072,6075,6081,6087,6090,6103,6109,6112,6119,6132,6145,6151,6154,6167,6180,6187,6190,6203,6209,6215,6221,6227,6240,6243,6249,6255,6261,6264,6267,6273,6276,6282,6288,6301,6314,6320,6323,6326,6329,6332,6345,6358,6364,6377,6380,6386,6389,6395,6408,6414,6420,6433,6436,6442,6455,6458,6471,6474,6477,6484,6491,6497,6503,6516,6519,6525,6528,6534,6537,6551,6554,6567,6580,6583,6589,6595,6608,6614,6617,6623,6629,6642,6648,6661,6664,6677,6684,6687,6700,6706,6720,6723,6736,6739,6742,6748,6761,6764,6767,6773,6776,6783,6786,6793,6806,6812,6815,6829,6844,6847,6860,6874,6880,6883,6889,6892,6895,6908,6914,6927,6930,6933,6939,6945,6951,6957,6963,6966,6972,6978,6981,6987,7000,7003,7016,7022,7025,7028,7034,7040,7043,7049,7052,7055,7058,7071,7074,7080,7093,7106,7109,7112,7118,7132,7135,7142,7148,7151,7157,7160,7163,7166,7169,7172,7175,7181,7187,7190,7196,7209,7222,7235,7238,7251,7264,7267,7270,7283,7296,7302,7305,7311,7314,7317,7320,7327,7334,7348,7361,7367,7373,7376,7382,7385,7391,7397,7410,7416,7422,7428,7434,7437,7450,7463,7466,7472,7478,7484,7497,7510,7516,7522,7525,7532,7538,7544,7557,7563,7576,7582,7585,7588,7595,7602,7617,7623,7637,7640,7643,7649,7655,7658,7664,7670,7673,7676,7682,7688,7694,7700,7703,7709,7722,7728,7741,7754,7760,7763,7769,7776,7789,7795,7801,7807,7820,7823,7829,7832,7835,7848,7851,7854,7857,7870,7873,7879,7885,7888,7891,7897,7900,7913,7919,7925,7931,7938,7941,7947,7953,7956,7969,7976,7979,7982,7985,7988,8001,8007,8013,8026,8033,8036,8049,8055,8061,8067,8073,8086,8093,8100,8106,8119,8125,8138,8151,8157,8160,8167,8173,8180,8194,8200,8203,8209,8215,8228,8235,8242,8248,8261,8268,8274,8287,8290,8296,8299,8302,8305,8308,8321,8324,8330,8336,8342,8345,8351,8354,8360,8367,8370,8376,8389,8395,8401,8407,8410,8413,8426,8439,8442,8445,8451,8457,8463,8470,8476,8482,8488,8501,8504,8510,8513,8516,8529,8535,8538,8541,8544,8550,8553,8566,8569,8583,8586,8589,8602,8608,8614,8627,8630,8636,8643,8649,8655,8661,8674,8677,8680,8693,8696,8709,8715,8718,8721,8734,8737,8743,8746,8752,8758,8761,8768,8771,8784,8787,8801,8814,8820,8834,8847,8850,8856,8859,8865,8871,8877,8890,8893,8899,8905,8911,8917,8920,8933,8939,8942,8948,8961,8964,8967,8973,8979,8986,8999,9005,9011,9018,9024,9037,9043,9050,9056,9062,9075,9078,9081,9094,9107,9113,9116,9122,9128,9141,9154,9160,9173,9186,9192,9198,9201,9207,9213,9216,9219,9225,9238,9244,9257,9263,9266,9269,9272,9275,9281,9287,9293,9296,9309,9322,9328,9334,9341,9348,9354,9360,9373,9376,9379,9386,9399,9405,9408,9411,9424,9431,9434,9440,9443,9446,9449,9456,9462,9468,9474,9477,9483,9486,9492,9505,9511,9517,9523,9536,9543,9546,9552,9555,9568,9574,9577,9590,9593,9599,9602,9608,9614,9620,9627,9640,9646,9652,9655,9668,9681,9694,9700,9713,9719,9725,9731,9737,9740,9753,9766,9772,9779,9782,9788,9795,9798,9804,9811,9817,9830,9836,9839,9845,9851,9854,9861,9864,9871,9884,9890,9896,9902,9908,9921,9927];
constraints2 = [0,0,0,1,0,2,0,3,13,0,13,2,0,0,0,1,0,2,0,3,1,0,1,2,1,3,2,0,2,1,2,3,3,0,3,1,3,2,0,0,0,13,13,0,0,0,0,1,0,2,0,3,13,0,13,2,0,0,0,13,13,0,0,0,0,1,0,2,0,3,13,0,13,2,0,0,0,13,13,0,0,0,0,1,0,2,0,3,13,0,13,2,0,0,0,13,1,0,2,0,2,13,3,0,0,0,0,13,1,0,2,0,2,13,3,0,0,0,0,1,0,2,0,3,1,0,1,2,1,3,2,0,2,1,2,3,3,0,3,1,3,2,0,0,0,13,13,0,0,0,0,1,0,2,0,3,13,0,13,2,0,0,0,1,0,2,0,3,1,0,1,2,1,3,2,0,2,1,2,3,3,0,3,1,3,2,0,0,0,13,1,0,2,0,2,13,3,0,0,0,0,1,0,2,0,3,13,0,13,2,0,0,0,13,1,0,2,0,2,13,3,0,0,0,0,1,0,2,0,3,13,0,13,2,0,0,0,1,0,2,0,3,1,0,1,2,1,3,2,0,2,1,2,3,3,0,3,1,3,2,0,0,0,13,13,0,0,0,0,13,13,0,0,0,0,13,13,0,0,0,0,1,0,2,0,3,13,0,13,2,0,0,0,13,1,0,1,13,2,0,3,0,3,13,0,0,0,13,1,0,2,0,2,13,3,0,0,0,0,1,0,2,0,3,13,0,13,1,13,3,0,0,0,2,1,0,1,2,2,0,3,0,3,2,0,0,0,1,0,2,0,3,13,0,13,2,0,0,0,13,1,0,2,0,2,13,3,0,0,0,0,1,0,2,0,3,13,0,13,2,0,0,0,1,0,2,0,3,1,0,1,2,1,3,2,0,2,1,2,3,3,0,3,1,3,2,0,0,0,1,0,2,0,3,13,0,13,2,0,0,0,13,1,0,2,0,2,13,3,0,0,0,0,1,0,2,0,3,13,0,13,2,0,0,0,1,0,2,0,3,13,0,13,2,0,0,0,13,13,0,0,0,0,13,13,0,0,0,0,13,1,0,2,0,2,13,3,0,0,0,0,13,13,0,0,0,0,13,13,0,0,0,0,1,0,2,0,3,1,0,1,1,1,3,2,0,2,1,2,2,3,0,3,1,3,2,3,3,0,0,0,13,13,0,0,0,0,1,0,2,0,3,1,0,1,2,1,3,2,0,2,1,2,3,3,0,3,1,3,2,0,0,0,1,0,2,0,3,1,0,1,2,1,3,2,0,2,1,2,3,3,0,3,1,3,2,0,0,0,1,0,2,0,3,13,0,13,2,0,0,0,1,0,2,0,3,13,0,13,2,0,0,0,13,1,0,2,0,2,13,3,0,0,0,0,13,13,0,0,0,0,1,0,2,0,3,1,0,1,2,1,3,2,0,2,1,2,3,3,0,3,1,3,2,0,0,0,2,2,0,0,0,0,13,13,0,0,0,0,1,0,2,0,3,13,0,13,2,0,0,0,1,0,2,0,3,1,0,1,2,1,3,2,0,2,1,2,3,3,0,3,1,3,2,0,0,0,13,1,0,2,0,2,13,3,0,0,0,0,1,0,2,0,3,13,0,13,2,0,0,0,1,0,2,0,3,1,0,1,2,1,3,2,0,2,1,2,3,3,0,3,1,3,2,0,0,0,13,13,0,0,0,0,1,0,2,0,3,13,0,13,2,0,0,0,13,1,0,1,13,2,0,3,0,3,13,0,0,0,1,0,2,0,3,13,0,13,2,0,0,0,1,0,2,0,3,13,0,13,2,0,0,0,13,13,0,0,0,0,1,0,2,0,3,1,0,1,2,1,3,2,0,2,1,2,3,3,0,3,1,3,2,0,0,0,1,0,2,0,3,13,0,13,2,0,0,0,1,0,2,0,3,1,0,1,2,1,3,2,0,2,1,2,3,3,0,3,1,3,2,0,0,0,1,0,2,0,3,13,0,13,1,13,3,0,0,0,1,0,2,0,3,1,0,1,2,1,3,2,0,2,1,2,3,3,0,3,1,3,2,0,0,0,1,0,2,0,3,13,0,13,2,0,0,0,1,0,2,0,3,13,0,13,2,0,0,0,1,0,2,0,3,13,0,13,2,0,0,0,1,0,2,0,3,1,0,1,2,1,3,2,0,2,1,2,3,3,0,3,1,3,2,0,0,0,13,13,0,0,0,0,13,13,0,0,0,0,1,0,2,0,3,13,0,13,2,0,0,0,13,13,0,0,0,0,1,0,2,0,3,13,0,13,2,0,0,0,13,1,0,2,0,2,13,3,0,0,0,0,1,0,2,0,3,1,0,1,1,1,2,1,3,2,0,2,2,2,3,3,0,3,1,3,3,0,0,0,13,1,0,2,0,2,13,3,0,0,0,0,1,0,2,0,3,1,0,1,2,1,3,2,0,2,1,2,3,3,0,3,1,3,2,0,0,0,13,13,0,0,0,0,1,0,2,0,3,13,0,13,2,0,0,0,1,0,2,0,3,1,0,1,2,1,3,2,0,2,1,2,3,3,0,3,1,3,2,0,0,0,13,13,0,0,0,0,13,13,0,0,0,0,13,13,0,0,0,0,1,0,2,0,3,1,0,1,2,1,3,2,0,2,1,2,3,3,0,3,1,3,2,0,0,0,1,0,2,0,3,13,0,13,2,0,0,0,1,0,2,0,3,1,0,1,2,1,3,2,0,2,1,2,3,3,0,3,1,3,2,0,0,0,13,13,0,0,0,0,13,13,0,0,0,0,1,0,2,0,3,13,0,13,2,0,0,0,1,0,2,0,3,1,0,1,2,1,3,2,0,2,1,2,3,3,0,3,1,3,2,0,0,0,1,0,2,0,3,1,0,1,2,1,3,2,0,2,1,2,3,3,0,3,1,3,2,0,0,0,1,0,2,0,3,13,0,13,2,0,0,0,1,0,2,0,3,13,0,13,2,0,0,0,13,13,0,0,0,0,1,0,2,0,3,13,0,13,2,0,0,0,2,2,0,0,0,0,1,0,2,0,3,1,0,1,2,1,3,2,0,2,1,2,3,3,0,3,1,3,2,0,0,0,1,0,2,0,3,1,0,1,2,1,3,2,0,2,1,2,3,3,0,3,1,3,2,0,0,0,1,0,2,0,3,1,0,1,1,1,2,1,3,2,0,2,2,2,3,3,0,3,1,3,3,0,0,0,1,0,2,0,3,1,0,1,2,1,3,2,0,2,1,2,3,3,0,3,1,3,2,0,0,0,1,0,2,0,3,13,0,13,2,0,0,0,1,0,2,0,3,13,0,13,2,0,0,0,1,0,2,0,3,1,0,1,2,1,3,2,0,2,1,2,3,3,0,3,1,3,2,0,0,0,1,0,2,0,3,1,0,1,2,1,3,2,0,2,1,2,3,3,0,3,1,3,2,0,0,0,2,2,0,0,0,0,13,13,0,0,0,0,13,1,0,2,0,2,13,3,0,0,0,0,13,13,0,0,0,0,1,0,2,0,3,13,0,13,2,0,0,0,1,0,2,0,3,1,0,1,2,1,3,2,0,2,1,2,3,3,0,3,1,3,2,0,0,0,1,0,2,0,3,1,0,1,2,1,3,2,0,2,1,2,3,3,0,3,1,3,2,0,0,0,13,1,0,2,0,2,13,3,0,0,0,0,13,1,0,2,0,2,13,3,0,0,0,0,1,0,2,0,3,13,0,13,2,0,0,0,1,0,2,0,3,2,0,2,1,2,3,0,0,0,1,0,2,0,3,13,0,13,1,13,3,0,0,0,1,0,2,0,3,1,0,1,2,1,3,2,0,2,1,2,3,3,0,3,1,3,2,0,0,0,1,0,2,0,3,13,0,13,2,0,0,0,13,13,0,0,0,0,1,0,2,0,3,13,0,13,2,0,0,0,1,0,2,0,3,1,0,1,2,1,3,2,0,2,1,2,3,3,0,3,1,3,2,0,0,0,13,13,0,0,0,0,1,0,2,0,3,13,0,13,2,0,0,0,13,1,0,1,13,2,0,2,13,3,0,0,0,0,13,1,0,2,0,2,13,3,0,0,0,0,2,2,0,0,0,0,1,0,2,0,3,13,0,13,2,0,0,0,1,0,2,0,3,13,0,13,2,0,0,0,1,0,2,0,3,1,0,1,2,1,3,2,0,2,1,2,3,3,0,3,1,3,2,0,0,0,13,13,0,0,0,0,13,13,0,0,0,0,1,0,2,0,3,13,0,13,2,0,0,0,13,13,0,0,0,0,1,0,2,0,3,13,0,13,2,0,0,0,1,0,2,0,3,13,0,13,2,0,0,0,1,0,2,0,3,1,0,1,2,1,3,2,0,2,1,2,3,3,0,3,1,3,2,0,0,0,13,13,0,0,0,0,13,1,0,1,13,2,0,3,0,3,13,0,0,0,13,13,0,0,0,0,13,13,0,0,0,0,1,0,2,0,3,13,0,13,2,0,0,0,13,1,0,1,13,2,0,2,13,3,0,0,0,0,1,0,2,0,3,13,0,13,2,0,0,0,1,0,2,0,3,1,0,1,2,1,3,2,0,2,1,2,3,3,0,3,1,3,2,0,0,0,2,2,0,0,0,0,13,13,0,0,0,0,1,0,2,0,3,1,0,1,2,1,3,2,0,2,1,2,3,3,0,3,1,3,2,0,0,0,1,0,2,0,3,13,0,13,2,0,0,0,1,0,2,0,3,13,0,13,2,0,0,0,13,13,0,0,0,0,1,0,2,0,3,13,0,13,2,0,0,0,1,0,2,0,3,13,0,13,2,0,0,0,1,0,2,0,3,1,0,1,2,1,3,2,0,2,1,2,3,3,0,3,1,3,2,0,0,0,13,13,0,0,0,0,1,0,2,0,3,1,0,1,2,1,3,2,0,2,1,2,3,3,0,3,1,3,2,0,0,0,13,13,0,0,0,0,1,0,2,0,3,13,0,13,2,0,0,0,1,0,2,0,3,13,0,13,2,0,0,0,13,13,0,0,0,0,13,13,0,0,0,0,1,0,2,0,3,13,0,13,2,0,0,0,13,1,0,2,0,2,13,3,0,0,0,0,2,2,0,0,0,0,1,0,2,0,3,13,0,13,2,0,0,0,1,0,2,0,3,13,0,13,2,0,0,0,1,0,2,0,3,1,0,1,2,1,3,2,0,2,1,2,3,3,0,3,1,3,2,0,0,0,13,1,0,1,13,2,0,2,13,3,0,0,0,0,1,0,2,0,3,1,0,1,2,1,3,2,0,2,1,2,3,3,0,3,1,3,2,0,0,0,13,13,0,0,0,0,13,13,0,0,0,0,1,0,2,0,3,1,0,1,2,1,3,2,0,2,1,2,3,3,0,3,1,3,2,0,0,0,2,2,0,0,0,0,13,13,0,0,0,0,13,13,0,0,0,0,1,0,2,0,3,13,0,13,2,0,0,0,13,13,0,0,0,0,13,13,0,0,0,0,1,0,2,0,3,13,0,13,2,13,3,0,0,0,1,0,2,0,3,13,0,13,2,0,0,0,13,1,0,1,13,2,0,2,13,3,0,0,0,0,13,1,0,2,0,2,13,3,0,0,0,0,13,13,0,0,0,0,1,0,2,0,3,1,0,1,1,1,2,1,3,2,0,2,2,2,3,3,0,3,1,3,3,0,0,0,13,13,0,0,0,0,13,13,0,0,0,0,13,13,0,0,0,0,13,13,0,0,0,0,1,0,2,0,3,2,0,2,1,2,3,0,0,0,13,13,0,0,0,0,1,0,2,0,3,13,0,13,2,0,0,0,13,1,0,2,0,2,13,3,0,0,0,0,1,0,2,0,3,13,0,13,2,0,0,0,1,0,2,0,3,13,0,13,2,0,0,0,1,0,2,0,3,13,0,13,2,0,0,0,13,1,0,2,0,2,13,3,0,0,0,0,13,13,0,0,0,0,1,0,2,0,3,13,0,13,1,13,3,0,0,0,1,0,2,0,3,13,0,13,2,0,0,0,1,0,2,0,3,1,0,1,2,1,3,2,0,2,1,2,3,3,0,3,1,3,2,0,0,0,13,13,0,0,0,0,13,13,0,0,0,0,1,0,2,0,3,1,0,1,2,1,3,2,0,2,1,2,3,3,0,3,1,3,2,0,0,0,1,0,2,0,3,13,0,13,2,0,0,0,1,0,2,0,3,13,0,13,2,0,0,0,1,0,2,0,3,1,0,1,2,1,3,2,0,2,1,2,3,3,0,3,1,3,2,0,0,0,1,0,2,0,3,1,0,1,2,1,3,2,0,2,1,2,3,3,0,3,1,3,2,0,0,0,1,0,2,0,3,13,0,13,2,0,0,0,13,13,0,0,0,0,13,1,0,2,0,2,13,3,0,0,0,0,1,0,2,0,3,13,0,13,2,0,0,0,13,1,0,2,0,2,13,3,0,0,0,0,13,13,0,0,0,0,13,13,0,0,0,0,1,0,2,0,3,1,0,1,2,1,3,2,0,2,1,2,3,3,0,3,1,3,2,0,0,0,2,1,0,1,2,2,0,3,0,3,2,0,0,0,1,0,2,0,3,1,0,1,1,1,2,1,3,2,0,2,1,2,2,2,3,3,0,3,2,3,3,0,0,0,1,0,2,0,3,13,0,13,2,0,0,0,1,0,2,0,3,1,0,1,2,1,3,2,0,2,1,2,3,3,0,3,1,3,2,0,0,0,1,0,2,0,3,1,0,1,2,1,3,2,0,2,1,2,3,3,0,3,1,3,2,0,0,0,13,13,0,0,0,0,13,13,0,0,0,0,13,13,0,0,0,0,1,0,2,0,3,1,0,1,2,1,3,2,0,2,1,2,3,3,0,3,1,3,2,0,0,0,2,1,0,1,2,2,0,3,0,3,2,0,0,0,1,0,2,0,3,1,0,1,2,1,3,2,0,2,1,2,3,3,0,3,1,3,2,0,0,0,1,0,2,0,3,13,0,13,2,0,0,0,1,0,2,0,3,1,0,1,2,1,3,2,0,2,1,2,3,3,0,3,1,3,2,0,0,0,13,13,0,0,0,0,13,13,0,0,0,0,1,0,2,0,3,1,0,1,1,1,2,1,3,2,0,2,2,2,3,3,0,3,1,3,3,0,0,0,1,0,2,0,3,13,0,13,2,0,0,0,1,0,2,0,3,13,0,13,2,0,0,0,1,0,2,0,3,13,0,13,2,0,0,0,1,0,2,0,3,13,0,13,2,0,0,0,1,0,2,0,3,13,0,13,2,0,0,0,1,0,2,0,3,13,0,13,2,0,0,0,13,13,0,0,0,0,13,1,0,2,0,2,13,3,0,0,0,0,13,1,0,2,0,2,13,3,0,0,0,0,1,0,2,0,3,1,0,1,2,1,3,2,0,2,1,2,3,3,0,3,1,3,2,0,0,0,13,13,0,0,0,0,13,13,0,0,0,0,13,13,0,0,0,0,1,0,2,0,3,13,0,13,2,0,0,0,1,0,2,0,3,2,0,2,1,2,3,0,0,0,2,2,0,0,0,0,1,0,2,0,3,13,0,13,1,13,3,0,0,0,1,0,2,0,3,13,0,13,2,0,0,0,1,0,2,0,3,13,0,13,2,0,0,0,1,0,2,0,3,1,0,1,2,1,3,2,0,2,1,2,3,3,0,3,1,3,2,0,0,0,1,0,2,0,3,1,0,1,2,1,3,2,0,2,1,2,3,3,0,3,1,3,2,0,0,0,1,0,2,0,3,13,0,13,2,0,0,0,1,0,2,0,3,13,0,13,2,0,0,0,13,1,0,2,0,2,13,3,0,0,0,0,1,0,2,0,3,13,0,13,2,0,0,0,1,0,2,0,3,13,0,13,2,0,0,0,1,0,2,0,3,1,0,1,2,1,3,2,0,2,1,2,3,3,0,3,1,3,2,0,0,0,1,0,2,0,3,13,0,13,2,0,0,0,1,0,2,0,3,13,0,13,2,0,0,0,13,13,0,0,0,0,13,13,0,0,0,0,2,1,0,1,2,2,0,3,0,3,2,0,0,0,1,0,2,0,3,13,0,13,2,0,0,0,13,1,0,2,0,2,13,3,0,0,0,0,1,0,2,0,3,13,0,13,2,0,0,0,1,0,2,0,3,1,0,1,2,1,3,2,0,2,1,2,3,3,0,3,1,3,2,0,0,0,1,0,2,0,3,13,0,13,2,0,0,0,13,13,0,0,0,0,1,0,2,0,3,13,0,13,2,0,0,0,1,0,2,0,3,1,0,1,2,1,3,2,0,2,1,2,3,3,0,3,1,3,2,0,0,0,1,0,2,0,3,13,0,13,2,0,0,0,13,13,0,0,0,0,13,13,0,0,0,0,1,0,2,0,3,13,0,13,2,0,0,0,1,0,2,0,3,13,0,13,2,0,0,0,1,0,2,0,3,13,0,13,2,0,0,0,1,0,2,0,3,1,0,1,2,1,3,2,0,2,1,2,3,3,0,3,1,3,2,0,0,0,1,0,2,0,3,13,0,13,1,13,3,0,0,0,13,13,0,0,0,0,1,0,2,0,3,13,0,13,2,0,0,0,13,13,0,0,0,0,13,13,0,0,0,0,13,1,0,1,13,2,0,3,0,3,13,0,0,0,1,0,2,0,3,1,0,1,2,1,3,2,0,2,1,2,3,3,0,3,1,3,2,0,0,0,1,0,2,0,3,1,0,1,2,1,3,2,0,2,1,2,3,3,0,3,1,3,2,0,0,0,2,2,0,0,0,0,1,0,2,0,3,1,0,1,2,1,3,2,0,2,1,2,3,3,0,3,1,3,2,0,0,0,1,0,2,0,3,1,0,1,2,1,3,2,0,2,1,2,3,3,0,3,1,3,2,0,0,0,1,0,2,0,3,13,0,13,2,0,0,0,13,1,0,2,0,2,13,3,0,0,0,0,13,13,0,0,0,0,1,0,2,0,3,13,0,13,2,0,0,0,13,13,0,0,0,0,1,0,2,0,3,13,0,13,2,0,0,0,1,0,2,0,3,13,0,13,2,0,0,0,13,1,0,2,0,2,13,3,0,0,0,0,13,13,0,0,0,0,13,13,0,0,0,0,13,13,0,0,0,0,13,13,0,0,0,0,13,13,0,0,0,0,1,0,2,0,3,1,0,1,2,1,3,2,0,2,1,2,3,3,0,3,1,3,2,0,0,0,1,0,2,0,3,13,0,13,2,0,0,0,1,0,2,0,3,13,0,13,2,0,0,0,1,0,2,0,3,2,0,2,1,2,3,0,0,0,13,13,0,0,0,0,1,0,2,0,3,13,0,13,2,0,0,0,13,1,0,2,0,2,13,3,0,0,0,0,1,0,2,0,3,2,0,2,1,2,3,0,0,0,13,13,0,0,0,0,13,13,0,0,0,0,1,0,2,0,3,13,0,13,2,0,0,0,1,0,2,0,3,1,0,1,2,1,3,2,0,2,1,2,3,3,0,3,1,3,2,0,0,0,13,13,0,0,0,0,1,0,2,0,3,13,0,13,1,13,3,0,0,0,13,13,0,0,0,0,1,0,2,0,3,13,0,13,2,0,0,0,2,1,0,1,2,2,0,3,0,3,2,0,0,0,2,2,0,0,0,0,1,0,2,0,3,1,0,1,2,1,3,2,0,2,1,2,3,3,0,3,1,3,2,0,0,0,1,0,2,0,3,1,0,1,2,1,3,2,0,2,1,2,3,3,0,3,1,3,2,0,0,0,2,2,0,0,0,0,1,0,2,0,3,13,0,13,2,0,0,0,1,0,2,0,3,1,0,1,2,1,3,2,0,2,1,2,3,3,0,3,1,3,2,0,0,0,1,0,2,0,3,13,0,13,2,0,0,0,1,0,2,0,3,1,0,1,2,1,3,2,0,2,1,2,3,3,0,3,1,3,2,0,0,0,1,0,2,0,3,1,0,1,2,1,3,2,0,2,1,2,3,3,0,3,1,3,2,0,0,0,1,0,2,0,3,1,0,1,1,1,2,1,3,2,0,2,2,2,3,3,0,3,1,3,3,0,0,0,1,0,2,0,3,1,0,1,2,1,3,2,0,2,1,2,3,3,0,3,1,3,2,0,0,0,13,13,0,0,0,0,13,13,0,0,0,0,1,0,2,0,3,1,0,1,2,1,3,2,0,2,1,2,3,3,0,3,1,3,2,0,0,0,13,13,0,0,0,0,2,2,0,0,0,0,1,0,2,0,3,13,0,13,2,0,0,0,1,0,2,0,3,1,0,1,2,1,3,2,0,2,1,2,3,3,0,3,1,3,2,0,0,0,13,13,0,0,0,0,1,0,2,0,3,13,0,13,2,0,0,0,1,0,2,0,3,13,0,13,2,0,0,0,1,0,2,0,3,13,0,13,2,0,0,0,13,13,0,0,0,0,13,13,0,0,0,0,13,1,0,2,0,2,13,3,0,0,0,0,13,1,0,2,0,2,13,3,0,0,0,0,13,13,0,0,0,0,1,0,2,0,3,13,0,13,1,13,3,0,0,0,1,0,2,0,3,1,0,1,2,1,3,2,0,2,1,2,3,3,0,3,1,3,2,0,0,0,1,0,2,0,3,1,0,1,2,1,3,2,0,2,1,2,3,3,0,3,1,3,2,0,0,0,13,13,0,0,0,0,1,0,2,0,3,1,0,1,2,1,3,2,0,2,1,2,3,3,0,3,1,3,2,0,0,0,1,0,2,0,3,1,0,1,2,1,3,2,0,2,1,2,3,3,0,3,1,3,2,0,0,0,1,0,2,0,3,13,0,13,2,0,0,0,13,1,0,2,0,2,13,3,0,0,0,0,13,1,0,2,0,2,13,3,0,0,0,0,13,1,0,2,0,2,13,3,0,0,0,0,1,0,2,0,3,13,0,13,2,0,0,0,13,13,0,0,0,0,13,13,0,0,0,0,13,13,0,0,0,0,1,0,2,0,3,1,0,1,2,1,3,2,0,2,1,2,3,3,0,3,1,3,2,0,0,0,13,13,0,0,0,0,13,1,0,2,0,2,13,3,0,0,0,0,13,13,0,0,0,0,1,0,2,0,3,1,0,1,2,1,3,2,0,2,1,2,3,3,0,3,1,3,2,0,0,0,13,1,0,2,0,2,13,3,0,0,0,0,13,1,0,2,0,2,13,3,0,0,0,0,1,0,2,0,3,1,0,1,1,1,2,1,3,2,0,2,1,2,2,2,3,3,0,3,2,3,3,0,0,0,1,0,2,0,3,1,0,1,2,1,3,2,0,2,1,2,3,3,0,3,1,3,2,0,0,0,1,0,2,0,3,1,0,1,1,1,2,1,3,2,0,2,2,2,3,3,0,3,1,3,3,0,0,0,1,0,2,0,3,13,0,13,2,0,0,0,1,0,2,0,3,13,0,13,2,0,0,0,13,13,0,0,0,0,1,0,2,0,3,1,0,1,2,1,3,2,0,2,1,2,3,3,0,3,1,3,2,0,0,0,13,1,0,2,0,2,13,3,0,0,0,0,13,13,0,0,0,0,1,0,2,0,3,13,0,13,2,0,0,0,1,0,2,0,3,1,0,1,1,1,2,1,3,2,0,2,2,2,3,3,0,3,1,3,3,0,0,0,1,0,2,0,3,1,0,1,2,1,3,2,0,2,1,2,3,3,0,3,1,3,2,0,0,0,13,13,0,0,0,0,1,0,2,0,3,13,0,13,2,0,0,0,1,0,2,0,3,13,0,13,2,0,0,0,1,0,2,0,3,13,0,13,2,0,0,0,1,0,2,0,3,13,0,13,2,0,0,0,1,0,2,0,3,13,0,13,2,0,0,0,13,13,0,0,0,0,1,0,2,0,3,1,0,1,2,1,3,2,0,2,1,2,3,3,0,3,1,3,2,0,0,0,13,13,0,0,0,0,1,0,2,0,3,1,0,1,2,1,3,2,0,2,1,2,3,3,0,3,1,3,2,0,0,0,13,13,0,0,0,0,1,0,2,0,3,1,0,1,2,1,3,2,0,2,1,2,3,3,0,3,1,3,2,0,0,0,1,0,2,0,3,13,0,13,2,0,0,0,13,1,0,2,0,2,13,3,0,0,0,0,13,1,0,2,0,2,13,3,0,0,0,0,1,0,2,0,3,13,0,13,2,0,0,0,1,0,2,0,3,13,0,13,2,0,0,0,13,1,0,2,0,2,13,3,0,0,0,0,1,0,2,0,3,1,0,1,2,1,3,2,0,2,1,2,3,3,0,3,1,3,2,0,0,0,13,13,0,0,0,0,1,0,2,0,3,2,0,2,1,2,3,0,0,0,13,13,0,0,0,0,13,13,0,0,0,0,1,0,2,0,3,1,0,1,2,1,3,2,0,2,1,2,3,3,0,3,1,3,2,0,0,0,1,0,2,0,3,1,0,1,1,1,2,1,3,2,0,2,2,2,3,3,0,3,1,3,3,0,0,0,1,0,2,0,3,1,0,1,2,1,3,2,0,2,1,2,3,3,0,3,1,3,2,0,0,0,13,13,0,0,0,0,1,0,2,0,3,13,0,13,2,0,0,0,1,0,2,0,3,13,0,13,2,0,0,0,1,0,2,0,3,13,0,13,2,0,0,0,13,1,0,2,0,2,13,3,0,0,0,0,1,0,2,0,3,1,0,1,2,1,3,2,0,2,1,2,3,3,0,3,1,3,2,0,0,0,13,13,0,0,0,0,13,1,0,2,0,2,13,3,0,0,0,0,13,1,0,2,0,2,13,3,0,0,0,0,1,0,2,0,3,13,0,13,2,0,0,0,1,0,2,0,3,13,0,13,2,0,0,0,1,0,2,0,3,1,0,1,2,1,3,2,0,2,1,2,3,3,0,3,1,3,2,0,0,0,1,0,2,0,3,1,0,1,2,1,3,2,0,2,1,2,3,3,0,3,1,3,2,0,0,0,1,0,2,0,3,1,0,1,2,1,3,2,0,2,1,2,3,3,0,3,1,3,2,0,0,0,13,1,0,2,0,2,13,3,0,0,0,0,13,1,0,2,0,2,13,3,0,0,0,0,13,13,0,0,0,0,13,1,0,2,0,2,13,3,0,0,0,0,13,13,0,0,0,0,1,0,2,0,3,13,0,13,2,0,0,0,1,0,2,0,3,1,0,1,2,1,3,2,0,2,1,2,3,3,0,3,1,3,2,0,0,0,13,13,0,0,0,0,1,0,2,0,3,1,0,1,2,1,3,2,0,2,1,2,3,3,0,3,1,3,2,0,0,0,13,13,0,0,0,0,1,0,2,0,3,13,0,13,2,0,0,0,13,13,0,0,0,0,1,0,2,0,3,1,0,1,2,1,3,2,0,2,1,2,3,3,0,3,1,3,2,0,0,0,1,0,2,0,3,1,0,1,2,1,3,2,0,2,1,2,3,3,0,3,1,3,2,0,0,0,1,0,2,0,3,13,0,13,2,0,0,0,13,13,0,0,0,0,13,1,0,2,0,2,13,3,0,0,0,0,1,0,2,0,3,1,0,1,2,1,3,2,0,2,1,2,3,3,0,3,1,3,2,0,0,0,1,0,2,0,3,13,0,13,2,0,0,0,1,0,2,0,3,13,0,13,2,0,0,0,1,0,2,0,3,13,0,13,2,0,0,0,1,0,2,0,3,13,0,13,2,0,0,0,13,1,0,2,0,2,13,3,0,0,0,0,1,0,2,0,3,1,0,1,2,1,3,2,0,2,1,2,3,3,0,3,1,3,2,0,0,0,2,1,0,1,2,2,0,3,0,3,2,0,0,0,13,13,0,0,0,0,1,0,2,0,3,13,0,13,2,0,0,0,1,0,2,0,3,1,0,1,2,1,3,2,0,2,1,2,3,3,0,3,1,3,2,0,0,0,13,13,0,0,0,0,13,13,0,0,0,0,13,13,0,0,0,0,1,0,2,0,3,2,0,2,1,2,3,0,0,0,1,0,2,0,3,13,0,13,2,0,0,0,1,0,2,0,3,13,0,13,2,0,0,0,1,0,2,0,3,13,0,13,2,0,0,0,1,0,2,0,3,1,0,1,2,1,3,2,0,2,1,2,3,3,0,3,1,3,2,0,0,0,2,2,0,0,0,0,13,13,0,0,0,0,13,13,0,0,0,0,1,0,2,0,3,1,0,1,2,1,3,2,0,2,1,2,3,3,0,3,1,3,2,0,0,0,13,13,0,0,0,0,13,13,0,0,0,0,1,0,2,0,3,1,0,1,1,1,2,1,3,2,0,2,2,2,3,3,0,3,1,3,3,0,0,0,13,13,0,0,0,0,1,0,2,0,3,13,0,13,2,0,0,0,13,13,0,0,0,0,13,13,0,0,0,0,13,1,0,2,0,2,13,3,0,0,0,0,1,0,2,0,3,1,0,1,1,1,2,1,3,2,0,2,2,2,3,3,0,3,1,3,3,0,0,0,1,0,2,0,3,1,0,1,2,1,3,2,0,2,1,2,3,3,0,3,1,3,2,0,0,0,1,0,2,0,3,13,0,13,2,0,0,0,1,0,2,0,3,1,0,1,2,1,3,2,0,2,1,2,3,3,0,3,1,3,2,0,0,0,13,1,0,2,0,2,13,3,0,0,0,0,13,13,0,0,0,0,13,13,0,0,0,0,1,0,2,0,3,2,0,2,1,2,3,0,0,0,13,1,0,2,0,2,13,3,0,0,0,0,2,1,0,1,2,2,0,3,0,3,2,0,0,0,13,13,0,0,0,0,1,0,2,0,3,2,0,2,1,2,3,0,0,0,1,0,2,0,3,1,0,1,1,1,2,1,3,2,0,2,2,2,3,3,0,3,1,3,3,0,0,0,1,0,2,0,3,13,0,13,2,0,0,0,1,0,2,0,3,1,0,1,2,1,3,2,0,2,1,2,3,3,0,3,1,3,2,0,0,0,1,0,2,0,3,13,0,13,2,0,0,0,1,0,2,0,3,1,0,1,2,1,3,2,0,2,1,2,3,3,0,3,1,3,2,0,0,0,2,2,0,0,0,0,1,0,2,0,3,13,0,13,2,0,0,0,13,13,0,0,0,0,13,13,0,0,0,0,1,0,2,0,3,1,0,1,2,1,3,2,0,2,1,2,3,3,0,3,1,3,2,0,0,0,13,13,0,0,0,0,1,0,2,0,3,13,0,13,2,0,0,0,13,13,0,0,0,0,1,0,2,0,3,13,0,13,2,0,0,0,13,1,0,2,0,2,13,3,0,0,0,0,13,13,0,0,0,0,1,0,2,0,3,13,0,13,2,0,0,0,1,0,2,0,3,2,0,2,1,2,3,0,0,0,1,0,2,0,3,1,0,1,2,1,3,2,0,2,1,2,3,3,0,3,1,3,2,0,0,0,1,0,2,0,3,1,0,1,2,1,3,2,0,2,1,2,3,3,0,3,1,3,2,0,0,0,1,0,2,0,3,13,0,13,1,13,3,0,0,0,1,0,2,0,3,1,0,1,2,1,3,2,0,2,1,2,3,3,0,3,1,3,2,0,0,0,1,0,2,0,3,13,0,13,2,0,0,0,1,0,2,0,3,1,0,1,2,1,3,2,0,2,1,2,3,3,0,3,1,3,2,0,0,0,1,0,2,0,3,13,0,13,2,0,0,0,13,13,0,0,0,0,2,1,0,1,2,2,0,3,0,3,2,0,0,0,1,0,2,0,3,13,0,13,2,0,0,0,1,0,2,0,3,1,0,1,2,1,3,2,0,2,1,2,3,3,0,3,1,3,2,0,0,0,13,1,0,2,0,2,13,3,0,0,0,0,1,0,2,0,3,1,0,1,1,1,2,1,3,2,0,2,2,2,3,3,0,3,1,3,3,0,0,0,13,13,0,0,0,0,1,0,2,0,3,13,0,13,2,0,0,0,1,0,2,0,3,13,0,13,2,0,0,0,1,0,2,0,3,1,0,1,1,1,2,1,3,2,0,2,2,2,3,3,0,3,1,3,3,0,0,0,13,13,0,0,0,0,1,0,2,0,3,13,0,13,2,0,0,0,1,0,2,0,3,1,0,1,2,1,3,2,0,2,1,2,3,3,0,3,1,3,2,0,0,0,13,13,0,0,0,0,1,0,2,0,3,13,0,13,2,0,0,0,13,1,0,2,0,2,13,3,0,0,0,0,1,0,2,0,3,1,0,1,2,1,3,2,0,2,1,2,3,3,0,3,1,3,2,0,0,0,1,0,2,0,3,1,0,1,2,1,3,2,0,2,1,2,3,3,0,3,1,3,2,0,0,0,13,1,0,2,0,2,13,3,0,0,0,0,1,0,2,0,3,13,0,13,2,0,0,0,1,0,2,0,3,1,0,1,2,1,3,2,0,2,1,2,3,3,0,3,1,3,2,0,0,0,13,13,0,0,0,0,1,0,2,0,3,13,0,13,2,0,0,0,2,2,0,0,0,0,1,0,2,0,3,13,0,13,2,0,0,0,1,0,2,0,3,13,0,13,2,0,0,0,13,13,0,0,0,0,13,13,0,0,0,0,1,0,2,0,3,13,0,13,2,0,0,0,1,0,2,0,3,1,0,1,2,1,3,2,0,2,1,2,3,3,0,3,1,3,2,0,0,0,13,1,0,2,0,2,13,3,0,0,0,0,1,0,2,0,3,13,0,13,1,13,3,0,0,0,1,0,2,0,3,2,0,2,1,2,3,0,0,0,13,13,0,0,0,0,13,13,0,0,0,0,13,13,0,0,0,0,1,0,2,0,3,13,0,13,2,0,0,0,13,13,0,0,0,0,1,0,2,0,3,13,0,13,1,13,3,0,0,0,1,0,2,0,3,1,0,1,2,1,3,2,0,2,1,2,3,3,0,3,1,3,2,0,0,0,1,0,2,0,3,13,0,13,2,0,0,0,13,13,0,0,0,0,13,13,0,0,0,0,13,1,0,2,0,2,13,3,0,0,0,0,13,13,0,0,0,0,1,0,2,0,3,13,0,13,2,0,0,0,1,0,2,0,3,13,0,13,2,0,0,0,1,0,2,0,3,13,0,13,2,0,0,0,13,13,0,0,0,0,1,0,2,0,3,13,0,13,2,0,0,0,1,0,2,0,3,1,0,1,2,1,3,2,0,2,1,2,3,3,0,3,1,3,2,0,0,0,13,13,0,0,0,0,1,0,2,0,3,13,0,13,2,0,0,0,13,13,0,0,0,0,1,0,2,0,3,1,0,1,2,1,3,2,0,2,1,2,3,3,0,3,1,3,2,0,0,0,1,0,2,0,3,13,0,13,2,0,0,0,1,0,2,0,3,13,0,13,2,0,0,0,1,0,2,0,3,1,0,1,2,1,3,2,0,2,1,2,3,3,0,3,1,3,2,0,0,0,13,1,0,2,0,2,13,3,0,0,0,0,1,0,2,0,3,13,0,13,2,0,0,0,13,1,0,2,0,2,13,3,0,0,0,0,1,0,2,0,3,13,0,13,2,0,0,0,1,0,2,0,3,13,0,13,1,13,3,0,0,0,13,13,0,0,0,0,13,1,0,2,0,2,13,3,0,0,0,0,1,0,2,0,3,13,0,13,2,0,0,0,1,0,2,0,3,13,0,13,2,0,0,0,13,13,0,0,0,0,1,0,2,0,3,13,0,13,2,0,0,0,13,13,0,0,0,0,1,0,2,0,3,13,0,13,2,0,0,0,1,0,2,0,3,13,0,13,2,0,0,0,1,0,2,0,3,1,0,1,2,1,3,2,0,2,1,2,3,3,0,3,1,3,2,0,0,0,1,0,2,0,3,13,0,13,2,0,0,0,13,13,0,0,0,0,1,0,2,0,3,13,0,13,2,0,0,0,2,2,0,0,0,0,13,13,0,0,0,0,1,0,2,0,3,1,0,1,2,1,3,2,0,2,1,2,3,3,0,3,1,3,2,0,0,0,13,1,0,2,0,2,13,3,0,0,0,0,13,13,0,0,0,0,1,0,2,0,3,13,0,13,2,0,0,0,1,0,2,0,3,13,0,13,2,0,0,0,13,13,0,0,0,0,1,0,2,0,3,13,0,13,2,0,0,0,13,13,0,0,0,0,1,0,2,0,3,1,0,1,2,1,3,2,0,2,1,2,3,3,0,3,1,3,2,0,0,0,13,13,0,0,0,0,1,0,2,0,3,1,0,1,2,1,3,2,0,2,1,2,3,3,0,3,1,3,2,0,0,0,13,13,0,0,0,0,13,13,0,0,0,0,1,0,2,0,3,13,0,13,2,0,0,0,1,0,2,0,3,13,0,13,2,0,0,0,13,13,0,0,0,0,2,2,0,0,0,0,1,0,2,0,3,1,0,1,2,1,3,2,0,2,1,2,3,3,0,3,1,3,2,0,0,0,1,0,2,0,3,13,0,13,2,0,0,0,13,1,0,2,0,2,13,3,0,0,0,0,1,0,2,0,3,13,0,13,2,0,0,0,13,13,0,0,0,0,1,0,2,0,3,13,0,13,2,0,0,0,2,2,0,0,0,0,1,0,2,0,3,13,0,13,2,0,0,0,1,0,2,0,3,13,0,13,2,0,0,0,13,13,0,0,0,0,13,13,0,0,0,0,13,1,0,2,0,2,13,3,0,0,0,0,1,0,2,0,3,13,0,13,2,13,3,0,0,0,1,0,2,0,3,1,0,1,2,1,3,2,0,2,1,2,3,3,0,3,1,3,2,0,0,0,13,13,0,0,0,0,1,0,2,0,3,13,0,13,1,13,3,0,0,0,13,1,0,2,0,2,13,3,0,0,0,0,13,13,0,0,0,0,13,13,0,0,0,0,13,13,0,0,0,0,13,13,0,0,0,0,1,0,2,0,3,13,0,13,1,13,3,0,0,0,1,0,2,0,3,13,0,13,2,0,0,0,13,13,0,0,0,0,1,0,2,0,3,1,0,1,2,1,3,2,0,2,1,2,3,3,0,3,1,3,2,0,0,0,13,13,0,0,0,0,1,0,2,0,3,13,0,13,1,13,3,0,0,0,13,13,0,0,0,0,1,0,2,0,3,13,0,13,2,0,0,0,13,13,0,0,0,0,13,13,0,0,0,0,13,13,0,0,0,0,13,1,0,2,0,2,13,3,0,0,0,0,13,13,0,0,0,0,1,0,2,0,3,1,0,1,1,1,2,1,3,2,0,2,2,2,3,3,0,3,1,3,3,0,0,0,1,0,2,0,3,13,0,13,2,0,0,0,1,0,2,0,3,13,0,13,2,0,0,0,1,0,2,0,3,1,0,1,2,1,3,2,0,2,1,2,3,3,0,3,1,3,2,0,0,0,13,13,0,0,0,0,13,13,0,0,0,0,1,0,2,0,3,13,0,13,2,0,0,0,1,0,2,0,3,1,0,1,2,1,3,2,0,2,1,2,3,3,0,3,1,3,2,0,0,0,1,0,2,0,3,1,0,1,2,1,3,2,0,2,1,2,3,3,0,3,1,3,2,0,0,0,13,13,0,0,0,0,1,0,2,0,3,13,0,13,1,13,3,0,0,0,13,1,0,2,0,2,13,3,0,0,0,0,13,13,0,0,0,0,1,0,2,0,3,13,0,13,2,0,0,0,1,0,2,0,3,13,0,13,1,13,3,0,0,0,1,0,2,0,3,13,0,13,2,0,0,0,1,0,2,0,3,13,0,13,2,0,0,0,13,1,0,2,0,2,13,3,0,0,0,0,1,0,2,0,3,1,0,1,2,1,3,2,0,2,1,2,3,3,0,3,1,3,2,0,0,0,1,0,2,0,3,1,0,1,2,1,3,2,0,2,1,2,3,3,0,3,1,3,2,0,0,0,1,0,2,0,3,13,0,13,2,0,0,0,1,0,2,0,3,1,0,1,2,1,3,2,0,2,1,2,3,3,0,3,1,3,2,0,0,0,1,0,2,0,3,13,0,13,1,13,3,0,0,0,1,0,2,0,3,13,0,13,2,0,0,0,1,0,2,0,3,13,0,13,2,0,0,0,13,13,0,0,0,0,13,13,0,0,0,0,2,1,0,1,2,2,0,3,0,3,2,0,0,0,1,0,2,0,3,1,0,1,1,1,2,1,3,2,0,2,1,2,2,2,3,3,0,3,2,3,3,0,0,0,1,0,2,0,3,13,0,13,2,0,0,0,1,0,2,0,3,1,0,1,2,1,3,2,0,2,1,2,3,3,0,3,1,3,2,0,0,0,13,1,0,2,0,2,13,3,0,0,0,0,13,13,0,0,0,0,13,13,0,0,0,0,1,0,2,0,3,13,0,13,2,0,0,0,1,0,2,0,3,13,0,13,1,13,3,0,0,0,1,0,2,0,3,13,0,13,2,0,0,0,1,0,2,0,3,13,0,13,2,0,0,0,1,0,2,0,3,13,0,13,2,0,0,0,1,0,2,0,3,1,0,1,2,1,3,2,0,2,1,2,3,3,0,3,1,3,2,0,0,0,13,13,0,0,0,0,13,1,0,2,0,2,13,3,0,0,0,0,13,13,0,0,0,0,1,0,2,0,3,1,0,1,2,1,3,2,0,2,1,2,3,3,0,3,1,3,2,0,0,0,1,0,2,0,3,1,0,1,1,1,2,1,3,2,0,2,2,2,3,3,0,3,1,3,3,0,0,0,1,0,2,0,3,13,0,13,2,0,0,0,13,1,0,2,0,2,13,3,0,0,0,0,1,0,2,0,3,1,0,1,2,1,3,2,0,2,1,2,3,3,0,3,1,3,2,0,0,0,2,1,0,1,2,2,0,3,0,3,2,0,0,0,1,0,2,0,3,1,0,1,2,1,3,2,0,2,1,2,3,3,0,3,1,3,2,0,0,0,13,1,0,2,0,2,13,3,0,0,0,0,13,13,0,0,0,0,1,0,2,0,3,13,0,13,2,0,0,0,1,0,2,0,3,1,0,1,2,1,3,2,0,2,1,2,3,3,0,3,1,3,2,0,0,0,1,0,2,0,3,13,0,13,2,0,0,0,13,13,0,0,0,0,13,13,0,0,0,0,1,0,2,0,3,1,0,1,2,1,3,2,0,2,1,2,3,3,0,3,1,3,2,0,0,0,1,0,2,0,3,2,0,2,1,2,3,0,0,0,1,0,2,0,3,1,0,1,2,1,3,2,0,2,1,2,3,3,0,3,1,3,2,0,0,0,13,13,0,0,0,0,1,0,2,0,3,1,0,1,2,1,3,2,0,2,1,2,3,3,0,3,1,3,2,0,0,0,1,0,2,0,3,13,0,13,2,0,0,0,13,13,0,0,0,0,1,0,2,0,3,13,0,13,2,0,0,0,1,0,2,0,3,1,0,1,2,1,3,2,0,2,1,2,3,3,0,3,1,3,2,0,0,0,13,13,0,0,0,0,2,2,0,0,0,0,1,0,2,0,3,2,0,2,1,2,3,0,0,0,1,0,2,0,3,1,0,1,2,1,3,2,0,2,1,2,3,3,0,3,1,3,2,0,0,0,13,13,0,0,0,0,1,0,2,0,3,13,0,13,2,0,0,0,13,13,0,0,0,0,13,13,0,0,0,0,1,0,2,0,3,13,0,13,2,0,0,0,1,0,2,0,3,13,0,13,2,0,0,0,13,13,0,0,0,0,13,13,0,0,0,0,1,0,2,0,3,13,0,13,2,0,0,0,1,0,2,0,3,13,0,13,2,0,0,0,13,13,0,0,0,0,1,0,2,0,3,2,0,2,1,2,3,0,0,0,13,13,0,0,0,0,1,0,2,0,3,13,0,13,2,0,0,0,1,0,2,0,3,13,0,13,2,0,0,0,1,0,2,0,3,2,0,2,1,2,3,0,0,0,1,0,2,0,3,1,0,1,2,1,3,2,0,2,1,2,3,3,0,3,1,3,2,0,0,0,1,0,2,0,3,1,0,1,2,1,3,2,0,2,1,2,3,3,0,3,1,3,2,0,0,0,1,0,2,0,3,13,0,13,2,0,0,0,13,13,0,0,0,0,1,0,2,0,3,13,0,13,2,0,0,0,1,0,2,0,3,13,0,13,2,0,0,0,1,0,2,0,3,13,0,13,1,13,3,0,0,0,1,0,2,0,3,13,0,13,2,0,0,0,13,13,0,0,0,0,1,0,2,0,3,1,0,1,2,1,3,2,0,2,1,2,3,3,0,3,1,3,2,0,0,0,13,13,0,0,0,0,1,0,2,0,3,13,0,13,2,0,0,0,13,1,0,2,0,2,13,3,0,0,0,0,1,0,2,0,3,13,0,13,2,0,0,0,13,13,0,0,0,0,2,2,0,0,0,0,2,1,0,1,2,2,0,3,0,3,2,0,0,0,13,13,0,0,0,0,1,0,2,0,3,1,0,1,2,1,3,2,0,2,1,2,3,3,0,3,1,3,2,0,0,0,13,13,0,0,0,0,1,0,2,0,3,13,0,13,2,0,0,0,13,13,0,0,0,0,2,1,0,1,2,2,0,3,0,3,2,0,0,0,13,13,0,0,0,0,1,0,2,0,3,13,0,13,2,0,0,0,1,0,2,0,3,1,0,1,2,1,3,2,0,2,1,2,3,3,0,3,1,3,2,0,0,0,13,13,0,0,0,0,13,13,0,0,0,0,13,1,0,2,0,2,13,3,0,0,0,0,1,0,2,0,3,1,0,1,2,1,3,2,0,2,1,2,3,3,0,3,1,3,2,0,0,0,13,13,0,0,0,0,1,0,2,0,3,1,0,1,2,1,3,2,0,2,1,2,3,3,0,3,1,3,2,0,0,0,13,13,0,0,0,0,1,0,2,0,3,13,0,13,2,0,0,0,1,0,2,0,3,1,0,1,2,1,3,2,0,2,1,2,3,3,0,3,1,3,2,0,0,0,13,13,0,0,0,0,1,0,2,0,3,13,0,13,2,0,0,0,1,0,2,0,3,13,0,13,2,0,0,0,1,0,2,0,3,1,0,1,2,1,3,2,0,2,1,2,3,3,0,3,1,3,2,0,0,0,1,0,2,0,3,2,0,2,1,2,3,0,0,0,1,0,2,0,3,13,0,13,2,0,0,0,13,13,0,0,0,0,13,1,0,2,0,2,13,3,0,0,0,0,13,13,0,0,0,0,1,0,2,0,3,13,0,13,2,0,0,0,13,1,0,2,0,2,13,3,0,0,0,0,1,0,2,0,3,13,0,13,2,0,0,0,1,0,2,0,3,1,0,1,2,1,3,2,0,2,1,2,3,3,0,3,1,3,2,0,0,0,2,1,0,1,2,2,0,3,0,3,2,0,0,0,1,0,2,0,3,13,0,13,2,0,0,0,1,0,2,0,3,1,0,1,2,1,3,2,0,2,1,2,3,3,0,3,1,3,2,0,0,0,1,0,2,0,3,1,0,1,1,1,2,1,3,2,0,2,2,2,3,3,0,3,1,3,3,0,0,0,1,0,2,0,3,1,0,1,2,1,3,2,0,2,1,2,3,3,0,3,1,3,2,0,0,0,1,0,2,0,3,13,0,13,2,0,0,0,13,13,0,0,0,0,13,13,0,0,0,0,1,0,2,0,3,13,0,13,1,13,3,0,0,0,13,1,0,2,0,2,13,3,0,0,0,0,1,0,2,0,3,13,0,13,2,0,0,0,1,0,2,0,3,13,0,13,2,0,0,0,1,0,2,0,3,13,0,13,2,0,0,0,1,0,2,0,3,13,0,13,1,13,3,0,0,0,1,0,2,0,3,13,0,13,2,0,0,0,1,0,2,0,3,1,0,1,2,1,3,2,0,2,1,2,3,3,0,3,1,3,2,0,0,0,1,0,2,0,3,13,0,13,2,0,0,0,1,0,2,0,3,1,0,1,2,1,3,2,0,2,1,2,3,3,0,3,1,3,2,0,0,0,1,0,2,0,3,13,0,13,2,0,0,0,1,0,2,0,3,2,0,2,1,2,3,0,0,0,13,13,0,0,0,0,13,13,0,0,0,0,13,13,0,0,0,0,13,1,0,2,0,2,13,3,0,0,0,0,1,0,2,0,3,1,0,1,1,1,2,1,3,2,0,2,1,2,2,2,3,3,0,3,2,3,3,0,0,0,1,0,2,0,3,1,0,1,2,1,3,2,0,2,1,2,3,3,0,3,1,3,2,0,0,0,1,0,2,0,3,1,0,1,2,1,3,2,0,2,1,2,3,3,0,3,1,3,2,0,0,0,1,0,2,0,3,13,0,13,2,0,0,0,1,0,2,0,3,13,0,13,2,0,0,0,13,1,0,2,0,2,13,3,0,0,0,0,1,0,2,0,3,1,0,1,2,1,3,2,0,2,1,2,3,3,0,3,1,3,2,0,0,0,13,13,0,0,0,0,13,13,0,0,0,0,2,2,0,0,0,0,13,13,0,0,0,0,13,13,0,0,0,0,1,0,2,0,3,13,0,13,1,13,3,0,0,0,1,0,2,0,3,2,0,2,1,2,3,0,0,0,13,13,0,0,0,0,1,0,2,0,3,13,0,13,2,0,0,0,13,13,0,0,0,0,1,0,2,0,3,13,0,13,1,13,3,0,0,0,1,0,2,0,3,1,0,1,2,1,3,2,0,2,1,2,3,3,0,3,1,3,2,0,0,0,13,1,0,2,0,2,13,3,0,0,0,0,1,0,2,0,3,1,0,1,2,1,3,2,0,2,1,2,3,3,0,3,1,3,2,0,0,0,1,0,2,0,3,2,0,2,1,2,3,0,0,0,13,13,0,0,0,0,13,13,0,0,0,0,1,0,2,0,3,1,0,1,2,1,3,2,0,2,1,2,3,3,0,3,1,3,2,0,0,0,1,0,2,0,3,13,0,13,2,0,0,0,13,13,0,0,0,0,13,13,0,0,0,0,1,0,2,0,3,13,0,13,1,13,3,0,0,0,1,0,2,0,3,1,0,1,2,1,3,2,0,2,1,2,3,3,0,3,1,3,2,0,0,0,13,13,0,0,0,0,1,0,2,0,3,13,0,13,2,0,0,0,13,1,0,2,0,2,13,3,0,0,0,0,13,13,0,0,0,0,1,0,2,0,3,13,0,13,2,0,0,0,1,0,2,0,3,13,0,13,2,0,0,0,1,0,2,0,3,1,0,1,2,1,3,2,0,2,1,2,3,3,0,3,1,3,2,0,0,0,13,13,0,0,0,0,1,0,2,0,3,13,0,13,2,0,0,0,1,0,2,0,3,13,0,13,2,0,0,0,13,13,0,0,0,0,13,13,0,0,0,0,1,0,2,0,3,1,0,1,2,1,3,2,0,2,1,2,3,3,0,3,1,3,2,0,0,0,13,13,0,0,0,0,13,13,0,0,0,0,1,0,2,0,3,13,0,13,2,0,0,0,13,13,0,0,0,0,13,13,0,0,0,0,1,0,2,0,3,13,0,13,2,0,0,0,13,1,0,2,0,2,13,3,0,0,0,0,13,13,0,0,0,0,13,1,0,2,0,2,13,3,0,0,0,0,13,1,0,2,0,2,13,3,0,0,0,0,13,13,0,0,0,0,1,0,2,0,3,13,0,13,2,0,0,0,1,0,2,0,3,13,0,13,2,0,0,0,1,0,2,0,3,13,0,13,2,0,0,0,1,0,2,0,3,1,0,1,2,1,3,2,0,2,1,2,3,3,0,3,1,3,2,0,0,0,13,1,0,2,0,2,13,3,0,0,0,0,1,0,2,0,3,13,0,13,2,0,0,0,1,0,2,0,3,13,0,13,2,0,0,0,13,13,0,0,0,0,1,0,2,0,3,13,0,13,2,0,0,0,13,13,0,0,0,0,13,13,0,0,0,0,13,13,0,0,0,0,1,0,2,0,3,13,0,13,2,0,0,0,1,0,2,0,3,13,0,13,2,0,0,0,1,0,2,0,3,13,0,13,2,0,0,0,1,0,2,0,3,1,0,1,2,1,3,2,0,2,1,2,3,3,0,3,1,3,2,0,0,0,1,0,2,0,3,13,0,13,2,0,0,0,1,0,2,0,3,13,0,13,2,0,0,0,1,0,2,0,3,1,0,1,2,1,3,2,0,2,1,2,3,3,0,3,1,3,2,0,0,0,1,0,2,0,3,1,0,1,2,1,3,2,0,2,1,2,3,3,0,3,1,3,2,0,0,0,13,1,0,2,0,2,13,3,0,0,0,0,1,0,2,0,3,1,0,1,2,1,3,2,0,2,1,2,3,3,0,3,1,3,2,0,0,0,1,0,2,0,3,1,0,1,2,1,3,2,0,2,1,2,3,3,0,3,1,3,2,0,0,0,13,13,0,0,0,0,1,0,2,0,3,1,0,1,2,1,3,2,0,2,1,2,3,3,0,3,1,3,2,0,0,0,1,0,2,0,3,13,0,13,2,0,0,0,13,13,0,0,0,0,13,13,0,0,0,0,1,0,2,0,3,1,0,1,2,1,3,2,0,2,1,2,3,3,0,3,1,3,2,0,0,0,1,0,2,0,3,13,0,13,2,0,0,0,13,13,0,0,0,0,1,0,2,0,3,1,0,1,2,1,3,2,0,2,1,2,3,3,0,3,1,3,2,0,0,0,13,13,0,0,0,0,2,1,0,1,2,2,0,3,0,3,2,0,0,0,1,0,2,0,3,1,0,1,2,1,3,2,0,2,1,2,3,3,0,3,1,3,2,0,0,0,1,0,2,0,3,1,0,1,2,1,3,2,0,2,1,2,3,3,0,3,1,3,2,0,0,0,13,13,0,0,0,0,1,0,2,0,3,1,0,1,2,1,3,2,0,2,1,2,3,3,0,3,1,3,2,0,0,0,1,0,2,0,3,13,0,13,2,0,0,0,13,13,0,0,0,0,13,13,0,0,0,0,1,0,2,0,3,2,0,2,1,2,3,0,0,0,1,0,2,0,3,2,0,2,1,2,3,0,0,0,1,0,2,0,3,13,0,13,2,0,0,0,1,0,2,0,3,13,0,13,2,0,0,0,1,0,2,0,3,13,0,13,2,0,0,0,1,0,2,0,3,2,0,2,1,2,3,0,0,0,1,0,2,0,3,13,0,13,2,0,0,0,1,0,2,0,3,13,0,13,2,0,0,0,1,0,2,0,3,1,0,1,2,1,3,2,0,2,1,2,3,3,0,3,1,3,2,0,0,0,13,13,0,0,0,0,13,13,0,0,0,0,13,13,0,0,0,0,13,1,0,2,0,2,13,3,0,0,0,0,13,1,0,2,0,2,13,3,0,0,0,0,1,0,2,0,3,1,0,1,2,1,3,2,0,2,1,2,3,3,0,3,1,3,2,0,0,0,13,1,0,2,0,2,13,3,0,0,0,0,13,13,0,0,0,0,1,0,2,0,3,13,0,13,2,0,0,0,13,13,0,0,0,0,13,13,0,0,0,0,13,1,0,2,0,2,13,3,0,0,0,0,1,0,2,0,3,13,0,13,2,0,0,0,13,13,0,0,0,0,1,0,2,0,3,1,0,1,2,1,3,2,0,2,1,2,3,3,0,3,1,3,2,0,0,0,1,0,2,0,3,13,0,13,2,0,0,0,13,13,0,0,0,0,1,0,2,0,3,13,0,13,1,13,3,0,0,0,1,0,2,0,3,1,0,1,2,1,3,2,0,2,1,2,3,3,0,3,1,3,2,0,0,0,1,0,2,0,3,1,0,1,2,1,3,2,0,2,1,2,3,3,0,3,1,3,2,0,0,0,1,0,2,0,3,13,0,13,2,0,0,0,13,13,0,0,0,0,1,0,2,0,3,1,0,1,2,1,3,2,0,2,1,2,3,3,0,3,1,3,2,0,0,0,1,0,2,0,3,1,0,1,2,1,3,2,0,2,1,2,3,3,0,3,1,3,2,0,0,0,13,1,0,1,13,2,0,3,0,3,13,0,0,0,13,13,0,0,0,0,1,0,2,0,3,1,0,1,2,1,3,2,0,2,1,2,3,3,0,3,1,3,2,0,0,0,1,0,2,0,3,13,0,13,2,0,0,0,1,0,2,0,3,13,0,13,2,0,0,0,1,0,2,0,3,13,0,13,2,0,0,0,1,0,2,0,3,13,0,13,2,0,0,0,1,0,2,0,3,1,0,1,2,1,3,2,0,2,1,2,3,3,0,3,1,3,2,0,0,0,13,13,0,0,0,0,13,1,0,2,0,2,13,3,0,0,0,0,13,1,0,2,0,2,13,3,0,0,0,0,1,0,2,0,3,13,0,13,2,0,0,0,2,2,0,0,0,0,13,13,0,0,0,0,1,0,2,0,3,13,0,13,2,0,0,0,13,13,0,0,0,0,1,0,2,0,3,13,0,13,2,0,0,0,1,0,2,0,3,13,0,13,2,0,0,0,1,0,2,0,3,1,0,1,2,1,3,2,0,2,1,2,3,3,0,3,1,3,2,0,0,0,1,0,2,0,3,1,0,1,2,1,3,2,0,2,1,2,3,3,0,3,1,3,2,0,0,0,1,0,2,0,3,13,0,13,2,0,0,0,13,13,0,0,0,0,13,13,0,0,0,0,13,13,0,0,0,0,13,13,0,0,0,0,1,0,2,0,3,1,0,1,2,1,3,2,0,2,1,2,3,3,0,3,1,3,2,0,0,0,1,0,2,0,3,1,0,1,2,1,3,2,0,2,1,2,3,3,0,3,1,3,2,0,0,0,1,0,2,0,3,13,0,13,2,0,0,0,1,0,2,0,3,1,0,1,2,1,3,2,0,2,1,2,3,3,0,3,1,3,2,0,0,0,13,13,0,0,0,0,1,0,2,0,3,13,0,13,2,0,0,0,13,13,0,0,0,0,1,0,2,0,3,13,0,13,2,0,0,0,1,0,2,0,3,1,0,1,2,1,3,2,0,2,1,2,3,3,0,3,1,3,2,0,0,0,1,0,2,0,3,13,0,13,2,0,0,0,1,0,2,0,3,13,0,13,2,0,0,0,1,0,2,0,3,1,0,1,2,1,3,2,0,2,1,2,3,3,0,3,1,3,2,0,0,0,13,13,0,0,0,0,1,0,2,0,3,13,0,13,2,0,0,0,1,0,2,0,3,1,0,1,2,1,3,2,0,2,1,2,3,3,0,3,1,3,2,0,0,0,13,13,0,0,0,0,1,0,2,0,3,1,0,1,2,1,3,2,0,2,1,2,3,3,0,3,1,3,2,0,0,0,13,13,0,0,0,0,13,13,0,0,0,0,1,0,2,0,3,2,0,2,1,2,3,0,0,0,1,0,2,0,3,13,0,13,2,13,3,0,0,0,1,0,2,0,3,13,0,13,2,0,0,0,1,0,2,0,3,13,0,13,2,0,0,0,1,0,2,0,3,1,0,1,2,1,3,2,0,2,1,2,3,3,0,3,1,3,2,0,0,0,13,13,0,0,0,0,13,1,0,2,0,2,13,3,0,0,0,0,13,13,0,0,0,0,13,1,0,2,0,2,13,3,0,0,0,0,13,13,0,0,0,0,1,0,2,0,3,1,0,1,1,1,2,1,3,2,0,2,2,2,3,3,0,3,1,3,3,0,0,0,13,13,0,0,0,0,1,0,2,0,3,1,0,1,2,1,3,2,0,2,1,2,3,3,0,3,1,3,2,0,0,0,1,0,2,0,3,1,0,1,2,1,3,2,0,2,1,2,3,3,0,3,1,3,2,0,0,0,13,13,0,0,0,0,1,0,2,0,3,13,0,13,2,0,0,0,1,0,2,0,3,13,0,13,2,0,0,0,1,0,2,0,3,1,0,1,2,1,3,2,0,2,1,2,3,3,0,3,1,3,2,0,0,0,1,0,2,0,3,13,0,13,2,0,0,0,13,13,0,0,0,0,1,0,2,0,3,13,0,13,2,0,0,0,1,0,2,0,3,13,0,13,2,0,0,0,1,0,2,0,3,1,0,1,2,1,3,2,0,2,1,2,3,3,0,3,1,3,2,0,0,0,1,0,2,0,3,13,0,13,2,0,0,0,1,0,2,0,3,1,0,1,2,1,3,2,0,2,1,2,3,3,0,3,1,3,2,0,0,0,13,13,0,0,0,0,1,0,2,0,3,1,0,1,2,1,3,2,0,2,1,2,3,3,0,3,1,3,2,0,0,0,1,0,2,0,3,13,0,13,1,13,3,0,0,0,13,13,0,0,0,0,1,0,2,0,3,1,0,1,2,1,3,2,0,2,1,2,3,3,0,3,1,3,2,0,0,0,13,1,0,2,0,2,13,3,0,0,0,0,1,0,2,0,3,1,0,1,1,1,2,1,3,2,0,2,2,2,3,3,0,3,1,3,3,0,0,0,2,2,0,0,0,0,1,0,2,0,3,1,0,1,2,1,3,2,0,2,1,2,3,3,0,3,1,3,2,0,0,0,13,13,0,0,0,0,13,13,0,0,0,0,1,0,2,0,3,13,0,13,2,0,0,0,1,0,2,0,3,1,0,1,2,1,3,2,0,2,1,2,3,3,0,3,1,3,2,0,0,0,13,13,0,0,0,0,13,13,0,0,0,0,1,0,2,0,3,13,0,13,2,0,0,0,13,13,0,0,0,0,1,0,2,0,3,2,0,2,1,2,3,0,0,0,13,13,0,0,0,0,2,1,0,1,2,2,0,3,0,3,2,0,0,0,1,0,2,0,3,1,0,1,2,1,3,2,0,2,1,2,3,3,0,3,1,3,2,0,0,0,1,0,2,0,3,13,0,13,2,0,0,0,13,13,0,0,0,0,1,0,2,0,3,1,0,1,1,1,2,1,3,2,0,2,2,2,3,3,0,3,1,3,3,0,0,0,1,0,2,0,3,1,0,1,1,1,2,1,3,2,0,2,1,2,2,2,3,3,0,3,2,3,3,0,0,0,13,13,0,0,0,0,1,0,2,0,3,1,0,1,2,1,3,2,0,2,1,2,3,3,0,3,1,3,2,0,0,0,1,0,2,0,3,1,0,1,1,1,2,1,3,2,0,2,2,2,3,3,0,3,1,3,3,0,0,0,13,1,0,2,0,2,13,3,0,0,0,0,13,13,0,0,0,0,1,0,2,0,3,13,0,13,2,0,0,0,13,13,0,0,0,0,13,13,0,0,0,0,1,0,2,0,3,1,0,1,2,1,3,2,0,2,1,2,3,3,0,3,1,3,2,0,0,0,1,0,2,0,3,13,0,13,2,0,0,0,1,0,2,0,3,1,0,1,2,1,3,2,0,2,1,2,3,3,0,3,1,3,2,0,0,0,13,13,0,0,0,0,13,13,0,0,0,0,1,0,2,0,3,13,0,13,2,0,0,0,1,0,2,0,3,13,0,13,2,0,0,0,1,0,2,0,3,13,0,13,2,0,0,0,1,0,2,0,3,13,0,13,2,0,0,0,1,0,2,0,3,13,0,13,2,0,0,0,13,13,0,0,0,0,1,0,2,0,3,13,0,13,2,0,0,0,1,0,2,0,3,13,0,13,2,0,0,0,13,13,0,0,0,0,1,0,2,0,3,13,0,13,2,0,0,0,1,0,2,0,3,1,0,1,2,1,3,2,0,2,1,2,3,3,0,3,1,3,2,0,0,0,2,2,0,0,0,0,1,0,2,0,3,1,0,1,2,1,3,2,0,2,1,2,3,3,0,3,1,3,2,0,0,0,13,1,0,2,0,2,13,3,0,0,0,0,13,13,0,0,0,0,13,13,0,0,0,0,1,0,2,0,3,13,0,13,2,0,0,0,1,0,2,0,3,13,0,13,2,0,0,0,13,13,0,0,0,0,1,0,2,0,3,13,0,13,2,0,0,0,13,13,0,0,0,0,13,13,0,0,0,0,13,13,0,0,0,0,1,0,2,0,3,1,0,1,2,1,3,2,0,2,1,2,3,3,0,3,1,3,2,0,0,0,13,13,0,0,0,0,1,0,2,0,3,13,0,13,2,0,0,0,1,0,2,0,3,1,0,1,2,1,3,2,0,2,1,2,3,3,0,3,1,3,2,0,0,0,1,0,2,0,3,1,0,1,2,1,3,2,0,2,1,2,3,3,0,3,1,3,2,0,0,0,13,13,0,0,0,0,13,13,0,0,0,0,13,1,0,2,0,2,13,3,0,0,0,0,1,0,2,0,3,1,0,1,1,1,2,1,3,2,0,2,2,2,3,3,0,3,1,3,3,0,0,0,13,13,0,0,0,0,1,0,2,0,3,13,0,13,1,13,3,0,0,0,1,0,2,0,3,13,0,13,2,0,0,0,13,13,0,0,0,0,1,0,2,0,3,13,0,13,2,0,0,0,13,13,0,0,0,0,2,2,0,0,0,0,13,13,0,0,0,0,13,13,0,0,0,0,13,13,0,0,0,0,13,13,0,0,0,0,13,1,0,2,0,2,13,3,0,0,0,0,13,1,0,2,0,2,13,3,0,0,0,0,13,13,0,0,0,0,1,0,2,0,3,13,0,13,2,0,0,0,1,0,2,0,3,1,0,1,2,1,3,2,0,2,1,2,3,3,0,3,1,3,2,0,0,0,1,0,2,0,3,1,0,1,2,1,3,2,0,2,1,2,3,3,0,3,1,3,2,0,0,0,1,0,2,0,3,1,0,1,2,1,3,2,0,2,1,2,3,3,0,3,1,3,2,0,0,0,13,13,0,0,0,0,1,0,2,0,3,1,0,1,2,1,3,2,0,2,1,2,3,3,0,3,1,3,2,0,0,0,1,0,2,0,3,1,0,1,2,1,3,2,0,2,1,2,3,3,0,3,1,3,2,0,0,0,13,13,0,0,0,0,13,13,0,0,0,0,1,0,2,0,3,1,0,1,2,1,3,2,0,2,1,2,3,3,0,3,1,3,2,0,0,0,1,0,2,0,3,1,0,1,2,1,3,2,0,2,1,2,3,3,0,3,1,3,2,0,0,0,1,0,2,0,3,13,0,13,2,0,0,0,2,2,0,0,0,0,13,1,0,2,0,2,13,3,0,0,0,0,13,13,0,0,0,0,13,13,0,0,0,0,13,13,0,0,0,0,1,0,2,0,3,13,0,13,2,13,3,0,0,0,1,0,2,0,3,13,0,13,1,13,3,0,0,0,1,0,2,0,3,1,0,1,1,1,2,1,3,2,0,2,2,2,3,3,0,3,1,3,3,0,0,0,1,0,2,0,3,1,0,1,2,1,3,2,0,2,1,2,3,3,0,3,1,3,2,0,0,0,1,0,2,0,3,13,0,13,2,0,0,0,1,0,2,0,3,13,0,13,2,0,0,0,13,13,0,0,0,0,1,0,2,0,3,13,0,13,2,0,0,0,2,2,0,0,0,0,1,0,2,0,3,13,0,13,2,0,0,0,1,0,2,0,3,13,0,13,2,0,0,0,1,0,2,0,3,1,0,1,2,1,3,2,0,2,1,2,3,3,0,3,1,3,2,0,0,0,13,1,0,2,0,2,13,3,0,0,0,0,1,0,2,0,3,13,0,13,2,0,0,0,1,0,2,0,3,13,0,13,2,0,0,0,1,0,2,0,3,13,0,13,2,0,0,0,13,13,0,0,0,0,1,0,2,0,3,1,0,1,2,1,3,2,0,2,1,2,3,3,0,3,1,3,2,0,0,0,1,0,2,0,3,1,0,1,2,1,3,2,0,2,1,2,3,3,0,3,1,3,2,0,0,0,13,13,0,0,0,0,1,0,2,0,3,13,0,13,2,0,0,0,13,1,0,2,0,2,13,3,0,0,0,0,1,0,2,0,3,13,0,13,2,0,0,0,1,0,2,0,3,1,0,1,2,1,3,2,0,2,1,2,3,3,0,3,1,3,2,0,0,0,1,0,2,0,3,1,0,1,2,1,3,2,0,2,1,2,3,3,0,3,1,3,2,0,0,0,1,0,2,0,3,13,0,13,2,0,0,0,13,1,0,2,0,2,13,3,0,0,0,0,13,13,0,0,0,0,13,1,0,1,13,2,0,3,0,3,13,0,0,0,1,0,2,0,3,13,0,13,2,0,0,0,1,0,2,0,3,13,0,13,2,0,0,0,1,0,2,0,3,1,0,1,2,1,3,2,0,2,1,2,3,3,0,3,1,3,2,0,0,0,1,0,2,0,3,13,0,13,2,0,0,0,1,0,2,0,3,1,0,1,2,1,3,2,0,2,1,2,3,3,0,3,1,3,2,0,0,0,1,0,2,0,3,13,0,13,2,0,0,0,13,13,0,0,0,0,13,13,0,0,0,0,1,0,2,0,3,2,0,2,1,2,3,0,0,0,2,1,0,1,2,2,0,3,0,3,2,0,0,0,1,0,2,0,3,1,0,1,1,1,2,1,3,2,0,2,1,2,2,2,3,3,0,3,2,3,3,0,0,0,1,0,2,0,3,13,0,13,2,0,0,0,1,0,2,0,3,1,0,1,1,1,2,1,3,2,0,2,2,2,3,3,0,3,1,3,3,0,0,0,13,13,0,0,0,0,2,2,0,0,0,0,13,1,0,2,0,2,13,3,0,0,0,0,1,0,2,0,3,13,0,13,2,0,0,0,2,2,0,0,0,0,1,0,2,0,3,13,0,13,2,0,0,0,1,0,2,0,3,13,0,13,2,0,0,0,13,13,0,0,0,0,13,13,0,0,0,0,1,0,2,0,3,13,0,13,2,0,0,0,1,0,2,0,3,13,0,13,2,0,0,0,1,0,2,0,3,13,0,13,2,0,0,0,1,0,2,0,3,13,0,13,2,0,0,0,13,13,0,0,0,0,1,0,2,0,3,13,0,13,2,0,0,0,1,0,2,0,3,1,0,1,2,1,3,2,0,2,1,2,3,3,0,3,1,3,2,0,0,0,1,0,2,0,3,13,0,13,2,0,0,0,1,0,2,0,3,1,0,1,2,1,3,2,0,2,1,2,3,3,0,3,1,3,2,0,0,0,1,0,2,0,3,1,0,1,2,1,3,2,0,2,1,2,3,3,0,3,1,3,2,0,0,0,1,0,2,0,3,13,0,13,2,0,0,0,13,13,0,0,0,0,1,0,2,0,3,13,0,13,2,0,0,0,1,0,2,0,3,13,0,13,1,13,3,0,0,0,1,0,2,0,3,1,0,1,2,1,3,2,0,2,1,2,3,3,0,3,1,3,2,0,0,0,1,0,2,0,3,13,0,13,2,0,0,0,1,0,2,0,3,13,0,13,2,0,0,0,1,0,2,0,3,13,0,13,2,0,0,0,1,0,2,0,3,1,0,1,2,1,3,2,0,2,1,2,3,3,0,3,1,3,2,0,0,0,13,13,0,0,0,0,1,0,2,0,3,13,0,13,2,0,0,0,13,13,0,0,0,0,13,13,0,0,0,0,1,0,2,0,3,1,0,1,2,1,3,2,0,2,1,2,3,3,0,3,1,3,2,0,0,0,13,13,0,0,0,0,13,13,0,0,0,0,13,13,0,0,0,0,1,0,2,0,3,1,0,1,2,1,3,2,0,2,1,2,3,3,0,3,1,3,2,0,0,0,13,13,0,0,0,0,1,0,2,0,3,13,0,13,2,0,0,0,1,0,2,0,3,13,0,13,2,0,0,0,13,13,0,0,0,0,13,13,0,0,0,0,1,0,2,0,3,13,0,13,2,0,0,0,13,13,0,0,0,0,1,0,2,0,3,1,0,1,2,1,3,2,0,2,1,2,3,3,0,3,1,3,2,0,0,0,13,1,0,2,0,2,13,3,0,0,0,0,1,0,2,0,3,13,0,13,2,0,0,0,1,0,2,0,3,13,0,13,2,0,0,0,1,0,2,0,3,13,0,13,1,13,3,0,0,0,13,13,0,0,0,0,1,0,2,0,3,13,0,13,2,0,0,0,1,0,2,0,3,13,0,13,2,0,0,0,13,13,0,0,0,0,1,0,2,0,3,1,0,1,2,1,3,2,0,2,1,2,3,3,0,3,1,3,2,0,0,0,2,1,0,1,2,2,0,3,0,3,2,0,0,0,13,13,0,0,0,0,13,13,0,0,0,0,13,13,0,0,0,0,13,13,0,0,0,0,1,0,2,0,3,1,0,1,2,1,3,2,0,2,1,2,3,3,0,3,1,3,2,0,0,0,1,0,2,0,3,13,0,13,2,0,0,0,1,0,2,0,3,13,0,13,2,0,0,0,1,0,2,0,3,1,0,1,2,1,3,2,0,2,1,2,3,3,0,3,1,3,2,0,0,0,1,0,2,0,3,2,0,2,1,2,3,0,0,0,13,13,0,0,0,0,1,0,2,0,3,1,0,1,2,1,3,2,0,2,1,2,3,3,0,3,1,3,2,0,0,0,13,1,0,2,0,2,13,3,0,0,0,0,13,1,0,2,0,2,13,3,0,0,0,0,1,0,2,0,3,13,0,13,2,0,0,0,13,1,0,2,0,2,13,3,0,0,0,0,1,0,2,0,3,1,0,1,2,1,3,2,0,2,1,2,3,3,0,3,1,3,2,0,0,0,1,0,2,0,3,2,0,2,1,2,3,0,0,0,13,1,0,1,13,2,0,3,0,3,13,0,0,0,1,0,2,0,3,13,0,13,2,0,0,0,1,0,2,0,3,1,0,1,2,1,3,2,0,2,1,2,3,3,0,3,1,3,2,0,0,0,13,1,0,2,0,2,13,3,0,0,0,0,1,0,2,0,3,1,0,1,2,1,3,2,0,2,1,2,3,3,0,3,1,3,2,0,0,0,1,0,2,0,3,1,0,1,2,1,3,2,0,2,1,2,3,3,0,3,1,3,2,0,0,0,1,0,2,0,3,13,0,13,2,0,0,0,13,13,0,0,0,0,1,0,2,0,3,2,0,2,1,2,3,0,0,0,1,0,2,0,3,13,0,13,2,0,0,0,2,1,0,1,2,2,0,3,0,3,2,0,0,0,1,0,2,0,3,1,0,1,1,1,2,1,3,2,0,2,2,2,3,3,0,3,1,3,3,0,0,0,1,0,2,0,3,13,0,13,2,0,0,0,13,13,0,0,0,0,1,0,2,0,3,13,0,13,2,0,0,0,1,0,2,0,3,13,0,13,2,0,0,0,1,0,2,0,3,1,0,1,2,1,3,2,0,2,1,2,3,3,0,3,1,3,2,0,0,0,1,0,2,0,3,13,0,13,2,13,3,0,0,0,1,0,2,0,3,2,0,2,1,2,3,0,0,0,13,1,0,2,0,2,13,3,0,0,0,0,1,0,2,0,3,1,0,1,2,1,3,2,0,2,1,2,3,3,0,3,1,3,2,0,0,0,1,0,2,0,3,13,0,13,1,13,3,0,0,0,1,0,2,0,3,13,0,13,2,0,0,0,1,0,2,0,3,1,0,1,2,1,3,2,0,2,1,2,3,3,0,3,1,3,2,0,0,0,13,13,0,0,0,0,1,0,2,0,3,13,0,13,2,0,0,0,13,13,0,0,0,0,13,13,0,0,0,0,13,13,0,0,0,0,13,13,0,0,0,0,1,0,2,0,3,1,0,1,2,1,3,2,0,2,1,2,3,3,0,3,1,3,2,0,0,0,13,13,0,0,0,0,1,0,2,0,3,13,0,13,2,0,0,0,1,0,2,0,3,13,0,13,2,0,0,0,1,0,2,0,3,13,0,13,2,0,0,0,13,13,0,0,0,0,1,0,2,0,3,13,0,13,2,0,0,0,13,13,0,0,0,0,1,0,2,0,3,13,0,13,2,0,0,0,1,0,2,0,3,13,0,13,1,13,3,0,0,0,13,13,0,0,0,0,1,0,2,0,3,13,0,13,2,0,0,0,1,0,2,0,3,1,0,1,2,1,3,2,0,2,1,2,3,3,0,3,1,3,2,0,0,0,1,0,2,0,3,13,0,13,2,0,0,0,13,1,0,2,0,2,13,3,0,0,0,0,1,0,2,0,3,13,0,13,2,0,0,0,13,13,0,0,0,0,13,13,0,0,0,0,1,0,2,0,3,1,0,1,2,1,3,2,0,2,1,2,3,3,0,3,1,3,2,0,0,0,1,0,2,0,3,1,0,1,2,1,3,2,0,2,1,2,3,3,0,3,1,3,2,0,0,0,13,13,0,0,0,0,13,13,0,0,0,0,1,0,2,0,3,13,0,13,2,0,0,0,1,0,2,0,3,13,0,13,2,0,0,0,1,0,2,0,3,13,0,13,2,0,0,0,1,0,2,0,3,13,0,13,1,13,3,0,0,0,1,0,2,0,3,13,0,13,2,0,0,0,13,1,0,2,0,2,13,3,0,0,0,0,1,0,2,0,3,13,0,13,2,0,0,0,1,0,2,0,3,1,0,1,2,1,3,2,0,2,1,2,3,3,0,3,1,3,2,0,0,0,2,2,0,0,0,0,13,1,0,2,0,2,13,3,0,0,0,0,13,13,0,0,0,0,13,13,0,0,0,0,1,0,2,0,3,1,0,1,2,1,3,2,0,2,1,2,3,3,0,3,1,3,2,0,0,0,1,0,2,0,3,13,0,13,2,0,0,0,2,2,0,0,0,0,13,13,0,0,0,0,2,2,0,0,0,0,13,1,0,2,0,2,13,3,0,0,0,0,13,13,0,0,0,0,1,0,2,0,3,1,0,1,2,1,3,2,0,2,1,2,3,3,0,3,1,3,2,0,0,0,13,13,0,0,0,0,1,0,2,0,3,1,0,1,1,1,2,1,3,2,0,2,2,2,3,3,0,3,1,3,3,0,0,0,13,13,0,0,0,0,13,13,0,0,0,0,1,0,2,0,3,1,0,1,2,1,3,2,0,2,1,2,3,3,0,3,1,3,2,0,0,0,1,0,2,0,3,13,0,13,2,0,0,0,13,1,0,2,0,2,13,3,0,0,0,0,1,0,2,0,3,1,0,1,2,1,3,2,0,2,1,2,3,3,0,3,1,3,2,0,0,0,13,13,0,0,0,0,1,0,2,0,3,13,0,13,2,0,0,0,1,0,2,0,3,13,0,13,1,13,3,0,0,0,13,1,0,2,0,2,13,3,0,0,0,0,1,0,2,0,3,13,0,13,2,0,0,0,1,0,2,0,3,13,0,13,2,0,0,0,1,0,2,0,3,1,0,1,2,1,3,2,0,2,1,2,3,3,0,3,1,3,2,0,0,0,13,13,0,0,0,0,13,13,0,0,0,0,1,0,2,0,3,1,0,1,2,1,3,2,0,2,1,2,3,3,0,3,1,3,2,0,0,0,13,13,0,0,0,0,1,0,2,0,3,1,0,1,2,1,3,2,0,2,1,2,3,3,0,3,1,3,2,0,0,0,1,0,2,0,3,13,0,13,2,0,0,0,13,13,0,0,0,0,13,13,0,0,0,0,1,0,2,0,3,1,0,1,2,1,3,2,0,2,1,2,3,3,0,3,1,3,2,0,0,0,13,13,0,0,0,0,1,0,2,0,3,13,0,13,2,0,0,0,13,13,0,0,0,0,1,0,2,0,3,13,0,13,2,0,0,0,1,0,2,0,3,13,0,13,2,0,0,0,13,13,0,0,0,0,1,0,2,0,3,13,0,13,1,13,3,0,0,0,13,13,0,0,0,0,1,0,2,0,3,1,0,1,2,1,3,2,0,2,1,2,3,3,0,3,1,3,2,0,0,0,13,13,0,0,0,0,1,0,2,0,3,1,0,1,1,1,2,1,3,2,0,2,2,2,3,3,0,3,1,3,3,0,0,0,1,0,2,0,3,1,0,1,2,1,3,2,0,2,1,2,3,3,0,3,1,3,2,0,0,0,1,0,2,0,3,13,0,13,2,0,0,0,1,0,2,0,3,1,0,1,1,1,2,1,3,2,0,2,2,2,3,3,0,3,1,3,3,0,0,0,1,0,2,0,3,1,0,1,2,1,3,2,0,2,1,2,3,3,0,3,1,3,2,0,0,0,13,13,0,0,0,0,1,0,2,0,3,13,0,13,2,0,0,0,13,13,0,0,0,0,13,1,0,2,0,2,13,3,0,0,0,0,1,0,2,0,3,13,0,13,2,0,0,0,1,0,2,0,3,13,0,13,2,0,0,0,1,0,2,0,3,1,0,1,2,1,3,2,0,2,1,2,3,3,0,3,1,3,2,0,0,0,13,13,0,0,0,0,1,0,2,0,3,13,0,13,2,0,0,0,13,1,0,2,0,2,13,3,0,0,0,0,1,0,2,0,3,13,0,13,2,0,0,0,1,0,2,0,3,13,0,13,2,0,0,0,13,13,0,0,0,0,1,0,2,0,3,1,0,1,2,1,3,2,0,2,1,2,3,3,0,3,1,3,2,0,0,0,13,1,0,2,0,2,13,3,0,0,0,0,13,13,0,0,0,0,1,0,2,0,3,13,0,13,2,0,0,0,1,0,2,0,3,1,0,1,2,1,3,2,0,2,1,2,3,3,0,3,1,3,2,0,0,0,13,13,0,0,0,0,13,13,0,0,0,0,1,0,2,0,3,13,0,13,2,0,0,0,13,1,0,2,0,2,13,3,0,0,0,0,2,1,0,1,2,2,0,3,0,3,2,0,0,0,1,0,2,0,3,1,0,1,2,1,3,2,0,2,1,2,3,3,0,3,1,3,2,0,0,0,1,0,2,0,3,13,0,13,2,0,0,0,1,0,2,0,3,13,0,13,2,0,0,0,1,0,2,0,3,13,0,13,1,13,3,0,0,0,1,0,2,0,3,13,0,13,2,0,0,0,1,0,2,0,3,1,0,1,2,1,3,2,0,2,1,2,3,3,0,3,1,3,2,0,0,0,1,0,2,0,3,13,0,13,2,0,0,0,1,0,2,0,3,13,0,13,1,13,3,0,0,0,1,0,2,0,3,13,0,13,2,0,0,0,1,0,2,0,3,13,0,13,2,0,0,0,1,0,2,0,3,1,0,1,2,1,3,2,0,2,1,2,3,3,0,3,1,3,2,0,0,0,13,13,0,0,0,0,13,13,0,0,0,0,1,0,2,0,3,1,0,1,2,1,3,2,0,2,1,2,3,3,0,3,1,3,2,0,0,0,1,0,2,0,3,1,0,1,2,1,3,2,0,2,1,2,3,3,0,3,1,3,2,0,0,0,1,0,2,0,3,13,0,13,2,0,0,0,2,2,0,0,0,0,1,0,2,0,3,13,0,13,2,0,0,0,1,0,2,0,3,13,0,13,2,0,0,0,1,0,2,0,3,1,0,1,2,1,3,2,0,2,1,2,3,3,0,3,1,3,2,0,0,0,1,0,2,0,3,1,0,1,2,1,3,2,0,2,1,2,3,3,0,3,1,3,2,0,0,0,1,0,2,0,3,13,0,13,2,0,0,0,1,0,2,0,3,1,0,1,2,1,3,2,0,2,1,2,3,3,0,3,1,3,2,0,0,0,1,0,2,0,3,1,0,1,2,1,3,2,0,2,1,2,3,3,0,3,1,3,2,0,0,0,1,0,2,0,3,13,0,13,2,0,0,0,1,0,2,0,3,13,0,13,2,0,0,0,13,13,0,0,0,0,13,1,0,2,0,2,13,3,0,0,0,0,1,0,2,0,3,13,0,13,2,0,0,0,13,13,0,0,0,0,13,13,0,0,0,0,13,1,0,2,0,2,13,3,0,0,0,0,1,0,2,0,3,1,0,1,2,1,3,2,0,2,1,2,3,3,0,3,1,3,2,0,0,0,1,0,2,0,3,13,0,13,2,0,0,0,1,0,2,0,3,1,0,1,2,1,3,2,0,2,1,2,3,3,0,3,1,3,2,0,0,0,1,0,2,0,3,13,0,13,2,0,0,0,13,13,0,0,0,0,13,13,0,0,0,0,13,13,0,0,0,0,13,13,0,0,0,0,1,0,2,0,3,13,0,13,2,0,0,0,1,0,2,0,3,13,0,13,2,0,0,0,1,0,2,0,3,13,0,13,2,0,0,0,13,13,0,0,0,0,1,0,2,0,3,1,0,1,2,1,3,2,0,2,1,2,3,3,0,3,1,3,2,0,0,0,1,0,2,0,3,1,0,1,2,1,3,2,0,2,1,2,3,3,0,3,1,3,2,0,0,0,1,0,2,0,3,13,0,13,2,0,0,0,13,1,0,2,0,2,13,3,0,0,0,0,1,0,2,0,3,13,0,13,1,13,3,0,0,0,1,0,2,0,3,2,0,2,1,2,3,0,0,0,1,0,2,0,3,13,0,13,2,0,0,0,13,1,0,2,0,2,13,3,0,0,0,0,1,0,2,0,3,1,0,1,2,1,3,2,0,2,1,2,3,3,0,3,1,3,2,0,0,0,13,13,0,0,0,0,13,13,0,0,0,0,1,0,2,0,3,13,0,13,1,13,3,0,0,0,1,0,2,0,3,1,0,1,2,1,3,2,0,2,1,2,3,3,0,3,1,3,2,0,0,0,1,0,2,0,3,13,0,13,2,0,0,0,13,13,0,0,0,0,13,13,0,0,0,0,1,0,2,0,3,1,0,1,2,1,3,2,0,2,1,2,3,3,0,3,1,3,2,0,0,0,13,1,0,1,13,2,0,3,0,3,13,0,0,0,13,13,0,0,0,0,1,0,2,0,3,13,0,13,2,0,0,0,13,13,0,0,0,0,13,13,0,0,0,0,13,13,0,0,0,0,13,1,0,1,13,2,0,3,0,3,13,0,0,0,1,0,2,0,3,13,0,13,2,0,0,0,13,1,0,2,0,2,13,3,0,0,0,0,1,0,2,0,3,13,0,13,2,0,0,0,13,13,0,0,0,0,1,0,2,0,3,13,0,13,2,0,0,0,13,13,0,0,0,0,1,0,2,0,3,13,0,13,2,0,0,0,1,0,2,0,3,1,0,1,2,1,3,2,0,2,1,2,3,3,0,3,1,3,2,0,0,0,1,0,2,0,3,13,0,13,2,0,0,0,1,0,2,0,3,13,0,13,2,0,0,0,1,0,2,0,3,13,0,13,2,0,0,0,1,0,2,0,3,1,0,1,2,1,3,2,0,2,1,2,3,3,0,3,1,3,2,0,0,0,2,1,0,1,2,2,0,3,0,3,2,0,0,0,13,13,0,0,0,0,1,0,2,0,3,13,0,13,2,0,0,0,13,13,0,0,0,0,1,0,2,0,3,1,0,1,2,1,3,2,0,2,1,2,3,3,0,3,1,3,2,0,0,0,1,0,2,0,3,13,0,13,2,0,0,0,13,13,0,0,0,0,1,0,2,0,3,1,0,1,2,1,3,2,0,2,1,2,3,3,0,3,1,3,2,0,0,0,13,13,0,0,0,0,13,1,0,2,0,2,13,3,0,0,0,0,13,13,0,0,0,0,1,0,2,0,3,13,0,13,2,0,0,0,13,1,0,2,0,2,13,3,0,0,0,0,1,0,2,0,3,13,0,13,2,0,0,0,1,0,2,0,3,13,0,13,1,13,3,0,0,0,1,0,2,0,3,1,0,1,2,1,3,2,0,2,1,2,3,3,0,3,1,3,2,0,0,0,1,0,2,0,3,13,0,13,2,0,0,0,1,0,2,0,3,13,0,13,2,0,0,0,13,13,0,0,0,0,1,0,2,0,3,1,0,1,2,1,3,2,0,2,1,2,3,3,0,3,1,3,2,0,0,0,1,0,2,0,3,1,0,1,2,1,3,2,0,2,1,2,3,3,0,3,1,3,2,0,0,0,1,0,2,0,3,1,0,1,2,1,3,2,0,2,1,2,3,3,0,3,1,3,2,0,0,0,1,0,2,0,3,13,0,13,2,0,0,0,1,0,2,0,3,1,0,1,2,1,3,2,0,2,1,2,3,3,0,3,1,3,2,0,0,0,1,0,2,0,3,13,0,13,2,0,0,0,13,1,0,2,0,2,13,3,0,0,0,0,1,0,2,0,3,13,0,13,2,0,0,0,13,1,0,2,0,2,13,3,0,0,0,0,13,13,0,0,0,0,1,0,2,0,3,1,0,1,2,1,3,2,0,2,1,2,3,3,0,3,1,3,2,0,0,0,1,0,2,0,3,1,0,1,2,1,3,2,0,2,1,2,3,3,0,3,1,3,2,0,0,0,1,0,2,0,3,13,0,13,2,0,0,0,1,0,2,0,3,13,0,13,1,13,3,0,0,0,13,13,0,0,0,0,13,1,0,2,0,2,13,3,0,0,0,0,1,0,2,0,3,13,0,13,1,13,3,0,0,0,13,13,0,0,0,0,13,1,0,2,0,2,13,3,0,0,0,0,2,1,0,1,2,2,0,3,0,3,2,0,0,0,1,0,2,0,3,13,0,13,2,0,0,0,1,0,2,0,3,1,0,1,2,1,3,2,0,2,1,2,3,3,0,3,1,3,2,0,0,0,13,1,0,2,0,2,13,3,0,0,0,0,13,13,0,0,0,0,1,0,2,0,3,13,0,13,2,0,0,0,13,1,0,2,0,2,13,3,0,0,0,0,13,13,0,0,0,0,1,0,2,0,3,13,0,13,2,13,3,0,0,0,13,13,0,0,0,0,1,0,2,0,3,13,0,13,1,13,3,0,0,0,1,0,2,0,3,1,0,1,2,1,3,2,0,2,1,2,3,3,0,3,1,3,2,0,0,0,13,1,0,2,0,2,13,3,0,0,0,0,13,1,0,2,0,2,13,3,0,0,0,0,13,1,0,2,0,2,13,3,0,0,0,0,1,0,2,0,3,13,0,13,2,0,0,0,1,0,2,0,3,1,0,1,2,1,3,2,0,2,1,2,3,3,0,3,1,3,2,0,0,0,1,0,2,0,3,13,0,13,2,0,0,0,1,0,2,0,3,13,0,13,1,13,3];
num_constraints3= 526;
max_constraints3 = 53478;
scopes3x = [120,174,114,174,172,186,229,98,116,233,114,139,233,119,98,120,212,173,139,233,38,175,230,178,113,229,67,69,39,233,230,102,139,172,228,228,103,233,229,116,115,213,178,69,171,182,175,172,76,113,118,102,101,230,178,101,173,233,202,120,101,138,229,175,98,172,233,103,106,171,114,190,230,78,119,69,101,76,115,102,237,172,115,184,140,175,70,118,229,118,138,203,171,98,103,120,71,229,233,183,233,228,140,37,70,172,138,229,103,102,98,174,229,101,120,172,173,171,175,120,113,118,120,228,229,114,228,228,233,120,115,106,175,116,172,107,101,70,171,115,118,228,78,113,118,120,118,178,228,211,171,177,120,190,70,214,237,70,103,237,115,229,229,102,211,233,174,102,101,118,211,120,118,190,236,98,236,230,78,229,98,47,94,229,70,140,98,116,79,173,171,201,229,172,211,212,172,177,98,106,139,171,228,229,171,233,229,119,185,178,173,102,139,178,138,233,140,113,67,71,211,67,113,94,102,173,186,138,175,230,213,178,98,120,115,185,237,213,106,113,118,116,102,113,119,120,218,101,39,236,229,71,186,113,98,140,103,171,103,47,115,229,118,115,230,120,103,115,233,230,213,173,138,118,236,115,172,71,102,172,113,230,71,178,228,101,178,139,173,233,188,184,71,103,175,115,173,175,229,113,101,213,188,118,233,107,116,233,175,173,183,204,71,115,233,229,233,119,103,139,178,188,228,120,139,103,97,174,230,229,172,97,171,214,120,38,171,172,228,182,233,89,233,114,233,97,140,38,214,175,182,175,177,177,178,120,233,229,70,39,98,228,114,139,213,71,184,119,228,233,229,101,120,120,67,182,138,172,173,106,184,102,212,71,172,183,140,113,214,175,102,212,213,67,69,229,183,107,103,120,229,229,70,114,190,171,214,98,233,212,233,138,103,172,178,236,37,172,172,70,69,119,233,140,229,120,101,138,113,120,138,37,120,228,101,175,172,140,185,71,212,138,113,115,173,212,173,113,171,94,233,47,70,186,171,103,102,230,229,79,237,173,115,138,237,177,70,113,94,171,118,229,103,120,80,120,214,178,115,171,119,118,120,94,171,79,98,229,230,114,94,98,200,175,139,230,211,230,116,236,171,171,230,178,102,214,70,94,120,173,101,116,76,139,185,188,178,118,70,102,120,70,211,139,101,217];
scopes3y = [72,202,97,203,228,233,173,118,97,194,97,116,193,96,120,136,233,204,119,219,61,228,177,230,137,173,107,80,61,192,177,120,117,228,202,203,114,221,177,96,137,233,201,89,229,233,228,228,119,137,137,115,120,174,230,115,230,192,227,141,118,114,174,228,118,200,220,119,120,228,97,233,204,119,96,107,113,106,73,115,217,230,137,233,119,230,94,73,177,137,119,227,228,118,116,74,110,174,222,233,221,177,120,61,94,201,117,200,119,120,115,204,174,120,137,230,203,228,201,137,71,74,77,174,178,96,177,174,219,141,94,120,230,96,230,68,113,111,200,71,94,177,119,71,72,74,71,228,204,233,230,200,141,233,107,233,233,112,116,218,71,178,175,113,233,222,201,115,113,136,233,72,71,233,233,120,218,203,106,177,115,38,71,178,112,119,118,97,119,228,230,227,175,229,233,233,229,201,113,120,119,230,201,175,228,219,173,97,233,202,228,118,117,200,114,193,119,72,107,64,233,107,74,71,120,228,233,116,228,177,233,230,120,75,74,233,233,233,120,71,74,97,113,137,97,73,233,113,61,233,173,62,233,136,113,120,71,229,114,37,72,178,137,71,174,141,71,137,192,177,233,230,116,72,233,136,202,96,118,203,73,177,96,230,177,118,228,114,201,221,233,233,96,119,202,73,230,200,202,136,115,233,233,73,193,83,96,194,230,230,233,227,63,136,193,203,194,96,114,114,204,233,174,72,116,119,71,200,201,173,228,71,202,233,136,61,203,228,174,233,194,107,222,96,192,71,119,61,233,230,233,228,202,203,230,73,220,175,89,61,113,200,97,116,233,111,233,96,174,222,177,115,136,77,80,233,114,204,228,120,233,118,233,112,229,233,119,73,233,204,113,233,233,89,107,174,233,87,114,74,177,174,110,96,233,228,233,115,191,233,191,119,116,230,203,217,61,229,230,110,107,97,220,120,204,72,118,117,74,141,119,61,141,177,120,230,229,119,233,61,233,116,94,74,202,233,200,72,204,71,191,39,94,233,229,116,113,174,178,119,233,230,72,117,233,204,111,136,71,229,71,201,71,73,107,137,233,228,136,230,97,136,75,71,230,106,113,175,174,96,71,115,227,203,114,202,233,200,97,233,201,229,174,228,118,233,89,71,74,228,118,96,119,119,233,233,228,136,89,115,73,89,233,117,115,233];
scopes3z = [100,227,124,227,204,221,201,73,123,222,122,122,220,122,72,122,191,227,123,189,46,201,201,201,124,202,88,107,55,219,200,73,123,202,176,176,124,235,204,121,124,194,227,107,200,222,202,203,104,123,124,74,73,200,202,74,200,220,176,127,72,122,204,203,74,227,187,124,73,204,121,222,176,105,121,87,73,119,99,71,233,204,123,220,128,201,112,99,203,123,122,176,202,71,122,99,93,202,235,220,189,201,122,46,110,227,122,176,123,74,73,227,203,74,124,202,227,203,227,122,100,100,104,201,204,124,202,200,235,128,71,74,202,123,203,88,74,93,227,100,71,203,104,93,100,104,100,204,176,192,204,227,125,221,88,194,222,88,121,233,93,202,201,71,180,189,227,72,71,122,194,104,93,219,222,73,233,176,119,200,74,61,64,203,93,124,72,122,105,201,202,176,202,201,193,179,200,227,73,77,122,203,176,203,200,187,204,124,219,227,202,73,122,227,123,222,123,99,83,93,181,87,99,61,72,203,219,124,204,204,192,204,74,104,99,220,221,180,72,99,99,121,72,122,123,105,235,72,46,221,203,93,220,124,74,123,62,201,122,61,99,200,122,99,201,123,63,122,222,202,193,201,123,99,219,124,227,62,74,227,100,203,63,203,204,74,200,124,227,187,221,222,64,122,227,100,202,227,176,123,71,181,219,100,221,68,124,221,204,203,222,176,93,123,219,176,219,124,121,123,227,220,204,99,124,121,62,227,176,200,201,63,227,192,124,55,227,200,202,221,220,68,187,122,221,64,127,48,180,203,219,200,227,227,200,100,235,204,111,48,72,176,123,123,179,93,221,123,203,191,201,72,123,105,107,220,124,227,204,75,219,72,192,93,204,221,122,99,193,227,73,180,191,107,83,201,219,68,123,105,202,200,88,121,220,201,181,71,219,194,221,124,124,201,227,233,55,202,200,93,88,122,189,124,176,105,73,124,100,124,123,48,122,200,72,200,203,125,222,93,193,122,71,100,227,181,227,100,227,112,220,61,111,222,204,123,74,204,201,104,219,204,100,123,220,227,88,122,110,202,99,176,64,99,68,123,179,201,122,201,121,124,105,62,200,119,71,200,202,123,63,72,176,227,122,176,179,176,124,220,227,203,203,202,71,191,112,111,100,200,71,122,105,124,221,222,203,123,107,73,104,110,191,124,73,235];
num_tuples3 = [15,63,31,63,31,31,31,15,31,63,31,31,63,31,15,15,63,31,31,63,7,31,63,31,15,31,31,31,15,63,63,15,15,31,63,63,31,63,63,15,15,63,31,31,31,31,31,31,15,15,15,15,15,63,31,15,31,63,63,31,15,31,63,31,15,31,63,31,15,31,15,31,63,15,15,31,15,15,15,15,31,31,15,31,31,31,31,15,63,15,31,63,31,15,31,15,63,63,63,31,63,63,15,7,31,31,15,63,31,15,15,63,63,15,15,31,31,31,31,15,15,15,15,63,31,31,63,63,63,31,31,15,31,31,31,31,15,31,31,15,31,63,15,31,15,15,15,31,63,63,31,63,31,31,31,63,63,31,15,31,31,31,31,15,63,63,63,15,15,15,63,15,31,31,63,15,31,63,15,63,15,7,31,31,31,31,15,31,15,31,31,63,31,31,63,63,31,63,15,15,31,31,63,31,31,63,31,31,31,31,31,15,15,31,31,63,31,15,31,31,63,31,15,31,15,31,31,31,31,63,63,31,15,15,15,31,63,63,15,15,15,15,15,15,31,15,31,15,7,63,31,31,31,15,15,15,15,31,31,7,15,31,15,15,63,31,15,15,63,63,63,31,31,15,63,15,31,15,15,31,15,63,15,31,63,15,31,31,31,63,31,31,15,31,31,15,31,31,63,15,15,63,31,15,63,31,31,63,31,31,31,63,31,15,63,63,63,31,15,31,31,31,63,15,31,15,15,63,63,31,31,15,31,63,15,15,31,31,63,31,63,31,63,31,63,15,31,15,63,31,31,31,63,63,31,15,63,31,31,15,15,63,31,31,63,63,31,31,63,63,63,15,15,15,31,31,31,31,31,15,31,15,63,63,31,31,31,15,63,31,15,63,63,31,31,63,31,31,31,15,63,63,31,15,31,31,63,15,63,63,63,31,31,31,31,31,15,31,31,31,31,31,63,15,63,15,15,15,15,31,31,15,31,63,15,31,31,31,31,31,63,31,31,15,31,63,31,15,31,63,63,7,31,31,31,31,15,63,31,15,63,31,15,15,63,63,31,15,63,31,15,63,15,15,31,15,63,31,15,31,15,15,15,31,31,15,15,31,63,31,31,15,63,31,31,63,63,63,31,63,31,31,63,31,15,63,31,63,15,31,15,31,15,31,31,31,31,15,31,15,15,31,63,15,15,31];
cum_tuples3 = [0,15,78,109,172,203,234,265,280,311,374,405,436,499,530,545,560,623,654,685,748,755,786,849,880,895,926,957,988,1003,1066,1129,1144,1159,1190,1253,1316,1347,1410,1473,1488,1503,1566,1597,1628,1659,1690,1721,1752,1767,1782,1797,1812,1827,1890,1921,1936,1967,2030,2093,2124,2139,2170,2233,2264,2279,2310,2373,2404,2419,2450,2465,2496,2559,2574,2589,2620,2635,2650,2665,2680,2711,2742,2757,2788,2819,2850,2881,2896,2959,2974,3005,3068,3099,3114,3145,3160,3223,3286,3349,3380,3443,3506,3521,3528,3559,3590,3605,3668,3699,3714,3729,3792,3855,3870,3885,3916,3947,3978,4009,4024,4039,4054,4069,4132,4163,4194,4257,4320,4383,4414,4445,4460,4491,4522,4553,4584,4599,4630,4661,4676,4707,4770,4785,4816,4831,4846,4861,4892,4955,5018,5049,5112,5143,5174,5205,5268,5331,5362,5377,5408,5439,5470,5501,5516,5579,5642,5705,5720,5735,5750,5813,5828,5859,5890,5953,5968,5999,6062,6077,6140,6155,6162,6193,6224,6255,6286,6301,6332,6347,6378,6409,6472,6503,6534,6597,6660,6691,6754,6769,6784,6815,6846,6909,6940,6971,7034,7065,7096,7127,7158,7189,7204,7219,7250,7281,7344,7375,7390,7421,7452,7515,7546,7561,7592,7607,7638,7669,7700,7731,7794,7857,7888,7903,7918,7933,7964,8027,8090,8105,8120,8135,8150,8165,8180,8211,8226,8257,8272,8279,8342,8373,8404,8435,8450,8465,8480,8495,8526,8557,8564,8579,8610,8625,8640,8703,8734,8749,8764,8827,8890,8953,8984,9015,9030,9093,9108,9139,9154,9169,9200,9215,9278,9293,9324,9387,9402,9433,9464,9495,9558,9589,9620,9635,9666,9697,9712,9743,9774,9837,9852,9867,9930,9961,9976,10039,10070,10101,10164,10195,10226,10257,10320,10351,10366,10429,10492,10555,10586,10601,10632,10663,10694,10757,10772,10803,10818,10833,10896,10959,10990,11021,11036,11067,11130,11145,11160,11191,11222,11285,11316,11379,11410,11473,11504,11567,11582,11613,11628,11691,11722,11753,11784,11847,11910,11941,11956,12019,12050,12081,12096,12111,12174,12205,12236,12299,12362,12393,12424,12487,12550,12613,12628,12643,12658,12689,12720,12751,12782,12813,12828,12859,12874,12937,13000,13031,13062,13093,13108,13171,13202,13217,13280,13343,13374,13405,13468,13499,13530,13561,13576,13639,13702,13733,13748,13779,13810,13873,13888,13951,14014,14077,14108,14139,14170,14201,14232,14247,14278,14309,14340,14371,14402,14465,14480,14543,14558,14573,14588,14603,14634,14665,14680,14711,14774,14789,14820,14851,14882,14913,14944,15007,15038,15069,15084,15115,15178,15209,15224,15255,15318,15381,15388,15419,15450,15481,15512,15527,15590,15621,15636,15699,15730,15745,15760,15823,15886,15917,15932,15995,16026,16041,16104,16119,16134,16165,16180,16243,16274,16289,16320,16335,16350,16365,16396,16427,16442,16457,16488,16551,16582,16613,16628,16691,16722,16753,16816,16879,16942,16973,17036,17067,17098,17161,17192,17207,17270,17301,17364,17379,17410,17425,17456,17471,17502,17533,17564,17595,17610,17641,17656,17671,17702,17765,17780,17795];
constraints3 = [0,0,0,0,0,2,0,1,0,0,1,2,0,2,0,0,2,2,0,3,0,0,3,2,13,0,0,13,0,2,13,1,0,13,1,2,13,2,0,13,2,2,13,3,0,0,0,0,0,0,1,0,0,2,0,0,3,0,1,0,0,1,1,0,1,2,0,1,3,0,2,0,0,2,1,0,2,2,0,2,3,0,3,0,0,3,1,0,3,2,0,3,3,1,0,0,1,0,1,1,0,2,1,0,3,1,1,0,1,1,1,1,1,2,1,1,3,1,2,0,1,2,1,1,2,2,1,2,3,1,3,0,1,3,1,1,3,2,1,3,3,2,0,0,2,0,1,2,0,2,2,0,3,2,1,0,2,1,1,2,1,2,2,1,3,2,2,0,2,2,1,2,2,2,2,2,3,2,3,0,2,3,1,2,3,2,2,3,3,3,0,0,3,0,1,3,0,2,3,0,3,3,1,0,3,1,1,3,1,2,3,1,3,3,2,0,3,2,2,3,2,3,3,3,0,3,3,1,3,3,2,3,3,3,0,0,0,0,0,1,0,0,2,0,0,3,0,13,0,0,13,1,0,13,2,0,13,3,1,0,0,1,0,1,1,0,2,1,0,3,1,13,0,1,13,1,1,13,2,1,13,3,2,0,0,2,0,1,2,0,2,2,0,3,2,13,0,2,13,2,2,13,3,3,0,0,3,0,1,3,0,2,3,0,3,3,13,0,3,13,1,3,13,2,3,13,3,0,0,0,0,0,1,0,0,2,0,0,3,0,1,0,0,1,1,0,1,2,0,1,3,0,2,0,0,2,1,0,2,2,0,2,3,0,3,0,0,3,1,0,3,2,0,3,3,1,0,0,1,0,1,1,0,2,1,0,3,1,1,0,1,1,1,1,1,2,1,1,3,1,2,0,1,2,1,1,2,2,1,2,3,1,3,0,1,3,1,1,3,2,1,3,3,2,0,0,2,0,1,2,0,2,2,0,3,2,1,0,2,1,1,2,1,2,2,1,3,2,2,0,2,2,1,2,2,2,2,2,3,2,3,0,2,3,1,2,3,2,2,3,3,3,0,0,3,0,1,3,0,2,3,0,3,3,1,0,3,1,1,3,1,2,3,1,3,3,2,0,3,2,2,3,2,3,3,3,0,3,3,1,3,3,2,3,3,3,0,0,0,0,0,1,0,0,2,0,0,3,0,1,0,0,1,1,0,1,2,0,1,3,0,2,0,0,2,1,0,2,2,0,2,3,0,3,0,0,3,1,0,3,2,0,3,3,13,0,0,13,0,1,13,0,2,13,0,3,13,1,0,13,1,1,13,1,3,13,2,0,13,2,1,13,2,2,13,2,3,13,3,0,13,3,1,13,3,2,13,3,3,0,0,0,0,0,1,0,0,2,0,0,3,0,1,0,0,1,1,0,1,2,0,1,3,0,2,0,0,2,1,0,2,2,0,2,3,0,3,0,0,3,1,0,3,2,0,3,3,13,0,0,13,0,1,13,0,2,13,0,3,13,1,0,13,1,1,13,1,3,13,2,0,13,2,1,13,2,2,13,2,3,13,3,0,13,3,1,13,3,2,13,3,3,0,0,0,0,0,1,0,0,2,0,0,3,0,13,0,0,13,1,0,13,2,0,13,3,1,0,0,1,0,1,1,0,2,1,0,3,1,13,0,1,13,1,1,13,3,2,0,0,2,0,1,2,0,2,2,0,3,2,13,0,2,13,1,2,13,2,2,13,3,3,0,0,3,0,1,3,0,2,3,0,3,3,13,0,3,13,1,3,13,2,3,13,3,0,0,0,0,0,1,0,0,2,0,0,3,0,13,0,0,13,1,0,13,2,0,13,3,2,0,0,2,0,1,2,0,2,2,0,3,2,13,0,2,13,1,2,13,2,0,0,0,0,0,1,0,0,2,0,0,3,0,13,0,0,13,1,0,13,2,0,13,3,1,0,0,1,0,1,1,0,2,1,0,3,1,13,0,1,13,1,1,13,2,1,13,3,2,0,0,2,0,1,2,0,2,2,0,3,2,13,0,2,13,2,2,13,3,3,0,0,3,0,1,3,0,2,3,0,3,3,13,0,3,13,1,3,13,2,3,13,3,0,0,0,0,0,1,0,0,2,0,0,3,0,1,0,0,1,1,0,1,2,0,1,3,0,2,0,0,2,1,0,2,2,0,2,3,0,3,0,0,3,1,0,3,2,0,3,3,1,0,0,1,0,1,1,0,2,1,0,3,1,1,0,1,1,1,1,1,2,1,1,3,1,2,0,1,2,1,1,2,2,1,2,3,1,3,0,1,3,1,1,3,3,2,0,0,2,0,1,2,0,2,2,0,3,2,1,0,2,1,1,2,1,2,2,1,3,2,2,0,2,2,1,2,2,2,2,2,3,2,3,0,2,3,1,2,3,2,2,3,3,3,0,0,3,0,1,3,0,2,3,0,3,3,1,0,3,1,1,3,1,2,3,1,3,3,2,0,3,2,1,3,2,2,3,2,3,3,3,0,3,3,1,3,3,2,3,3,3,0,0,0,0,0,1,0,0,2,0,0,3,0,13,0,0,13,1,0,13,2,0,13,3,1,0,0,1,0,1,1,0,2,1,0,3,1,13,0,1,13,1,1,13,2,1,13,3,2,0,0,2,0,1,2,0,2,2,0,3,2,13,0,2,13,2,2,13,3,3,0,0,3,0,1,3,0,2,3,0,3,3,13,0,3,13,1,3,13,2,3,13,3,0,0,0,0,0,1,0,0,2,0,0,3,0,1,0,0,1,1,0,1,2,0,1,3,0,2,0,0,2,1,0,2,2,0,2,3,0,3,0,0,3,1,0,3,2,0,3,3,13,0,0,13,0,1,13,0,2,13,0,3,13,1,0,13,1,1,13,1,2,13,1,3,13,2,0,13,2,1,13,2,2,13,2,3,13,3,0,13,3,1,13,3,3,0,0,0,0,0,1,0,0,2,0,0,3,0,1,0,0,1,1,0,1,2,0,1,3,0,2,0,0,2,1,0,2,2,0,2,3,0,3,0,0,3,1,0,3,2,0,3,3,1,0,0,1,0,1,1,0,2,1,0,3,1,1,0,1,1,1,1,1,2,1,1,3,1,2,0,1,2,1,1,2,2,1,2,3,1,3,0,1,3,1,1,3,3,2,0,0,2,0,1,2,0,2,2,0,3,2,1,0,2,1,1,2,1,2,2,1,3,2,2,0,2,2,1,2,2,2,2,2,3,2,3,0,2,3,1,2,3,2,2,3,3,3,0,0,3,0,1,3,0,2,3,0,3,3,1,0,3,1,1,3,1,2,3,1,3,3,2,0,3,2,1,3,2,2,3,2,3,3,3,0,3,3,1,3,3,2,3,3,3,0,0,0,0,0,1,0,0,2,0,0,3,0,13,0,0,13,1,0,13,2,0,13,3,1,0,0,1,0,1,1,0,2,1,0,3,1,13,0,1,13,1,1,13,2,1,13,3,2,0,0,2,0,1,2,0,2,2,0,3,2,13,0,2,13,2,2,13,3,3,0,0,3,0,1,3,0,2,3,0,3,3,13,0,3,13,1,3,13,2,3,13,3,0,0,0,0,0,1,0,0,2,0,0,3,0,13,0,0,13,1,0,13,2,0,13,3,2,0,0,2,0,1,2,0,2,2,0,3,2,13,0,2,13,1,2,13,2,0,0,0,0,0,1,0,0,2,0,0,3,0,13,0,0,13,1,0,13,2,0,13,3,13,0,0,13,0,1,13,0,2,13,0,3,13,13,0,13,13,1,13,13,3,0,0,0,0,0,1,0,0,2,0,0,3,0,1,0,0,1,1,0,1,2,0,1,3,0,2,0,0,2,1,0,2,2,0,2,3,0,3,0,0,3,1,0,3,2,0,3,3,1,0,0,1,0,1,1,0,2,1,0,3,1,1,0,1,1,1,1,1,2,1,1,3,1,2,0,1,2,1,1,2,2,1,2,3,1,3,0,1,3,1,1,3,2,1,3,3,2,0,0,2,0,1,2,0,2,2,0,3,2,1,0,2,1,1,2,1,2,2,2,0,2,2,1,2,2,2,2,2,3,2,3,0,2,3,1,2,3,2,2,3,3,3,0,0,3,0,1,3,0,2,3,0,3,3,1,0,3,1,1,3,1,2,3,1,3,3,2,0,3,2,1,3,2,2,3,2,3,3,3,0,3,3,1,3,3,2,3,3,3,0,0,0,0,0,1,0,0,2,0,0,3,0,1,0,0,1,1,0,1,2,0,1,3,0,2,0,0,2,1,0,2,2,0,2,3,0,3,0,0,3,1,0,3,2,0,3,3,13,0,0,13,0,1,13,0,2,13,0,3,13,1,0,13,1,1,13,1,2,13,1,3,13,2,0,13,2,2,13,2,3,13,3,0,13,3,1,13,3,2,13,3,3,0,0,0,0,0,1,0,0,2,0,0,3,0,1,0,0,1,1,0,1,2,0,1,3,0,2,0,0,2,1,0,2,2,0,2,3,0,3,0,0,3,1,0,3,2,0,3,3,13,0,0,13,0,1,13,0,2,13,0,3,13,1,0,13,1,1,13,1,2,13,1,3,13,2,0,13,2,1,13,2,2,13,2,3,13,3,0,13,3,1,13,3,3,0,0,0,0,0,1,0,0,2,0,0,3,0,1,0,0,1,1,0,1,2,0,1,3,0,2,0,0,2,1,0,2,2,0,2,3,0,3,0,0,3,1,0,3,2,0,3,3,1,0,0,1,0,1,1,0,2,1,0,3,1,1,0,1,1,1,1,1,2,1,1,3,1,2,0,1,2,1,1,2,2,1,3,0,1,3,1,1,3,2,1,3,3,2,0,0,2,0,1,2,0,2,2,0,3,2,1,0,2,1,1,2,1,2,2,1,3,2,2,0,2,2,1,2,2,2,2,2,3,2,3,0,2,3,1,2,3,2,2,3,3,3,0,0,3,0,1,3,0,2,3,0,3,3,1,0,3,1,1,3,1,2,3,1,3,3,2,0,3,2,1,3,2,2,3,2,3,3,3,0,3,3,1,3,3,2,3,3,3,0,0,0,0,0,2,0,13,0,0,13,2,13,0,0,13,0,2,13,13,0,0,0,0,0,0,1,0,0,2,0,0,3,0,1,0,0,1,1,0,1,2,0,1,3,0,2,0,0,2,1,0,2,2,0,2,3,0,3,0,0,3,1,0,3,2,0,3,3,13,0,0,13,0,1,13,0,2,13,0,3,13,1,0,13,1,1,13,1,3,13,2,0,13,2,1,13,2,2,13,2,3,13,3,0,13,3,1,13,3,2,13,3,3,0,0,0,0,0,1,0,0,2,0,0,3,0,1,0,0,1,1,0,1,2,0,1,3,0,2,0,0,2,1,0,2,2,0,2,3,0,3,0,0,3,1,0,3,2,0,3,3,1,0,0,1,0,1,1,0,2,1,0,3,1,1,0,1,1,1,1,1,2,1,1,3,1,2,0,1,2,1,1,2,2,1,2,3,1,3,0,1,3,1,1,3,3,2,0,0,2,0,1,2,0,2,2,0,3,2,1,0,2,1,1,2,1,2,2,1,3,2,2,0,2,2,1,2,2,2,2,2,3,2,3,0,2,3,1,2,3,2,2,3,3,3,0,0,3,0,1,3,0,2,3,0,3,3,1,0,3,1,1,3,1,2,3,1,3,3,2,0,3,2,1,3,2,2,3,2,3,3,3,0,3,3,1,3,3,2,3,3,3,0,0,0,0,0,1,0,0,2,0,0,3,0,1,0,0,1,1,0,1,2,0,1,3,0,2,0,0,2,1,0,2,2,0,2,3,0,3,0,0,3,1,0,3,2,0,3,3,13,0,0,13,0,1,13,0,2,13,0,3,13,1,0,13,1,1,13,1,3,13,2,0,13,2,1,13,2,2,13,2,3,13,3,0,13,3,1,13,3,2,13,3,3,0,0,0,0,0,1,0,0,2,0,0,3,0,13,0,0,13,1,0,13,2,0,13,3,13,0,0,13,0,1,13,0,2,13,0,3,13,13,0,13,13,1,13,13,3,0,0,0,0,0,1,0,0,2,0,0,3,0,13,0,0,13,1,0,13,2,0,13,3,1,0,0,1,0,1,1,0,2,1,0,3,1,13,0,1,13,1,1,13,3,2,0,0,2,0,1,2,0,2,2,0,3,2,13,0,2,13,1,2,13,2,2,13,3,3,0,0,3,0,1,3,0,2,3,0,3,3,13,0,3,13,1,3,13,2,3,13,3,0,0,0,0,0,1,0,0,2,0,0,3,0,1,0,0,1,1,0,1,2,0,1,3,0,2,0,0,2,1,0,2,2,0,2,3,0,3,0,0,3,1,0,3,2,0,3,3,13,0,0,13,0,1,13,0,2,13,0,3,13,1,0,13,1,1,13,1,3,13,2,0,13,2,1,13,2,2,13,2,3,13,3,0,13,3,1,13,3,2,13,3,3,0,0,0,0,0,1,0,0,2,0,0,3,0,1,0,0,1,1,0,1,2,0,1,3,0,2,0,0,2,1,0,2,2,0,2,3,0,3,0,0,3,1,0,3,2,0,3,3,13,0,0,13,0,1,13,0,2,13,0,3,13,1,0,13,1,1,13,1,2,13,1,3,13,2,0,13,2,2,13,2,3,13,3,0,13,3,1,13,3,2,13,3,3,0,0,0,0,0,1,0,0,2,0,0,3,0,13,0,0,13,1,0,13,2,0,13,3,13,0,0,13,0,1,13,0,2,13,0,3,13,13,0,13,13,1,13,13,3,0,0,0,0,0,1,0,0,2,0,0,3,0,1,0,0,1,1,0,1,2,0,1,3,0,2,0,0,2,1,0,2,2,0,2,3,0,3,0,0,3,1,0,3,2,0,3,3,1,0,0,1,0,1,1,0,2,1,0,3,1,1,0,1,1,1,1,1,2,1,1,3,1,2,0,1,2,1,1,2,2,1,2,3,1,3,0,1,3,1,1,3,3,2,0,0,2,0,1,2,0,2,2,0,3,2,1,0,2,1,1,2,1,2,2,1,3,2,2,0,2,2,1,2,2,2,2,2,3,2,3,0,2,3,1,2,3,2,2,3,3,3,0,0,3,0,1,3,0,2,3,0,3,3,1,0,3,1,1,3,1,2,3,1,3,3,2,0,3,2,1,3,2,2,3,2,3,3,3,0,3,3,1,3,3,2,3,3,3,0,0,0,0,0,1,0,0,2,0,0,3,0,1,0,0,1,1,0,1,2,0,1,3,0,2,0,0,2,1,0,2,2,0,2,3,0,3,0,0,3,1,0,3,2,0,3,3,1,0,0,1,0,1,1,0,2,1,0,3,1,1,0,1,1,1,1,1,2,1,1,3,1,2,0,1,2,1,1,2,2,1,2,3,1,3,0,1,3,1,1,3,3,2,0,0,2,0,1,2,0,2,2,0,3,2,1,0,2,1,1,2,1,2,2,1,3,2,2,0,2,2,1,2,2,2,2,2,3,2,3,0,2,3,1,2,3,2,2,3,3,3,0,0,3,0,1,3,0,2,3,0,3,3,1,0,3,1,1,3,1,2,3,1,3,3,2,0,3,2,1,3,2,2,3,2,3,3,3,0,3,3,1,3,3,2,3,3,3,0,0,0,0,0,1,0,0,2,0,0,3,0,13,0,0,13,1,0,13,2,0,13,3,2,0,0,2,0,1,2,0,2,2,0,3,2,13,0,2,13,1,2,13,2,0,0,0,0,0,1,0,0,2,0,0,3,0,13,0,0,13,1,0,13,2,0,13,3,13,0,0,13,0,1,13,0,2,13,0,3,13,13,0,13,13,1,13,13,3,0,0,0,0,0,1,0,0,2,0,0,3,0,1,0,0,1,1,0,1,2,0,1,3,0,2,0,0,2,1,0,2,2,0,2,3,0,3,0,0,3,1,0,3,2,0,3,3,13,0,0,13,0,1,13,0,2,13,0,3,13,1,0,13,1,1,13,1,3,13,2,0,13,2,1,13,2,2,13,2,3,13,3,0,13,3,1,13,3,2,13,3,3,0,0,0,0,0,1,0,0,2,0,0,3,0,1,0,0,1,1,0,1,2,0,1,3,0,2,0,0,2,1,0,2,2,0,2,3,0,3,0,0,3,1,0,3,2,0,3,3,1,0,0,1,0,1,1,0,2,1,0,3,1,1,0,1,1,1,1,1,2,1,1,3,1,2,0,1,2,1,1,2,2,1,3,0,1,3,1,1,3,2,1,3,3,2,0,0,2,0,1,2,0,2,2,0,3,2,1,0,2,1,1,2,1,2,2,1,3,2,2,0,2,2,1,2,2,2,2,2,3,2,3,0,2,3,1,2,3,2,2,3,3,3,0,0,3,0,1,3,0,2,3,0,3,3,1,0,3,1,1,3,1,2,3,1,3,3,2,0,3,2,1,3,2,2,3,2,3,3,3,0,3,3,1,3,3,2,3,3,3,0,0,0,0,0,1,0,0,2,0,0,3,0,1,0,0,1,1,0,1,2,0,1,3,0,2,0,0,2,1,0,2,2,0,2,3,0,3,0,0,3,1,0,3,2,0,3,3,1,0,0,1,0,1,1,0,2,1,0,3,1,1,0,1,1,1,1,1,2,1,1,3,1,2,0,1,2,1,1,2,2,1,3,0,1,3,1,1,3,2,1,3,3,2,0,0,2,0,1,2,0,2,2,0,3,2,1,0,2,1,1,2,1,2,2,1,3,2,2,0,2,2,1,2,2,2,2,2,3,2,3,0,2,3,1,2,3,2,2,3,3,3,0,0,3,0,1,3,0,2,3,0,3,3,1,0,3,1,1,3,1,2,3,1,3,3,2,0,3,2,1,3,2,2,3,2,3,3,3,0,3,3,1,3,3,2,3,3,3,0,0,0,0,0,1,0,0,2,0,0,3,0,1,0,0,1,1,0,1,2,0,1,3,0,2,0,0,2,1,0,2,2,0,2,3,0,3,0,0,3,1,0,3,2,0,3,3,13,0,0,13,0,1,13,0,2,13,0,3,13,1,0,13,1,1,13,1,2,13,1,3,13,2,0,13,2,2,13,2,3,13,3,0,13,3,1,13,3,2,13,3,3,0,0,0,0,0,1,0,0,2,0,0,3,0,1,0,0,1,1,0,1,2,0,1,3,0,2,0,0,2,1,0,2,2,0,2,3,0,3,0,0,3,1,0,3,2,0,3,3,1,0,0,1,0,1,1,0,2,1,0,3,1,1,0,1,1,1,1,1,2,1,1,3,1,2,0,1,2,1,1,2,2,1,2,3,1,3,0,1,3,1,1,3,2,1,3,3,2,0,0,2,0,1,2,0,2,2,0,3,2,1,0,2,1,1,2,1,2,2,1,3,2,2,0,2,2,1,2,2,2,2,2,3,2,3,0,2,3,2,2,3,3,3,0,0,3,0,1,3,0,2,3,0,3,3,1,0,3,1,1,3,1,2,3,1,3,3,2,0,3,2,1,3,2,2,3,2,3,3,3,0,3,3,1,3,3,2,3,3,3,0,0,0,0,0,1,0,0,2,0,0,3,0,1,0,0,1,1,0,1,2,0,1,3,0,2,0,0,2,1,0,2,2,0,2,3,0,3,0,0,3,1,0,3,2,0,3,3,1,0,0,1,0,1,1,0,2,1,0,3,1,1,0,1,1,1,1,1,2,1,1,3,1,2,0,1,2,1,1,2,2,1,2,3,1,3,0,1,3,1,1,3,3,2,0,0,2,0,1,2,0,2,2,0,3,2,1,0,2,1,1,2,1,2,2,1,3,2,2,0,2,2,1,2,2,2,2,2,3,2,3,0,2,3,1,2,3,2,2,3,3,3,0,0,3,0,1,3,0,2,3,0,3,3,1,0,3,1,1,3,1,2,3,1,3,3,2,0,3,2,1,3,2,2,3,2,3,3,3,0,3,3,1,3,3,2,3,3,3,0,0,0,0,0,13,0,13,0,0,13,13,1,0,0,1,0,13,1,13,0,1,13,13,2,0,0,2,0,13,2,13,0,3,0,0,3,0,13,3,13,0,3,13,13,0,0,0,0,0,1,0,0,2,0,0,3,0,13,0,0,13,1,0,13,2,0,13,3,13,0,0,13,0,1,13,0,2,13,0,3,13,13,0,13,13,1,13,13,3,0,0,0,0,0,1,0,0,2,0,0,3,0,1,0,0,1,1,0,1,2,0,1,3,0,2,0,0,2,1,0,2,2,0,2,3,0,3,0,0,3,1,0,3,2,0,3,3,1,0,0,1,0,1,1,0,2,1,0,3,1,1,0,1,1,1,1,1,2,1,1,3,1,2,0,1,2,1,1,2,2,1,2,3,1,3,0,1,3,1,1,3,2,1,3,3,2,0,0,2,0,1,2,0,2,2,0,3,2,1,0,2,1,1,2,1,2,2,2,0,2,2,1,2,2,2,2,2,3,2,3,0,2,3,1,2,3,2,2,3,3,3,0,0,3,0,1,3,0,2,3,0,3,3,1,0,3,1,1,3,1,2,3,1,3,3,2,0,3,2,1,3,2,2,3,2,3,3,3,0,3,3,1,3,3,2,3,3,3,0,0,0,0,0,1,0,0,2,0,0,3,0,1,0,0,1,1,0,1,2,0,1,3,0,2,0,0,2,1,0,2,2,0,2,3,0,3,0,0,3,1,0,3,2,0,3,3,13,0,0,13,0,1,13,0,2,13,0,3,13,1,0,13,1,1,13,1,2,13,1,3,13,2,0,13,2,2,13,2,3,13,3,0,13,3,1,13,3,2,13,3,3,0,0,0,0,0,1,0,0,2,0,0,3,0,1,0,0,1,1,0,1,2,0,1,3,0,2,0,0,2,1,0,2,2,0,2,3,0,3,0,0,3,1,0,3,2,0,3,3,13,0,0,13,0,1,13,0,2,13,0,3,13,1,0,13,1,1,13,1,2,13,1,3,13,2,0,13,2,2,13,2,3,13,3,0,13,3,1,13,3,2,13,3,3,0,0,0,0,0,1,0,0,2,0,0,3,0,1,0,0,1,1,0,1,2,0,1,3,0,2,0,0,2,1,0,2,2,0,2,3,0,3,0,0,3,1,0,3,2,0,3,3,13,0,0,13,0,1,13,0,2,13,0,3,13,1,0,13,1,1,13,1,3,13,2,0,13,2,1,13,2,2,13,2,3,13,3,0,13,3,1,13,3,2,13,3,3,0,0,0,0,0,1,0,0,2,0,0,3,0,1,0,0,1,1,0,1,2,0,1,3,0,2,0,0,2,1,0,2,2,0,2,3,0,3,0,0,3,1,0,3,2,0,3,3,13,0,0,13,0,1,13,0,2,13,0,3,13,1,0,13,1,1,13,1,3,13,2,0,13,2,1,13,2,2,13,2,3,13,3,0,13,3,1,13,3,2,13,3,3,0,0,0,0,0,1,0,0,2,0,0,3,0,1,0,0,1,1,0,1,2,0,1,3,0,2,0,0,2,1,0,2,2,0,2,3,0,3,0,0,3,1,0,3,2,0,3,3,13,0,0,13,0,1,13,0,2,13,0,3,13,1,0,13,1,1,13,1,3,13,2,0,13,2,1,13,2,2,13,2,3,13,3,0,13,3,1,13,3,2,13,3,3,0,0,0,0,0,1,0,0,2,0,0,3,0,1,0,0,1,1,0,1,2,0,1,3,0,2,0,0,2,1,0,2,2,0,2,3,0,3,0,0,3,1,0,3,2,0,3,3,13,0,0,13,0,1,13,0,2,13,0,3,13,1,0,13,1,1,13,1,3,13,2,0,13,2,1,13,2,2,13,2,3,13,3,0,13,3,1,13,3,2,13,3,3,0,0,0,0,0,2,0,1,0,0,1,2,0,2,0,0,2,2,0,3,0,0,3,2,13,0,0,13,0,2,13,1,0,13,2,0,13,2,2,13,3,0,13,3,2,0,0,0,0,0,1,0,0,2,0,0,3,0,13,0,0,13,1,0,13,2,0,13,3,13,0,0,13,0,1,13,0,2,13,0,3,13,13,0,13,13,1,13,13,3,0,0,0,0,0,1,0,0,2,0,0,3,0,13,0,0,13,1,0,13,2,0,13,3,13,0,0,13,0,1,13,0,2,13,0,3,13,13,0,13,13,1,13,13,3,0,0,0,0,0,1,0,0,2,0,0,3,0,13,0,0,13,1,0,13,2,0,13,3,2,0,0,2,0,1,2,0,2,2,0,3,2,13,0,2,13,1,2,13,2,0,0,0,0,0,1,0,0,2,0,0,3,0,13,0,0,13,1,0,13,2,0,13,3,2,0,0,2,0,1,2,0,2,2,0,3,2,13,0,2,13,1,2,13,2,0,0,0,0,0,1,0,0,2,0,0,3,0,1,0,0,1,1,0,1,2,0,1,3,0,2,0,0,2,1,0,2,2,0,2,3,0,3,0,0,3,1,0,3,2,0,3,3,1,0,0,1,0,1,1,0,2,1,0,3,1,1,0,1,1,1,1,1,2,1,1,3,1,2,0,1,2,1,1,2,2,1,2,3,1,3,0,1,3,1,1,3,3,2,0,0,2,0,1,2,0,2,2,0,3,2,1,0,2,1,1,2,1,2,2,1,3,2,2,0,2,2,1,2,2,2,2,2,3,2,3,0,2,3,1,2,3,2,2,3,3,3,0,0,3,0,1,3,0,2,3,0,3,3,1,0,3,1,1,3,1,2,3,1,3,3,2,0,3,2,1,3,2,2,3,2,3,3,3,0,3,3,1,3,3,2,3,3,3,0,0,0,0,0,1,0,0,2,0,0,3,0,1,0,0,1,1,0,1,2,0,1,3,0,2,0,0,2,1,0,2,2,0,2,3,0,3,0,0,3,1,0,3,2,0,3,3,13,0,0,13,0,1,13,0,2,13,0,3,13,1,0,13,1,1,13,1,3,13,2,0,13,2,1,13,2,2,13,2,3,13,3,0,13,3,1,13,3,2,13,3,3,0,0,0,0,0,1,0,0,2,0,0,3,0,13,0,0,13,1,0,13,2,0,13,3,2,0,0,2,0,1,2,0,2,2,0,3,2,13,0,2,13,1,2,13,2,0,0,0,0,0,1,0,0,2,0,0,3,0,1,0,0,1,1,0,1,2,0,1,3,0,2,0,0,2,1,0,2,2,0,2,3,0,3,0,0,3,1,0,3,2,0,3,3,13,0,0,13,0,1,13,0,2,13,0,3,13,1,0,13,1,1,13,1,3,13,2,0,13,2,1,13,2,2,13,2,3,13,3,0,13,3,1,13,3,2,13,3,3,0,0,0,0,0,1,0,0,2,0,0,3,0,1,0,0,1,1,0,1,2,0,1,3,0,2,0,0,2,1,0,2,2,0,2,3,0,3,0,0,3,1,0,3,2,0,3,3,1,0,0,1,0,1,1,0,2,1,0,3,1,1,0,1,1,1,1,1,2,1,1,3,1,2,0,1,2,1,1,2,2,1,2,3,1,3,0,1,3,1,1,3,3,2,0,0,2,0,1,2,0,2,2,0,3,2,1,0,2,1,1,2,1,2,2,1,3,2,2,0,2,2,1,2,2,2,2,2,3,2,3,0,2,3,1,2,3,2,2,3,3,3,0,0,3,0,1,3,0,2,3,0,3,3,1,0,3,1,1,3,1,2,3,1,3,3,2,0,3,2,1,3,2,2,3,2,3,3,3,0,3,3,1,3,3,2,3,3,3,0,0,0,0,0,1,0,0,2,0,0,3,0,1,0,0,1,1,0,1,2,0,1,3,0,2,0,0,2,1,0,2,2,0,2,3,0,3,0,0,3,1,0,3,2,0,3,3,1,0,0,1,0,1,1,0,2,1,0,3,1,1,0,1,1,1,1,1,2,1,1,3,1,2,0,1,2,1,1,2,2,1,2,3,1,3,0,1,3,1,1,3,2,1,3,3,2,0,0,2,0,1,2,0,2,2,0,3,2,1,0,2,1,1,2,1,2,2,2,0,2,2,1,2,2,2,2,2,3,2,3,0,2,3,1,2,3,2,2,3,3,3,0,0,3,0,1,3,0,2,3,0,3,3,1,0,3,1,1,3,1,2,3,1,3,3,2,0,3,2,1,3,2,2,3,2,3,3,3,0,3,3,1,3,3,2,3,3,3,0,0,0,0,0,1,0,0,2,0,0,3,0,1,0,0,1,1,0,1,2,0,1,3,0,2,0,0,2,1,0,2,2,0,2,3,0,3,0,0,3,1,0,3,2,0,3,3,13,0,0,13,0,1,13,0,2,13,0,3,13,1,0,13,1,1,13,1,3,13,2,0,13,2,1,13,2,2,13,2,3,13,3,0,13,3,1,13,3,2,13,3,3,0,0,0,0,0,1,0,0,2,0,0,3,0,13,0,0,13,1,0,13,2,0,13,3,2,0,0,2,0,1,2,0,2,2,0,3,2,13,0,2,13,1,2,13,2,0,0,0,0,0,1,0,0,2,0,0,3,0,1,0,0,1,1,0,1,2,0,1,3,0,2,0,0,2,1,0,2,2,0,2,3,0,3,0,0,3,1,0,3,2,0,3,3,13,0,0,13,0,1,13,0,2,13,0,3,13,1,0,13,1,1,13,1,2,13,1,3,13,2,0,13,2,1,13,2,2,13,2,3,13,3,0,13,3,1,13,3,3,0,0,0,0,0,1,0,0,2,0,0,3,0,1,0,0,1,1,0,1,2,0,1,3,0,2,0,0,2,1,0,2,2,0,2,3,0,3,0,0,3,1,0,3,2,0,3,3,1,0,0,1,0,1,1,0,2,1,0,3,1,1,0,1,1,1,1,1,2,1,1,3,1,2,0,1,2,1,1,2,2,1,2,3,1,3,0,1,3,1,1,3,3,2,0,0,2,0,1,2,0,2,2,0,3,2,1,0,2,1,1,2,1,2,2,1,3,2,2,0,2,2,1,2,2,2,2,2,3,2,3,0,2,3,1,2,3,2,2,3,3,3,0,0,3,0,1,3,0,2,3,0,3,3,1,0,3,1,1,3,1,2,3,1,3,3,2,0,3,2,1,3,2,2,3,2,3,3,3,0,3,3,1,3,3,2,3,3,3,0,0,0,0,0,1,0,0,2,0,0,3,0,1,0,0,1,1,0,1,2,0,1,3,0,2,0,0,2,1,0,2,2,0,2,3,0,3,0,0,3,1,0,3,2,0,3,3,13,0,0,13,0,1,13,0,2,13,0,3,13,1,0,13,1,1,13,1,3,13,2,0,13,2,1,13,2,2,13,2,3,13,3,0,13,3,1,13,3,2,13,3,3,0,0,0,0,0,1,0,0,2,0,0,3,0,13,0,0,13,1,0,13,2,0,13,3,2,0,0,2,0,1,2,0,2,2,0,3,2,13,0,2,13,1,2,13,2,0,0,0,0,0,1,0,0,2,0,0,3,0,1,0,0,1,1,0,1,2,0,1,3,0,2,0,0,2,1,0,2,2,0,2,3,0,3,0,0,3,1,0,3,2,0,3,3,13,0,0,13,0,1,13,0,2,13,0,3,13,1,0,13,1,1,13,1,2,13,1,3,13,2,0,13,2,2,13,2,3,13,3,0,13,3,1,13,3,2,13,3,3,0,0,0,0,0,1,0,0,2,0,0,3,0,1,0,0,1,1,0,1,2,0,1,3,0,2,0,0,2,1,0,2,2,0,2,3,0,3,0,0,3,1,0,3,2,0,3,3,1,0,0,1,0,1,1,0,2,1,0,3,1,1,0,1,1,1,1,1,2,1,1,3,1,2,0,1,2,1,1,2,2,1,3,0,1,3,1,1,3,2,1,3,3,2,0,0,2,0,1,2,0,2,2,0,3,2,1,0,2,1,1,2,1,2,2,1,3,2,2,0,2,2,1,2,2,2,2,2,3,2,3,0,2,3,1,2,3,2,2,3,3,3,0,0,3,0,1,3,0,2,3,0,3,3,1,0,3,1,1,3,1,2,3,1,3,3,2,0,3,2,1,3,2,2,3,2,3,3,3,0,3,3,1,3,3,2,3,3,3,0,0,0,0,0,1,0,0,2,0,0,3,0,1,0,0,1,1,0,1,2,0,1,3,0,2,0,0,2,1,0,2,2,0,2,3,0,3,0,0,3,1,0,3,2,0,3,3,13,0,0,13,0,1,13,0,2,13,0,3,13,1,0,13,1,1,13,1,2,13,1,3,13,2,0,13,2,2,13,2,3,13,3,0,13,3,1,13,3,2,13,3,3,0,0,0,0,0,1,0,0,2,0,0,3,0,13,0,0,13,1,0,13,2,0,13,3,2,0,0,2,0,1,2,0,2,2,0,3,2,13,0,2,13,1,2,13,2,0,0,0,0,0,1,0,0,2,0,0,3,0,1,0,0,1,1,0,1,2,0,1,3,0,2,0,0,2,1,0,2,2,0,2,3,0,3,0,0,3,1,0,3,2,0,3,3,13,0,0,13,0,1,13,0,2,13,0,3,13,1,0,13,1,1,13,1,3,13,2,0,13,2,1,13,2,2,13,2,3,13,3,0,13,3,1,13,3,2,13,3,3,0,0,0,0,0,13,0,13,0,0,13,13,1,0,0,1,0,13,1,13,0,1,13,13,2,0,0,2,0,13,2,13,0,3,0,0,3,0,13,3,13,0,3,13,13,0,0,0,0,0,1,0,0,2,0,0,3,0,1,0,0,1,1,0,1,2,0,1,3,0,2,0,0,2,1,0,2,2,0,2,3,0,3,0,0,3,1,0,3,2,0,3,3,13,0,0,13,0,1,13,0,2,13,0,3,13,1,0,13,1,1,13,1,3,13,2,0,13,2,1,13,2,2,13,2,3,13,3,0,13,3,1,13,3,2,13,3,3,0,0,0,0,0,1,0,0,2,0,0,3,0,1,0,0,1,1,0,1,2,0,1,3,0,2,0,0,2,1,0,2,2,0,2,3,0,3,0,0,3,1,0,3,2,0,3,3,1,0,0,1,0,1,1,0,2,1,0,3,1,1,0,1,1,1,1,1,2,1,1,3,1,2,0,1,2,1,1,2,2,1,3,0,1,3,1,1,3,2,1,3,3,2,0,0,2,0,1,2,0,2,2,0,3,2,1,0,2,1,1,2,1,2,2,1,3,2,2,0,2,2,1,2,2,2,2,2,3,2,3,0,2,3,1,2,3,2,2,3,3,3,0,0,3,0,1,3,0,2,3,0,3,3,1,0,3,1,1,3,1,2,3,1,3,3,2,0,3,2,1,3,2,2,3,2,3,3,3,0,3,3,1,3,3,2,3,3,3,0,0,0,0,0,2,0,1,0,0,1,2,0,2,0,0,2,2,0,3,0,0,3,2,13,0,0,13,0,2,13,1,0,13,2,0,13,2,2,13,3,0,13,3,2,0,0,0,0,0,13,0,13,0,0,13,13,1,0,0,1,0,13,1,13,0,1,13,13,2,0,0,2,0,13,2,13,0,3,0,0,3,0,13,3,13,0,3,13,13,0,0,0,0,0,1,0,0,2,0,0,3,0,1,0,0,1,1,0,1,2,0,1,3,0,2,0,0,2,1,0,2,2,0,2,3,0,3,0,0,3,1,0,3,2,0,3,3,13,0,0,13,0,1,13,0,2,13,0,3,13,1,0,13,1,1,13,1,3,13,2,0,13,2,1,13,2,2,13,2,3,13,3,0,13,3,1,13,3,2,13,3,3,0,0,0,0,0,1,0,0,2,0,0,3,0,13,0,0,13,1,0,13,2,0,13,3,2,0,0,2,0,1,2,0,2,2,0,3,2,13,0,2,13,1,2,13,2,0,0,0,0,0,1,0,0,2,0,0,3,0,2,0,0,2,1,0,2,2,0,2,3,13,0,0,13,0,1,13,0,2,13,0,3,13,2,0,13,2,2,13,2,3,0,0,0,0,0,2,0,1,0,0,1,2,0,2,0,0,2,2,0,3,0,0,3,2,13,0,0,13,0,2,13,1,0,13,1,2,13,2,0,13,2,2,13,3,0,0,0,0,0,0,1,0,0,2,0,0,3,0,13,0,0,13,1,0,13,2,0,13,3,2,0,0,2,0,1,2,0,2,2,0,3,2,13,0,2,13,1,2,13,2,0,0,0,0,0,1,0,0,2,0,0,3,0,13,0,0,13,1,0,13,2,0,13,3,1,0,0,1,0,1,1,0,2,1,0,3,1,13,0,1,13,1,1,13,3,2,0,0,2,0,1,2,0,2,2,0,3,2,13,0,2,13,1,2,13,2,2,13,3,3,0,0,3,0,1,3,0,2,3,0,3,3,13,0,3,13,1,3,13,2,3,13,3,0,0,0,0,0,1,0,0,2,0,0,3,0,1,0,0,1,1,0,1,2,0,1,3,0,2,0,0,2,1,0,2,2,0,2,3,0,3,0,0,3,1,0,3,2,0,3,3,13,0,0,13,0,1,13,0,2,13,0,3,13,1,0,13,1,1,13,1,3,13,2,0,13,2,1,13,2,2,13,2,3,13,3,0,13,3,1,13,3,2,13,3,3,0,0,0,0,0,1,0,0,2,0,0,3,0,13,0,0,13,1,0,13,2,0,13,3,13,0,0,13,0,1,13,0,2,13,0,3,13,13,0,13,13,1,13,13,3,0,0,0,0,0,1,0,0,2,0,0,3,0,1,0,0,1,1,0,1,2,0,1,3,0,2,0,0,2,1,0,2,2,0,2,3,0,3,0,0,3,1,0,3,2,0,3,3,13,0,0,13,0,1,13,0,2,13,0,3,13,1,0,13,1,1,13,1,3,13,2,0,13,2,1,13,2,2,13,2,3,13,3,0,13,3,1,13,3,2,13,3,3,0,0,0,0,0,1,0,0,2,0,0,3,0,1,0,0,1,1,0,1,2,0,1,3,0,2,0,0,2,1,0,2,2,0,2,3,0,3,0,0,3,1,0,3,2,0,3,3,13,0,0,13,0,1,13,0,2,13,0,3,13,1,0,13,1,1,13,1,2,13,1,3,13,2,0,13,2,1,13,2,2,13,2,3,13,3,0,13,3,1,13,3,3,0,0,0,0,0,1,0,0,2,0,0,3,0,1,0,0,1,1,0,1,2,0,1,3,0,2,0,0,2,1,0,2,2,0,2,3,0,3,0,0,3,1,0,3,2,0,3,3,13,0,0,13,0,1,13,0,2,13,0,3,13,1,0,13,1,1,13,1,3,13,2,0,13,2,1,13,2,2,13,2,3,13,3,0,13,3,1,13,3,2,13,3,3,0,0,0,0,0,1,0,0,2,0,0,3,0,1,0,0,1,1,0,1,2,0,1,3,0,2,0,0,2,1,0,2,2,0,2,3,0,3,0,0,3,1,0,3,2,0,3,3,13,0,0,13,0,1,13,0,2,13,0,3,13,1,0,13,1,1,13,1,2,13,1,3,13,2,0,13,2,2,13,2,3,13,3,0,13,3,1,13,3,2,13,3,3,0,0,0,0,0,2,0,1,0,0,1,2,0,2,0,0,2,2,0,3,0,0,3,2,13,0,0,13,0,2,13,1,0,13,1,2,13,2,0,13,2,2,13,3,0,0,0,0,0,0,1,0,0,2,0,0,3,0,1,0,0,1,1,0,1,2,0,1,3,0,2,0,0,2,1,0,2,2,0,2,3,0,3,0,0,3,1,0,3,2,0,3,3,1,0,0,1,0,1,1,0,2,1,0,3,1,1,0,1,1,1,1,1,2,1,1,3,1,2,0,1,2,1,1,2,2,1,2,3,1,3,0,1,3,1,1,3,3,2,0,0,2,0,1,2,0,2,2,0,3,2,1,0,2,1,1,2,1,2,2,1,3,2,2,0,2,2,1,2,2,2,2,2,3,2,3,0,2,3,1,2,3,2,2,3,3,3,0,0,3,0,1,3,0,2,3,0,3,3,1,0,3,1,1,3,1,2,3,1,3,3,2,0,3,2,1,3,2,2,3,2,3,3,3,0,3,3,1,3,3,2,3,3,3,0,0,0,0,0,1,0,0,2,0,0,3,0,13,0,0,13,1,0,13,2,0,13,3,13,0,0,13,0,1,13,0,2,13,0,3,13,13,0,13,13,1,13,13,3,0,0,0,0,0,1,0,0,2,0,0,3,0,1,0,0,1,1,0,1,2,0,1,3,0,2,0,0,2,1,0,2,2,0,2,3,0,3,0,0,3,1,0,3,2,0,3,3,13,0,0,13,0,1,13,0,2,13,0,3,13,1,0,13,1,1,13,1,2,13,1,3,13,2,0,13,2,1,13,2,2,13,2,3,13,3,0,13,3,1,13,3,3,0,0,0,0,0,1,0,0,2,0,0,3,0,1,0,0,1,1,0,1,2,0,1,3,0,2,0,0,2,1,0,2,2,0,2,3,0,3,0,0,3,1,0,3,2,0,3,3,1,0,0,1,0,1,1,0,2,1,0,3,1,1,0,1,1,1,1,1,2,1,1,3,1,2,0,1,2,1,1,2,2,1,2,3,1,3,0,1,3,1,1,3,2,1,3,3,2,0,0,2,0,1,2,0,2,2,0,3,2,1,0,2,1,1,2,1,2,2,2,0,2,2,1,2,2,2,2,2,3,2,3,0,2,3,1,2,3,2,2,3,3,3,0,0,3,0,1,3,0,2,3,0,3,3,1,0,3,1,1,3,1,2,3,1,3,3,2,0,3,2,1,3,2,2,3,2,3,3,3,0,3,3,1,3,3,2,3,3,3,0,0,0,0,0,1,0,0,2,0,0,3,0,1,0,0,1,1,0,1,2,0,1,3,0,2,0,0,2,1,0,2,2,0,2,3,0,3,0,0,3,1,0,3,2,0,3,3,13,0,0,13,0,1,13,0,2,13,0,3,13,1,0,13,1,1,13,1,3,13,2,0,13,2,1,13,2,2,13,2,3,13,3,0,13,3,1,13,3,2,13,3,3,0,0,0,0,0,1,0,0,2,0,0,3,0,13,0,0,13,1,0,13,2,0,13,3,2,0,0,2,0,1,2,0,2,2,0,3,2,13,0,2,13,1,2,13,2,0,0,0,0,0,1,0,0,2,0,0,3,0,1,0,0,1,1,0,1,2,0,1,3,0,2,0,0,2,1,0,2,2,0,2,3,0,3,0,0,3,1,0,3,2,0,3,3,13,0,0,13,0,1,13,0,2,13,0,3,13,1,0,13,1,1,13,1,2,13,1,3,13,2,0,13,2,2,13,2,3,13,3,0,13,3,1,13,3,2,13,3,3,0,0,0,0,0,2,0,1,0,0,1,2,0,2,0,0,2,2,0,3,0,0,3,2,13,0,0,13,0,2,13,1,0,13,1,2,13,2,0,13,2,2,13,3,0,0,0,0,0,0,1,0,0,2,0,0,3,0,1,0,0,1,1,0,1,2,0,1,3,0,2,0,0,2,1,0,2,2,0,2,3,0,3,0,0,3,1,0,3,2,0,3,3,1,0,0,1,0,1,1,0,2,1,0,3,1,1,0,1,1,1,1,1,2,1,1,3,1,2,0,1,2,1,1,2,2,1,2,3,1,3,0,1,3,1,1,3,2,1,3,3,2,0,0,2,0,1,2,0,2,2,0,3,2,1,0,2,1,1,2,1,2,2,1,3,2,2,0,2,2,1,2,2,2,2,2,3,2,3,0,2,3,1,2,3,2,2,3,3,3,0,0,3,0,1,3,0,2,3,0,3,3,1,0,3,1,1,3,1,3,3,2,0,3,2,1,3,2,2,3,2,3,3,3,0,3,3,1,3,3,2,3,3,3,0,0,0,0,0,1,0,0,2,0,0,3,0,1,0,0,1,1,0,1,2,0,1,3,0,2,0,0,2,1,0,2,2,0,2,3,0,3,0,0,3,1,0,3,2,0,3,3,1,0,0,1,0,1,1,0,2,1,0,3,1,1,0,1,1,1,1,1,2,1,1,3,1,2,0,1,2,1,1,2,2,1,2,3,1,3,0,1,3,1,1,3,3,2,0,0,2,0,1,2,0,2,2,0,3,2,1,0,2,1,1,2,1,2,2,1,3,2,2,0,2,2,1,2,2,2,2,2,3,2,3,0,2,3,1,2,3,2,2,3,3,3,0,0,3,0,1,3,0,2,3,0,3,3,1,0,3,1,1,3,1,2,3,1,3,3,2,0,3,2,1,3,2,2,3,2,3,3,3,0,3,3,1,3,3,2,3,3,3,0,0,0,0,0,1,0,0,2,0,0,3,0,1,0,0,1,1,0,1,2,0,1,3,0,2,0,0,2,1,0,2,2,0,2,3,0,3,0,0,3,1,0,3,2,0,3,3,1,0,0,1,0,1,1,0,2,1,0,3,1,1,0,1,1,1,1,1,2,1,1,3,1,2,0,1,2,1,1,2,2,1,2,3,1,3,0,1,3,1,1,3,2,1,3,3,2,0,0,2,0,1,2,0,2,2,0,3,2,1,0,2,1,1,2,1,2,2,1,3,2,2,0,2,2,1,2,2,2,2,2,3,2,3,0,2,3,2,2,3,3,3,0,0,3,0,1,3,0,2,3,0,3,3,1,0,3,1,1,3,1,2,3,1,3,3,2,0,3,2,1,3,2,2,3,2,3,3,3,0,3,3,1,3,3,2,3,3,3,0,0,0,0,0,1,0,0,2,0,0,3,0,1,0,0,1,1,0,1,2,0,1,3,0,2,0,0,2,1,0,2,2,0,2,3,0,3,0,0,3,1,0,3,2,0,3,3,13,0,0,13,0,1,13,0,2,13,0,3,13,1,0,13,1,1,13,1,3,13,2,0,13,2,1,13,2,2,13,2,3,13,3,0,13,3,1,13,3,2,13,3,3,0,0,0,0,0,1,0,0,2,0,0,3,0,1,0,0,1,1,0,1,2,0,1,3,0,2,0,0,2,1,0,2,2,0,2,3,0,3,0,0,3,1,0,3,2,0,3,3,1,0,0,1,0,1,1,0,2,1,0,3,1,1,0,1,1,1,1,1,2,1,1,3,1,2,0,1,2,1,1,2,2,1,3,0,1,3,1,1,3,2,1,3,3,2,0,0,2,0,1,2,0,2,2,0,3,2,1,0,2,1,1,2,1,2,2,1,3,2,2,0,2,2,1,2,2,2,2,2,3,2,3,0,2,3,1,2,3,2,2,3,3,3,0,0,3,0,1,3,0,2,3,0,3,3,1,0,3,1,1,3,1,2,3,1,3,3,2,0,3,2,1,3,2,2,3,2,3,3,3,0,3,3,1,3,3,2,3,3,3,0,0,0,0,0,1,0,0,2,0,0,3,0,1,0,0,1,1,0,1,2,0,1,3,0,2,0,0,2,1,0,2,2,0,2,3,0,3,0,0,3,1,0,3,2,0,3,3,1,0,0,1,0,1,1,0,2,1,0,3,1,1,0,1,1,1,1,1,2,1,1,3,1,2,0,1,2,1,1,2,2,1,2,3,1,3,0,1,3,1,1,3,3,2,0,0,2,0,1,2,0,2,2,0,3,2,1,0,2,1,1,2,1,2,2,1,3,2,2,0,2,2,1,2,2,2,2,2,3,2,3,0,2,3,1,2,3,2,2,3,3,3,0,0,3,0,1,3,0,2,3,0,3,3,1,0,3,1,1,3,1,2,3,1,3,3,2,0,3,2,1,3,2,2,3,2,3,3,3,0,3,3,1,3,3,2,3,3,3,0,0,0,0,0,1,0,0,2,0,0,3,0,13,0,0,13,1,0,13,2,0,13,3,13,0,0,13,0,1,13,0,2,13,0,3,13,13,0,13,13,1,13,13,3,0,0,0,0,0,2,0,13,0,0,13,2,13,0,0,13,0,2,13,13,0,0,0,0,0,0,1,0,0,2,0,0,3,0,1,0,0,1,1,0,1,2,0,1,3,0,2,0,0,2,1,0,2,2,0,2,3,0,3,0,0,3,1,0,3,2,0,3,3,13,0,0,13,0,1,13,0,2,13,0,3,13,1,0,13,1,1,13,1,2,13,1,3,13,2,0,13,2,2,13,2,3,13,3,0,13,3,1,13,3,2,13,3,3,0,0,0,0,0,1,0,0,2,0,0,3,0,1,0,0,1,1,0,1,2,0,1,3,0,2,0,0,2,1,0,2,2,0,2,3,0,3,0,0,3,1,0,3,2,0,3,3,13,0,0,13,0,1,13,0,2,13,0,3,13,1,0,13,1,1,13,1,2,13,1,3,13,2,0,13,2,2,13,2,3,13,3,0,13,3,1,13,3,2,13,3,3,0,0,0,0,0,1,0,0,2,0,0,3,0,13,0,0,13,1,0,13,2,0,13,3,13,0,0,13,0,1,13,0,2,13,0,3,13,13,0,13,13,1,13,13,3,0,0,0,0,0,1,0,0,2,0,0,3,0,1,0,0,1,1,0,1,2,0,1,3,0,2,0,0,2,1,0,2,2,0,2,3,0,3,0,0,3,1,0,3,2,0,3,3,1,0,0,1,0,1,1,0,2,1,0,3,1,1,0,1,1,1,1,1,2,1,1,3,1,2,0,1,2,1,1,2,2,1,3,0,1,3,1,1,3,2,1,3,3,2,0,0,2,0,1,2,0,2,2,0,3,2,1,0,2,1,1,2,1,2,2,1,3,2,2,0,2,2,1,2,2,2,2,2,3,2,3,0,2,3,1,2,3,2,2,3,3,3,0,0,3,0,1,3,0,2,3,0,3,3,1,0,3,1,1,3,1,2,3,1,3,3,2,0,3,2,1,3,2,2,3,2,3,3,3,0,3,3,1,3,3,2,3,3,3,0,0,0,0,0,1,0,0,2,0,0,3,0,1,0,0,1,1,0,1,2,0,1,3,0,2,0,0,2,1,0,2,2,0,2,3,0,3,0,0,3,1,0,3,2,0,3,3,13,0,0,13,0,1,13,0,2,13,0,3,13,1,0,13,1,1,13,1,2,13,1,3,13,2,0,13,2,2,13,2,3,13,3,0,13,3,1,13,3,2,13,3,3,0,0,0,0,0,1,0,0,2,0,0,3,0,13,0,0,13,1,0,13,2,0,13,3,2,0,0,2,0,1,2,0,2,2,0,3,2,13,0,2,13,1,2,13,2,0,0,0,0,0,1,0,0,2,0,0,3,0,13,0,0,13,1,0,13,2,0,13,3,2,0,0,2,0,1,2,0,2,2,0,3,2,13,0,2,13,1,2,13,2,0,0,0,0,0,1,0,0,2,0,0,3,0,1,0,0,1,1,0,1,2,0,1,3,0,2,0,0,2,1,0,2,2,0,2,3,0,3,0,0,3,1,0,3,2,0,3,3,1,0,0,1,0,1,1,0,2,1,0,3,1,1,0,1,1,1,1,1,2,1,1,3,1,2,0,1,2,1,1,2,2,1,2,3,1,3,0,1,3,1,1,3,2,1,3,3,2,0,0,2,0,1,2,0,2,2,0,3,2,1,0,2,1,1,2,1,2,2,1,3,2,2,0,2,2,1,2,2,2,2,2,3,2,3,0,2,3,1,2,3,2,2,3,3,3,0,0,3,0,1,3,0,2,3,0,3,3,1,0,3,1,1,3,1,2,3,1,3,3,2,0,3,2,2,3,2,3,3,3,0,3,3,1,3,3,2,3,3,3,0,0,0,0,0,1,0,0,2,0,0,3,0,1,0,0,1,1,0,1,2,0,1,3,0,2,0,0,2,1,0,2,2,0,2,3,0,3,0,0,3,1,0,3,2,0,3,3,1,0,0,1,0,1,1,0,2,1,0,3,1,1,0,1,1,1,1,1,2,1,1,3,1,2,0,1,2,1,1,2,2,1,2,3,1,3,0,1,3,1,1,3,3,2,0,0,2,0,1,2,0,2,2,0,3,2,1,0,2,1,1,2,1,2,2,1,3,2,2,0,2,2,1,2,2,2,2,2,3,2,3,0,2,3,1,2,3,2,2,3,3,3,0,0,3,0,1,3,0,2,3,0,3,3,1,0,3,1,1,3,1,2,3,1,3,3,2,0,3,2,1,3,2,2,3,2,3,3,3,0,3,3,1,3,3,2,3,3,3,0,0,0,0,0,1,0,0,2,0,0,3,0,13,0,0,13,1,0,13,2,0,13,3,2,0,0,2,0,1,2,0,2,2,0,3,2,13,0,2,13,1,2,13,2,0,0,0,0,0,1,0,0,2,0,0,3,0,13,0,0,13,1,0,13,2,0,13,3,13,0,0,13,0,1,13,0,2,13,0,3,13,13,0,13,13,1,13,13,3,0,0,0,0,0,1,0,0,2,0,0,3,0,1,0,0,1,1,0,1,2,0,1,3,0,2,0,0,2,1,0,2,2,0,2,3,0,3,0,0,3,1,0,3,2,0,3,3,13,0,0,13,0,1,13,0,2,13,0,3,13,1,0,13,1,1,13,1,3,13,2,0,13,2,1,13,2,2,13,2,3,13,3,0,13,3,1,13,3,2,13,3,3,0,0,0,0,0,1,0,0,2,0,0,3,0,1,0,0,1,1,0,1,2,0,1,3,0,2,0,0,2,1,0,2,2,0,2,3,0,3,0,0,3,1,0,3,2,0,3,3,13,0,0,13,0,1,13,0,2,13,0,3,13,1,0,13,1,1,13,1,2,13,1,3,13,2,0,13,2,2,13,2,3,13,3,0,13,3,1,13,3,2,13,3,3,0,0,0,0,0,1,0,0,2,0,0,3,0,1,0,0,1,1,0,1,2,0,1,3,0,2,0,0,2,1,0,2,2,0,2,3,0,3,0,0,3,1,0,3,2,0,3,3,13,0,0,13,0,1,13,0,2,13,0,3,13,1,0,13,1,1,13,1,3,13,2,0,13,2,1,13,2,2,13,2,3,13,3,0,13,3,1,13,3,2,13,3,3,0,0,0,0,0,1,0,0,2,0,0,3,0,1,0,0,1,1,0,1,2,0,1,3,0,2,0,0,2,1,0,2,2,0,2,3,0,3,0,0,3,1,0,3,2,0,3,3,13,0,0,13,0,1,13,0,2,13,0,3,13,1,0,13,1,1,13,1,2,13,1,3,13,2,0,13,2,2,13,2,3,13,3,0,13,3,1,13,3,2,13,3,3,0,0,0,0,0,1,0,0,2,0,0,3,0,13,0,0,13,1,0,13,2,0,13,3,13,0,0,13,0,1,13,0,2,13,0,3,13,13,0,13,13,1,13,13,3,0,0,0,0,0,2,0,1,0,0,1,2,0,2,0,0,2,2,0,3,0,0,3,2,13,0,0,13,0,2,13,1,0,13,1,2,13,2,0,13,2,2,13,3,0,0,0,0,0,0,2,0,1,0,0,1,2,0,2,0,0,2,2,0,3,0,0,3,2,13,0,0,13,0,2,13,1,0,13,1,2,13,2,0,13,2,2,13,3,0,0,0,0,0,0,2,0,1,0,0,1,2,0,2,0,0,2,2,0,3,0,0,3,2,13,0,0,13,0,2,13,1,0,13,1,2,13,2,0,13,2,2,13,3,0,0,0,0,0,0,1,0,0,2,0,0,3,0,1,0,0,1,1,0,1,2,0,1,3,0,2,0,0,2,1,0,2,2,0,2,3,0,3,0,0,3,1,0,3,2,0,3,3,1,0,0,1,0,1,1,0,2,1,0,3,1,1,0,1,1,1,1,1,2,1,1,3,1,2,0,1,2,1,1,2,2,1,2,3,1,3,0,1,3,1,1,3,3,2,0,0,2,0,1,2,0,2,2,0,3,2,1,0,2,1,1,2,1,2,2,1,3,2,2,0,2,2,1,2,2,2,2,2,3,2,3,0,2,3,1,2,3,2,2,3,3,3,0,0,3,0,1,3,0,2,3,0,3,3,1,0,3,1,1,3,1,2,3,1,3,3,2,0,3,2,1,3,2,2,3,2,3,3,3,0,3,3,1,3,3,2,3,3,3,0,0,0,0,0,1,0,0,2,0,0,3,0,13,0,0,13,1,0,13,2,0,13,3,1,0,0,1,0,1,1,0,2,1,0,3,1,13,0,1,13,1,1,13,3,2,0,0,2,0,1,2,0,2,2,0,3,2,13,0,2,13,1,2,13,2,2,13,3,3,0,0,3,0,1,3,0,2,3,0,3,3,13,0,3,13,1,3,13,2,3,13,3,0,0,0,0,0,1,0,0,2,0,0,3,0,13,0,0,13,1,0,13,2,0,13,3,1,0,0,1,0,1,1,0,2,1,0,3,1,13,0,1,13,1,1,13,2,1,13,3,2,0,0,2,0,1,2,0,2,2,0,3,2,13,0,2,13,2,2,13,3,3,0,0,3,0,1,3,0,2,3,0,3,3,13,0,3,13,1,3,13,2,3,13,3,0,0,0,0,0,1,0,0,2,0,0,3,0,1,0,0,1,1,0,1,2,0,1,3,0,2,0,0,2,1,0,2,2,0,2,3,0,3,0,0,3,1,0,3,2,0,3,3,1,0,0,1,0,1,1,0,2,1,0,3,1,1,0,1,1,1,1,1,2,1,1,3,1,2,0,1,2,1,1,2,2,1,2,3,1,3,0,1,3,1,1,3,3,2,0,0,2,0,1,2,0,2,2,0,3,2,1,0,2,1,1,2,1,2,2,1,3,2,2,0,2,2,1,2,2,2,2,2,3,2,3,0,2,3,1,2,3,2,2,3,3,3,0,0,3,0,1,3,0,2,3,0,3,3,1,0,3,1,1,3,1,2,3,1,3,3,2,0,3,2,1,3,2,2,3,2,3,3,3,0,3,3,1,3,3,2,3,3,3,0,0,0,0,0,1,0,0,2,0,0,3,0,1,0,0,1,1,0,1,2,0,1,3,0,2,0,0,2,1,0,2,2,0,2,3,0,3,0,0,3,1,0,3,2,0,3,3,1,0,0,1,0,1,1,0,2,1,0,3,1,1,0,1,1,1,1,1,2,1,1,3,1,2,0,1,2,1,1,2,2,1,2,3,1,3,0,1,3,1,1,3,3,2,0,0,2,0,1,2,0,2,2,0,3,2,1,0,2,1,1,2,1,2,2,1,3,2,2,0,2,2,1,2,2,2,2,2,3,2,3,0,2,3,1,2,3,2,2,3,3,3,0,0,3,0,1,3,0,2,3,0,3,3,1,0,3,1,1,3,1,2,3,1,3,3,2,0,3,2,1,3,2,2,3,2,3,3,3,0,3,3,1,3,3,2,3,3,3,0,0,0,0,0,1,0,0,2,0,0,3,0,1,0,0,1,1,0,1,2,0,1,3,0,2,0,0,2,1,0,2,2,0,2,3,0,3,0,0,3,1,0,3,2,0,3,3,1,0,0,1,0,1,1,0,2,1,0,3,1,1,0,1,1,1,1,1,2,1,1,3,1,2,0,1,2,1,1,2,2,1,2,3,1,3,0,1,3,1,1,3,2,1,3,3,2,0,0,2,0,1,2,0,2,2,0,3,2,1,0,2,1,1,2,1,2,2,1,3,2,2,0,2,2,1,2,2,2,2,2,3,2,3,0,2,3,2,2,3,3,3,0,0,3,0,1,3,0,2,3,0,3,3,1,0,3,1,1,3,1,2,3,1,3,3,2,0,3,2,1,3,2,2,3,2,3,3,3,0,3,3,1,3,3,2,3,3,3,0,0,0,0,0,1,0,0,2,0,0,3,0,1,0,0,1,1,0,1,2,0,1,3,0,2,0,0,2,1,0,2,2,0,2,3,0,3,0,0,3,1,0,3,2,0,3,3,13,0,0,13,0,1,13,0,2,13,0,3,13,1,0,13,1,1,13,1,3,13,2,0,13,2,1,13,2,2,13,2,3,13,3,0,13,3,1,13,3,2,13,3,3,0,0,0,0,0,1,0,0,2,0,0,3,0,1,0,0,1,1,0,1,2,0,1,3,0,2,0,0,2,1,0,2,2,0,2,3,0,3,0,0,3,1,0,3,2,0,3,3,13,0,0,13,0,1,13,0,2,13,0,3,13,1,0,13,1,1,13,1,2,13,1,3,13,2,0,13,2,1,13,2,2,13,3,0,13,3,1,13,3,2,13,3,3,0,0,0,0,0,1,0,0,2,0,0,3,0,13,0,0,13,1,0,13,2,0,13,3,2,0,0,2,0,1,2,0,2,2,0,3,2,13,0,2,13,1,2,13,2,0,0,0,0,0,1,0,0,2,0,0,3,0,1,0,0,1,1,0,1,2,0,1,3,0,2,0,0,2,1,0,2,2,0,2,3,0,3,0,0,3,1,0,3,2,0,3,3,13,0,0,13,0,1,13,0,2,13,0,3,13,1,0,13,1,1,13,1,3,13,2,0,13,2,1,13,2,2,13,2,3,13,3,0,13,3,1,13,3,2,13,3,3,0,0,0,0,0,1,0,0,2,0,0,3,0,13,0,0,13,1,0,13,2,0,13,3,1,0,0,1,0,1,1,0,2,1,0,3,1,13,0,1,13,1,1,13,2,1,13,3,2,0,0,2,0,1,2,0,2,2,0,3,2,13,0,2,13,2,2,13,3,3,0,0,3,0,1,3,0,2,3,0,3,3,13,0,3,13,1,3,13,2,3,13,3,0,0,0,0,0,1,0,0,2,0,0,3,0,1,0,0,1,1,0,1,2,0,1,3,0,2,0,0,2,1,0,2,2,0,2,3,0,3,0,0,3,1,0,3,2,0,3,3,13,0,0,13,0,1,13,0,2,13,0,3,13,1,0,13,1,1,13,1,3,13,2,0,13,2,1,13,2,2,13,2,3,13,3,0,13,3,1,13,3,2,13,3,3,0,0,0,0,0,1,0,0,2,0,0,3,0,13,0,0,13,1,0,13,2,0,13,3,1,0,0,1,0,1,1,0,2,1,0,3,1,13,0,1,13,1,1,13,3,2,0,0,2,0,1,2,0,2,2,0,3,2,13,0,2,13,1,2,13,2,2,13,3,3,0,0,3,0,1,3,0,2,3,0,3,3,13,0,3,13,1,3,13,2,3,13,3,0,0,0,0,0,1,0,0,2,0,0,3,0,13,0,0,13,1,0,13,2,0,13,3,2,0,0,2,0,1,2,0,2,2,0,3,2,13,0,2,13,1,2,13,2,0,0,0,0,0,1,0,0,2,0,0,3,0,1,0,0,1,1,0,1,2,0,1,3,0,2,0,0,2,1,0,2,2,0,2,3,0,3,0,0,3,1,0,3,2,0,3,3,13,0,0,13,0,1,13,0,2,13,0,3,13,1,0,13,1,1,13,1,3,13,2,0,13,2,1,13,2,2,13,2,3,13,3,0,13,3,1,13,3,2,13,3,3,0,0,0,0,0,1,0,0,2,0,0,3,0,1,0,0,1,1,0,1,2,0,1,3,0,2,0,0,2,1,0,2,2,0,2,3,0,3,0,0,3,1,0,3,2,0,3,3,13,0,0,13,0,1,13,0,2,13,0,3,13,1,0,13,1,1,13,1,2,13,1,3,13,2,0,13,2,2,13,2,3,13,3,0,13,3,1,13,3,2,13,3,3,0,0,0,0,0,2,0,1,0,0,1,2,0,2,0,0,2,2,0,3,0,0,3,2,13,0,0,13,0,2,13,1,0,13,1,2,13,2,0,13,2,2,13,3,0,0,0,0,0,0,1,0,0,2,0,0,3,0,1,0,0,1,1,0,1,2,0,1,3,0,2,0,0,2,1,0,2,2,0,2,3,0,3,0,0,3,1,0,3,2,0,3,3,13,0,0,13,0,1,13,0,2,13,0,3,13,1,0,13,1,1,13,1,2,13,1,3,13,2,0,13,2,1,13,2,2,13,3,0,13,3,1,13,3,2,13,3,3,0,0,0,0,0,1,0,0,2,0,0,3,0,1,0,0,1,1,0,1,2,0,1,3,0,2,0,0,2,1,0,2,2,0,2,3,0,3,0,0,3,1,0,3,2,0,3,3,1,0,0,1,0,1,1,0,2,1,0,3,1,1,0,1,1,1,1,1,2,1,1,3,1,2,0,1,2,1,1,2,2,1,2,3,1,3,0,1,3,1,1,3,3,2,0,0,2,0,1,2,0,2,2,0,3,2,1,0,2,1,1,2,1,2,2,1,3,2,2,0,2,2,1,2,2,2,2,2,3,2,3,0,2,3,1,2,3,2,2,3,3,3,0,0,3,0,1,3,0,2,3,0,3,3,1,0,3,1,1,3,1,2,3,1,3,3,2,0,3,2,1,3,2,2,3,2,3,3,3,0,3,3,1,3,3,2,3,3,3,0,0,0,0,0,2,0,1,0,0,1,2,0,2,0,0,2,2,0,3,0,0,3,2,13,0,0,13,0,2,13,1,0,13,2,0,13,2,2,13,3,0,13,3,2,0,0,0,0,0,1,0,0,2,0,0,3,0,1,0,0,1,1,0,1,2,0,1,3,0,2,0,0,2,1,0,2,2,0,2,3,0,3,0,0,3,1,0,3,2,0,3,3,13,0,0,13,0,1,13,0,2,13,0,3,13,1,0,13,1,1,13,1,2,13,1,3,13,2,0,13,2,1,13,2,2,13,2,3,13,3,0,13,3,1,13,3,3,0,0,0,0,0,2,0,1,0,0,1,2,0,2,0,0,2,2,0,3,0,0,3,2,13,0,0,13,0,2,13,1,0,13,1,2,13,2,0,13,2,2,13,3,0,0,0,0,0,0,2,0,1,0,0,1,2,0,2,0,0,2,2,0,3,0,0,3,2,13,0,0,13,0,2,13,1,0,13,1,2,13,2,0,13,2,2,13,3,0,0,0,0,0,0,2,0,1,0,0,1,2,0,2,0,0,2,2,0,3,0,0,3,2,13,0,0,13,0,2,13,1,0,13,1,2,13,2,0,13,2,2,13,3,0,0,0,0,0,0,1,0,0,2,0,0,3,0,1,0,0,1,1,0,1,2,0,1,3,0,2,0,0,2,1,0,2,2,0,2,3,0,3,0,0,3,1,0,3,2,0,3,3,13,0,0,13,0,1,13,0,2,13,0,3,13,1,0,13,1,1,13,1,3,13,2,0,13,2,1,13,2,2,13,2,3,13,3,0,13,3,1,13,3,2,13,3,3,0,0,0,0,0,1,0,0,2,0,0,3,0,1,0,0,1,1,0,1,2,0,1,3,0,2,0,0,2,1,0,2,2,0,2,3,0,3,0,0,3,1,0,3,2,0,3,3,1,0,0,1,0,1,1,0,2,1,0,3,1,1,0,1,1,1,1,1,2,1,1,3,1,2,0,1,2,1,1,2,2,1,3,0,1,3,1,1,3,2,1,3,3,2,0,0,2,0,1,2,0,2,2,0,3,2,1,0,2,1,1,2,1,2,2,1,3,2,2,0,2,2,1,2,2,2,2,2,3,2,3,0,2,3,1,2,3,2,2,3,3,3,0,0,3,0,1,3,0,2,3,0,3,3,1,0,3,1,1,3,1,2,3,1,3,3,2,0,3,2,1,3,2,2,3,2,3,3,3,0,3,3,1,3,3,2,3,3,3,0,0,0,0,0,1,0,0,2,0,0,3,0,1,0,0,1,1,0,1,2,0,1,3,0,2,0,0,2,1,0,2,2,0,2,3,0,3,0,0,3,1,0,3,2,0,3,3,1,0,0,1,0,1,1,0,2,1,0,3,1,1,0,1,1,1,1,1,2,1,1,3,1,2,0,1,2,1,1,2,2,1,2,3,1,3,0,1,3,1,1,3,2,1,3,3,2,0,0,2,0,1,2,0,2,2,0,3,2,1,0,2,1,1,2,1,2,2,2,0,2,2,1,2,2,2,2,2,3,2,3,0,2,3,1,2,3,2,2,3,3,3,0,0,3,0,1,3,0,2,3,0,3,3,1,0,3,1,1,3,1,2,3,1,3,3,2,0,3,2,1,3,2,2,3,2,3,3,3,0,3,3,1,3,3,2,3,3,3,0,0,0,0,0,1,0,0,2,0,0,3,0,1,0,0,1,1,0,1,2,0,1,3,0,2,0,0,2,1,0,2,2,0,2,3,0,3,0,0,3,1,0,3,2,0,3,3,13,0,0,13,0,1,13,0,2,13,0,3,13,1,0,13,1,1,13,1,3,13,2,0,13,2,1,13,2,2,13,2,3,13,3,0,13,3,1,13,3,2,13,3,3,0,0,0,0,0,1,0,0,2,0,0,3,0,1,0,0,1,1,0,1,2,0,1,3,0,2,0,0,2,1,0,2,2,0,2,3,0,3,0,0,3,1,0,3,2,0,3,3,1,0,0,1,0,1,1,0,2,1,0,3,1,1,0,1,1,1,1,1,2,1,1,3,1,2,0,1,2,1,1,2,2,1,2,3,1,3,0,1,3,1,1,3,2,1,3,3,2,0,0,2,0,1,2,0,2,2,0,3,2,1,0,2,1,1,2,1,2,2,1,3,2,2,0,2,2,1,2,2,2,2,2,3,2,3,0,2,3,1,2,3,2,2,3,3,3,0,0,3,0,1,3,0,2,3,0,3,3,1,0,3,1,1,3,1,2,3,1,3,3,2,0,3,2,2,3,2,3,3,3,0,3,3,1,3,3,2,3,3,3,0,0,0,0,0,1,0,0,2,0,0,3,0,1,0,0,1,1,0,1,2,0,1,3,0,2,0,0,2,1,0,2,2,0,2,3,0,3,0,0,3,1,0,3,2,0,3,3,13,0,0,13,0,1,13,0,2,13,0,3,13,1,0,13,1,1,13,1,3,13,2,0,13,2,1,13,2,2,13,2,3,13,3,0,13,3,1,13,3,2,13,3,3,0,0,0,0,0,1,0,0,2,0,0,3,0,1,0,0,1,1,0,1,2,0,1,3,0,2,0,0,2,1,0,2,2,0,2,3,0,3,0,0,3,1,0,3,2,0,3,3,13,0,0,13,0,1,13,0,2,13,0,3,13,1,0,13,1,1,13,1,3,13,2,0,13,2,1,13,2,2,13,2,3,13,3,0,13,3,1,13,3,2,13,3,3,0,0,0,0,0,1,0,0,2,0,0,3,0,1,0,0,1,1,0,1,2,0,1,3,0,2,0,0,2,1,0,2,2,0,2,3,0,3,0,0,3,1,0,3,2,0,3,3,13,0,0,13,0,1,13,0,2,13,0,3,13,1,0,13,1,1,13,1,3,13,2,0,13,2,1,13,2,2,13,2,3,13,3,0,13,3,1,13,3,2,13,3,3,0,0,0,0,0,1,0,0,2,0,0,3,0,1,0,0,1,1,0,1,2,0,1,3,0,2,0,0,2,1,0,2,2,0,2,3,0,3,0,0,3,1,0,3,2,0,3,3,1,0,0,1,0,1,1,0,2,1,0,3,1,1,0,1,1,1,1,1,2,1,1,3,1,2,0,1,2,1,1,2,2,1,2,3,1,3,0,1,3,1,1,3,2,1,3,3,2,0,0,2,0,1,2,0,2,2,0,3,2,1,0,2,1,1,2,1,2,2,2,0,2,2,1,2,2,2,2,2,3,2,3,0,2,3,1,2,3,2,2,3,3,3,0,0,3,0,1,3,0,2,3,0,3,3,1,0,3,1,1,3,1,2,3,1,3,3,2,0,3,2,1,3,2,2,3,2,3,3,3,0,3,3,1,3,3,2,3,3,3,0,0,0,0,0,1,0,0,2,0,0,3,0,1,0,0,1,1,0,1,2,0,1,3,0,2,0,0,2,1,0,2,2,0,2,3,0,3,0,0,3,1,0,3,2,0,3,3,1,0,0,1,0,1,1,0,2,1,0,3,1,1,0,1,1,1,1,1,2,1,1,3,1,2,0,1,2,1,1,2,2,1,3,0,1,3,1,1,3,2,1,3,3,2,0,0,2,0,1,2,0,2,2,0,3,2,1,0,2,1,1,2,1,2,2,1,3,2,2,0,2,2,1,2,2,2,2,2,3,2,3,0,2,3,1,2,3,2,2,3,3,3,0,0,3,0,1,3,0,2,3,0,3,3,1,0,3,1,1,3,1,2,3,1,3,3,2,0,3,2,1,3,2,2,3,2,3,3,3,0,3,3,1,3,3,2,3,3,3,0,0,0,0,0,1,0,0,2,0,0,3,0,1,0,0,1,1,0,1,2,0,1,3,0,2,0,0,2,1,0,2,2,0,2,3,0,3,0,0,3,1,0,3,2,0,3,3,13,0,0,13,0,1,13,0,2,13,0,3,13,1,0,13,1,1,13,1,3,13,2,0,13,2,1,13,2,2,13,2,3,13,3,0,13,3,1,13,3,2,13,3,3,0,0,0,0,0,13,0,1,0,0,1,13,0,2,0,0,2,13,0,3,0,0,3,13,13,0,0,13,0,13,13,1,0,13,1,13,13,2,0,13,3,0,13,3,13,0,0,0,0,0,1,0,0,2,0,0,3,0,13,0,0,13,1,0,13,2,0,13,3,1,0,0,1,0,1,1,0,2,1,0,3,1,13,0,1,13,1,1,13,3,2,0,0,2,0,1,2,0,2,2,0,3,2,13,0,2,13,1,2,13,2,2,13,3,3,0,0,3,0,1,3,0,2,3,0,3,3,13,0,3,13,1,3,13,2,3,13,3,0,0,0,0,0,1,0,0,2,0,0,3,0,1,0,0,1,1,0,1,2,0,1,3,0,2,0,0,2,1,0,2,2,0,2,3,0,3,0,0,3,1,0,3,2,0,3,3,13,0,0,13,0,1,13,0,2,13,0,3,13,1,0,13,1,1,13,1,2,13,1,3,13,2,0,13,2,1,13,2,2,13,2,3,13,3,0,13,3,1,13,3,3,0,0,0,0,0,1,0,0,2,0,0,3,0,13,0,0,13,1,0,13,2,0,13,3,1,0,0,1,0,1,1,0,2,1,0,3,1,13,0,1,13,1,1,13,3,2,0,0,2,0,1,2,0,2,2,0,3,2,13,0,2,13,1,2,13,2,2,13,3,3,0,0,3,0,1,3,0,2,3,0,3,3,13,0,3,13,1,3,13,2,3,13,3,0,0,0,0,0,1,0,0,2,0,0,3,0,13,0,0,13,1,0,13,2,0,13,3,1,0,0,1,0,1,1,0,2,1,0,3,1,13,0,1,13,1,1,13,3,2,0,0,2,0,1,2,0,2,2,0,3,2,13,0,2,13,1,2,13,2,2,13,3,3,0,0,3,0,1,3,0,2,3,0,3,3,13,0,3,13,1,3,13,2,3,13,3,0,0,0,0,0,1,0,0,2,0,0,3,0,13,0,0,13,1,0,13,2,0,13,3,2,0,0,2,0,1,2,0,2,2,0,3,2,13,0,2,13,1,2,13,2,0,0,0,0,0,1,0,0,2,0,0,3,0,1,0,0,1,1,0,1,2,0,1,3,0,2,0,0,2,1,0,2,2,0,2,3,0,3,0,0,3,1,0,3,2,0,3,3,1,0,0,1,0,1,1,0,2,1,0,3,1,1,0,1,1,1,1,1,2,1,1,3,1,2,0,1,2,1,1,2,2,1,2,3,1,3,0,1,3,1,1,3,2,1,3,3,2,0,0,2,0,1,2,0,2,2,0,3,2,1,0,2,1,1,2,1,2,2,2,0,2,2,1,2,2,2,2,2,3,2,3,0,2,3,1,2,3,2,2,3,3,3,0,0,3,0,1,3,0,2,3,0,3,3,1,0,3,1,1,3,1,2,3,1,3,3,2,0,3,2,1,3,2,2,3,2,3,3,3,0,3,3,1,3,3,2,3,3,3,0,0,0,0,0,1,0,0,2,0,0,3,0,1,0,0,1,1,0,1,2,0,1,3,0,2,0,0,2,1,0,2,2,0,2,3,0,3,0,0,3,1,0,3,2,0,3,3,1,0,0,1,0,1,1,0,2,1,0,3,1,1,0,1,1,1,1,1,2,1,1,3,1,2,0,1,2,1,1,2,2,1,3,0,1,3,1,1,3,2,1,3,3,2,0,0,2,0,1,2,0,2,2,0,3,2,1,0,2,1,1,2,1,2,2,1,3,2,2,0,2,2,1,2,2,2,2,2,3,2,3,0,2,3,1,2,3,2,2,3,3,3,0,0,3,0,1,3,0,2,3,0,3,3,1,0,3,1,1,3,1,2,3,1,3,3,2,0,3,2,1,3,2,2,3,2,3,3,3,0,3,3,1,3,3,2,3,3,3,0,0,0,0,0,1,0,0,2,0,0,3,0,1,0,0,1,1,0,1,2,0,1,3,0,2,0,0,2,1,0,2,2,0,2,3,0,3,0,0,3,1,0,3,2,0,3,3,1,0,0,1,0,1,1,0,2,1,0,3,1,1,0,1,1,1,1,1,2,1,1,3,1,2,0,1,2,1,1,2,2,1,2,3,1,3,0,1,3,1,1,3,2,1,3,3,2,0,0,2,0,1,2,0,2,2,0,3,2,1,0,2,1,1,2,1,2,2,1,3,2,2,0,2,2,1,2,2,2,2,2,3,2,3,0,2,3,1,2,3,2,2,3,3,3,0,0,3,0,1,3,0,2,3,0,3,3,1,0,3,1,1,3,1,2,3,1,3,3,2,0,3,2,2,3,2,3,3,3,0,3,3,1,3,3,2,3,3,3,0,0,0,0,0,1,0,0,2,0,0,3,0,13,0,0,13,1,0,13,2,0,13,3,2,0,0,2,0,1,2,0,2,2,0,3,2,13,0,2,13,1,2,13,2,0,0,0,0,0,1,0,0,2,0,0,3,0,13,0,0,13,1,0,13,2,0,13,3,2,0,0,2,0,1,2,0,2,2,0,3,2,13,0,2,13,1,2,13,2,0,0,0,0,0,1,0,0,2,0,0,3,0,13,0,0,13,1,0,13,2,0,13,3,13,0,0,13,0,1,13,0,2,13,0,3,13,13,0,13,13,1,13,13,3,0,0,0,0,0,1,0,0,2,0,0,3,0,1,0,0,1,1,0,1,2,0,1,3,0,2,0,0,2,1,0,2,2,0,2,3,0,3,0,0,3,1,0,3,2,0,3,3,1,0,0,1,0,1,1,0,2,1,0,3,1,1,0,1,1,1,1,1,2,1,1,3,1,2,0,1,2,1,1,2,2,1,2,3,1,3,0,1,3,1,1,3,2,1,3,3,2,0,0,2,0,1,2,0,2,2,0,3,2,1,0,2,1,1,2,1,2,2,2,0,2,2,1,2,2,2,2,2,3,2,3,0,2,3,1,2,3,2,2,3,3,3,0,0,3,0,1,3,0,2,3,0,3,3,1,0,3,1,1,3,1,2,3,1,3,3,2,0,3,2,1,3,2,2,3,2,3,3,3,0,3,3,1,3,3,2,3,3,3,0,0,0,0,0,2,0,1,0,0,1,2,0,2,0,0,2,2,0,3,0,0,3,2,13,0,0,13,0,2,13,1,0,13,1,2,13,2,0,13,2,2,13,3,0,0,0,0,0,0,1,0,0,2,0,0,3,0,1,0,0,1,1,0,1,2,0,1,3,0,2,0,0,2,1,0,2,2,0,2,3,0,3,0,0,3,1,0,3,2,0,3,3,13,0,0,13,0,1,13,0,2,13,0,3,13,1,0,13,1,1,13,1,2,13,1,3,13,2,0,13,2,1,13,2,2,13,2,3,13,3,0,13,3,1,13,3,3,0,0,0,0,0,1,0,0,2,0,0,3,0,1,0,0,1,1,0,1,2,0,1,3,0,2,0,0,2,1,0,2,2,0,2,3,0,3,0,0,3,1,0,3,2,0,3,3,13,0,0,13,0,1,13,0,2,13,0,3,13,1,0,13,1,1,13,1,3,13,2,0,13,2,1,13,2,2,13,2,3,13,3,0,13,3,1,13,3,2,13,3,3,0,0,0,0,0,1,0,0,2,0,0,3,0,1,0,0,1,1,0,1,2,0,1,3,0,2,0,0,2,1,0,2,2,0,2,3,0,3,0,0,3,1,0,3,2,0,3,3,1,0,0,1,0,1,1,0,2,1,0,3,1,1,0,1,1,1,1,1,2,1,1,3,1,2,0,1,2,1,1,2,2,1,3,0,1,3,1,1,3,2,1,3,3,2,0,0,2,0,1,2,0,2,2,0,3,2,1,0,2,1,1,2,1,2,2,1,3,2,2,0,2,2,1,2,2,2,2,2,3,2,3,0,2,3,1,2,3,2,2,3,3,3,0,0,3,0,1,3,0,2,3,0,3,3,1,0,3,1,1,3,1,2,3,1,3,3,2,0,3,2,1,3,2,2,3,2,3,3,3,0,3,3,1,3,3,2,3,3,3,0,0,0,0,0,1,0,0,2,0,0,3,0,13,0,0,13,1,0,13,2,0,13,3,2,0,0,2,0,1,2,0,2,2,0,3,2,13,0,2,13,1,2,13,2,0,0,0,0,0,1,0,0,2,0,0,3,0,13,0,0,13,1,0,13,2,0,13,3,1,0,0,1,0,1,1,0,2,1,0,3,1,13,0,1,13,1,1,13,3,2,0,0,2,0,1,2,0,2,2,0,3,2,13,0,2,13,1,2,13,2,2,13,3,3,0,0,3,0,1,3,0,2,3,0,3,3,13,0,3,13,1,3,13,2,3,13,3,0,0,0,0,0,1,0,0,2,0,0,3,0,1,0,0,1,1,0,1,2,0,1,3,0,2,0,0,2,1,0,2,2,0,2,3,0,3,0,0,3,1,0,3,2,0,3,3,1,0,0,1,0,1,1,0,2,1,0,3,1,1,0,1,1,1,1,1,2,1,1,3,1,2,0,1,2,1,1,2,2,1,3,0,1,3,1,1,3,2,1,3,3,2,0,0,2,0,1,2,0,2,2,0,3,2,1,0,2,1,1,2,1,2,2,1,3,2,2,0,2,2,1,2,2,2,2,2,3,2,3,0,2,3,1,2,3,2,2,3,3,3,0,0,3,0,1,3,0,2,3,0,3,3,1,0,3,1,1,3,1,2,3,1,3,3,2,0,3,2,1,3,2,2,3,2,3,3,3,0,3,3,1,3,3,2,3,3,3,0,0,0,0,0,1,0,0,2,0,0,3,0,2,0,0,2,1,0,2,2,0,2,3,13,0,0,13,0,1,13,0,2,13,0,3,13,2,0,13,2,2,13,2,3,0,0,0,0,0,1,0,0,2,0,0,3,0,1,0,0,1,1,0,1,2,0,1,3,0,2,0,0,2,1,0,2,2,0,2,3,0,3,0,0,3,1,0,3,2,0,3,3,1,0,0,1,0,1,1,0,2,1,0,3,1,1,0,1,1,1,1,1,2,1,1,3,1,2,0,1,2,1,1,2,2,1,2,3,1,3,0,1,3,1,1,3,3,2,0,0,2,0,1,2,0,2,2,0,3,2,1,0,2,1,1,2,1,2,2,1,3,2,2,0,2,2,1,2,2,2,2,2,3,2,3,0,2,3,1,2,3,2,2,3,3,3,0,0,3,0,1,3,0,2,3,0,3,3,1,0,3,1,1,3,1,2,3,1,3,3,2,0,3,2,1,3,2,2,3,2,3,3,3,0,3,3,1,3,3,2,3,3,3,0,0,0,0,0,1,0,0,2,0,0,3,0,13,0,0,13,1,0,13,2,0,13,3,2,0,0,2,0,1,2,0,2,2,0,3,2,13,0,2,13,1,2,13,2,0,0,0,0,0,13,0,13,0,0,13,13,2,0,0,2,0,13,2,13,0,0,0,0,0,0,13,0,1,0,0,1,13,0,2,0,0,2,13,0,3,0,0,3,13,1,0,0,1,0,13,1,1,0,1,1,13,1,2,0,1,3,0,1,3,13,2,0,0,2,0,13,2,1,0,2,1,13,2,2,0,2,2,13,2,3,0,2,3,13,3,0,0,3,0,13,3,1,0,3,1,13,3,2,0,3,2,13,3,3,0,3,3,13,0,0,0,0,0,1,0,0,2,0,0,3,0,13,0,0,13,1,0,13,2,0,13,3,1,0,0,1,0,1,1,0,2,1,0,3,1,13,0,1,13,1,1,13,3,2,0,0,2,0,1,2,0,2,2,0,3,2,13,0,2,13,1,2,13,2,2,13,3,3,0,0,3,0,1,3,0,2,3,0,3,3,13,0,3,13,1,3,13,2,3,13,3,0,0,0,0,0,1,0,0,2,0,0,3,0,1,0,0,1,1,0,1,2,0,1,3,0,2,0,0,2,1,0,2,2,0,2,3,0,3,0,0,3,1,0,3,2,0,3,3,13,0,0,13,0,1,13,0,2,13,0,3,13,1,0,13,1,1,13,1,3,13,2,0,13,2,1,13,2,2,13,2,3,13,3,0,13,3,1,13,3,2,13,3,3,0,0,0,0,0,1,0,0,2,0,0,3,0,1,0,0,1,1,0,1,2,0,1,3,0,2,0,0,2,1,0,2,2,0,2,3,0,3,0,0,3,1,0,3,2,0,3,3,13,0,0,13,0,1,13,0,2,13,0,3,13,1,0,13,1,1,13,1,2,13,1,3,13,2,0,13,2,1,13,2,2,13,2,3,13,3,0,13,3,1,13,3,3,0,0,0,0,0,1,0,0,2,0,0,3,0,13,0,0,13,1,0,13,2,0,13,3,2,0,0,2,0,1,2,0,2,2,0,3,2,13,0,2,13,1,2,13,2,0,0,0,0,0,1,0,0,2,0,0,3,0,13,0,0,13,1,0,13,2,0,13,3,1,0,0,1,0,1,1,0,2,1,0,3,1,13,0,1,13,1,1,13,2,1,13,3,2,0,0,2,0,1,2,0,2,2,0,3,2,13,0,2,13,2,2,13,3,3,0,0,3,0,1,3,0,2,3,0,3,3,13,0,3,13,1,3,13,2,3,13,3,0,0,0,0,0,2,0,1,0,0,1,2,0,2,0,0,2,2,0,3,0,0,3,2,13,0,0,13,0,2,13,1,0,13,2,0,13,2,2,13,3,0,13,3,2,0,0,0,0,0,1,0,0,2,0,0,3,0,1,0,0,1,1,0,1,2,0,1,3,0,2,0,0,2,1,0,2,2,0,2,3,0,3,0,0,3,1,0,3,2,0,3,3,13,0,0,13,0,1,13,0,2,13,0,3,13,1,0,13,1,1,13,1,3,13,2,0,13,2,1,13,2,2,13,2,3,13,3,0,13,3,1,13,3,2,13,3,3,0,0,0,0,0,1,0,0,2,0,0,3,0,1,0,0,1,1,0,1,2,0,1,3,0,2,0,0,2,1,0,2,2,0,2,3,0,3,0,0,3,1,0,3,2,0,3,3,13,0,0,13,0,1,13,0,2,13,0,3,13,1,0,13,1,1,13,1,3,13,2,0,13,2,1,13,2,2,13,2,3,13,3,0,13,3,1,13,3,2,13,3,3,0,0,0,0,0,1,0,0,2,0,0,3,0,1,0,0,1,1,0,1,2,0,1,3,0,2,0,0,2,1,0,2,2,0,2,3,0,3,0,0,3,1,0,3,2,0,3,3,1,0,0,1,0,1,1,0,2,1,0,3,1,1,0,1,1,1,1,1,2,1,1,3,1,2,0,1,2,1,1,2,2,1,2,3,1,3,0,1,3,1,1,3,2,1,3,3,2,0,0,2,0,1,2,0,2,2,0,3,2,1,0,2,1,1,2,1,2,2,2,0,2,2,1,2,2,2,2,2,3,2,3,0,2,3,1,2,3,2,2,3,3,3,0,0,3,0,1,3,0,2,3,0,3,3,1,0,3,1,1,3,1,2,3,1,3,3,2,0,3,2,1,3,2,2,3,2,3,3,3,0,3,3,1,3,3,2,3,3,3,0,0,0,0,0,1,0,0,2,0,0,3,0,13,0,0,13,1,0,13,2,0,13,3,1,0,0,1,0,1,1,0,2,1,0,3,1,13,0,1,13,1,1,13,3,2,0,0,2,0,1,2,0,2,2,0,3,2,13,0,2,13,1,2,13,2,2,13,3,3,0,0,3,0,1,3,0,2,3,0,3,3,13,0,3,13,1,3,13,2,3,13,3,0,0,0,0,0,1,0,0,2,0,0,3,0,1,0,0,1,1,0,1,2,0,1,3,0,2,0,0,2,1,0,2,2,0,2,3,0,3,0,0,3,1,0,3,2,0,3,3,13,0,0,13,0,1,13,0,2,13,0,3,13,1,0,13,1,1,13,1,3,13,2,0,13,2,1,13,2,2,13,2,3,13,3,0,13,3,1,13,3,2,13,3,3,0,0,0,0,0,1,0,0,2,0,0,3,0,1,0,0,1,1,0,1,2,0,1,3,0,2,0,0,2,1,0,2,2,0,2,3,0,3,0,0,3,1,0,3,2,0,3,3,1,0,0,1,0,1,1,0,2,1,0,3,1,1,0,1,1,1,1,1,2,1,1,3,1,2,0,1,2,1,1,2,2,1,2,3,1,3,0,1,3,1,1,3,2,1,3,3,2,0,0,2,0,1,2,0,2,2,0,3,2,1,0,2,1,1,2,1,2,2,2,0,2,2,1,2,2,2,2,2,3,2,3,0,2,3,1,2,3,2,2,3,3,3,0,0,3,0,1,3,0,2,3,0,3,3,1,0,3,1,1,3,1,2,3,1,3,3,2,0,3,2,1,3,2,2,3,2,3,3,3,0,3,3,1,3,3,2,3,3,3,0,0,0,0,0,1,0,0,2,0,0,3,0,1,0,0,1,1,0,1,2,0,1,3,0,2,0,0,2,1,0,2,2,0,2,3,0,3,0,0,3,1,0,3,2,0,3,3,1,0,0,1,0,1,1,0,2,1,0,3,1,1,0,1,1,1,1,1,2,1,1,3,1,2,0,1,2,1,1,2,2,1,2,3,1,3,0,1,3,1,1,3,2,1,3,3,2,0,0,2,0,1,2,0,2,2,0,3,2,1,0,2,1,1,2,1,2,2,2,0,2,2,1,2,2,2,2,2,3,2,3,0,2,3,1,2,3,2,2,3,3,3,0,0,3,0,1,3,0,2,3,0,3,3,1,0,3,1,1,3,1,2,3,1,3,3,2,0,3,2,1,3,2,2,3,2,3,3,3,0,3,3,1,3,3,2,3,3,3,0,0,0,0,0,1,0,0,2,0,0,3,0,1,0,0,1,1,0,1,2,0,1,3,0,2,0,0,2,1,0,2,2,0,2,3,0,3,0,0,3,1,0,3,2,0,3,3,13,0,0,13,0,1,13,0,2,13,0,3,13,1,0,13,1,1,13,1,3,13,2,0,13,2,1,13,2,2,13,2,3,13,3,0,13,3,1,13,3,2,13,3,3,0,0,0,0,0,1,0,0,2,0,0,3,0,1,0,0,1,1,0,1,2,0,1,3,0,2,0,0,2,1,0,2,2,0,2,3,0,3,0,0,3,1,0,3,2,0,3,3,1,0,0,1,0,1,1,0,2,1,0,3,1,1,0,1,1,1,1,1,2,1,1,3,1,2,0,1,2,1,1,2,2,1,2,3,1,3,0,1,3,1,1,3,2,1,3,3,2,0,0,2,0,1,2,0,2,2,0,3,2,1,0,2,1,1,2,1,2,2,1,3,2,2,0,2,2,1,2,2,2,2,2,3,2,3,0,2,3,1,2,3,2,2,3,3,3,0,0,3,0,1,3,0,2,3,0,3,3,1,0,3,1,1,3,1,2,3,1,3,3,2,0,3,2,2,3,2,3,3,3,0,3,3,1,3,3,2,3,3,3,0,0,0,0,0,1,0,0,2,0,0,3,0,13,0,0,13,1,0,13,2,0,13,3,2,0,0,2,0,1,2,0,2,2,0,3,2,13,0,2,13,1,2,13,2,0,0,0,0,0,1,0,0,2,0,0,3,0,13,0,0,13,1,0,13,2,0,13,3,2,0,0,2,0,1,2,0,2,2,0,3,2,13,0,2,13,1,2,13,2,0,0,0,0,0,1,0,0,2,0,0,3,0,1,0,0,1,1,0,1,2,0,1,3,0,2,0,0,2,1,0,2,2,0,2,3,0,3,0,0,3,1,0,3,2,0,3,3,13,0,0,13,0,1,13,0,2,13,0,3,13,1,0,13,1,1,13,1,2,13,1,3,13,2,0,13,2,1,13,2,2,13,2,3,13,3,0,13,3,1,13,3,3,0,0,0,0,0,1,0,0,2,0,0,3,0,1,0,0,1,1,0,1,2,0,1,3,0,2,0,0,2,1,0,2,2,0,2,3,0,3,0,0,3,1,0,3,2,0,3,3,13,0,0,13,0,1,13,0,2,13,0,3,13,1,0,13,1,1,13,1,3,13,2,0,13,2,1,13,2,2,13,2,3,13,3,0,13,3,1,13,3,2,13,3,3,0,0,0,0,0,1,0,0,2,0,0,3,0,1,0,0,1,1,0,1,2,0,1,3,0,2,0,0,2,1,0,2,2,0,2,3,0,3,0,0,3,1,0,3,2,0,3,3,1,0,0,1,0,1,1,0,2,1,0,3,1,1,0,1,1,1,1,1,2,1,1,3,1,2,0,1,2,1,1,2,2,1,3,0,1,3,1,1,3,2,1,3,3,2,0,0,2,0,1,2,0,2,2,0,3,2,1,0,2,1,1,2,1,2,2,1,3,2,2,0,2,2,1,2,2,2,2,2,3,2,3,0,2,3,1,2,3,2,2,3,3,3,0,0,3,0,1,3,0,2,3,0,3,3,1,0,3,1,1,3,1,2,3,1,3,3,2,0,3,2,1,3,2,2,3,2,3,3,3,0,3,3,1,3,3,2,3,3,3,0,0,0,0,0,1,0,0,2,0,0,3,0,13,0,0,13,1,0,13,2,0,13,3,1,0,0,1,0,1,1,0,2,1,0,3,1,13,0,1,13,1,1,13,3,2,0,0,2,0,1,2,0,2,2,0,3,2,13,0,2,13,1,2,13,2,2,13,3,3,0,0,3,0,1,3,0,2,3,0,3,3,13,0,3,13,1,3,13,2,3,13,3,0,0,0,0,0,1,0,0,2,0,0,3,0,1,0,0,1,1,0,1,2,0,1,3,0,2,0,0,2,1,0,2,2,0,2,3,0,3,0,0,3,1,0,3,2,0,3,3,13,0,0,13,0,1,13,0,2,13,0,3,13,1,0,13,1,1,13,1,3,13,2,0,13,2,1,13,2,2,13,2,3,13,3,0,13,3,1,13,3,2,13,3,3,0,0,0,0,0,1,0,0,2,0,0,3,0,1,0,0,1,1,0,1,2,0,1,3,0,2,0,0,2,1,0,2,2,0,2,3,0,3,0,0,3,1,0,3,2,0,3,3,1,0,0,1,0,1,1,0,2,1,0,3,1,1,0,1,1,1,1,1,2,1,1,3,1,2,0,1,2,1,1,2,2,1,3,0,1,3,1,1,3,2,1,3,3,2,0,0,2,0,1,2,0,2,2,0,3,2,1,0,2,1,1,2,1,2,2,1,3,2,2,0,2,2,1,2,2,2,2,2,3,2,3,0,2,3,1,2,3,2,2,3,3,3,0,0,3,0,1,3,0,2,3,0,3,3,1,0,3,1,1,3,1,2,3,1,3,3,2,0,3,2,1,3,2,2,3,2,3,3,3,0,3,3,1,3,3,2,3,3,3,0,0,0,0,0,1,0,0,2,0,0,3,0,13,0,0,13,1,0,13,2,0,13,3,1,0,0,1,0,1,1,0,2,1,0,3,1,13,0,1,13,1,1,13,3,2,0,0,2,0,1,2,0,2,2,0,3,2,13,0,2,13,1,2,13,2,2,13,3,3,0,0,3,0,1,3,0,2,3,0,3,3,13,0,3,13,1,3,13,2,3,13,3,0,0,0,0,0,1,0,0,2,0,0,3,0,13,0,0,13,1,0,13,2,0,13,3,1,0,0,1,0,1,1,0,2,1,0,3,1,13,0,1,13,1,1,13,2,1,13,3,2,0,0,2,0,1,2,0,2,2,0,3,2,13,0,2,13,2,2,13,3,3,0,0,3,0,1,3,0,2,3,0,3,3,13,0,3,13,1,3,13,2,3,13,3,0,0,0,0,0,1,0,0,2,0,0,3,0,1,0,0,1,1,0,1,2,0,1,3,0,2,0,0,2,1,0,2,2,0,2,3,0,3,0,0,3,1,0,3,2,0,3,3,13,0,0,13,0,1,13,0,2,13,0,3,13,1,0,13,1,1,13,1,3,13,2,0,13,2,1,13,2,2,13,2,3,13,3,0,13,3,1,13,3,2,13,3,3,0,0,0,0,0,1,0,0,2,0,0,3,0,1,0,0,1,1,0,1,2,0,1,3,0,2,0,0,2,1,0,2,2,0,2,3,0,3,0,0,3,1,0,3,2,0,3,3,13,0,0,13,0,1,13,0,2,13,0,3,13,1,0,13,1,1,13,1,2,13,1,3,13,2,0,13,2,2,13,2,3,13,3,0,13,3,1,13,3,2,13,3,3,0,0,0,0,0,1,0,0,2,0,0,3,0,1,0,0,1,1,0,1,2,0,1,3,0,2,0,0,2,1,0,2,2,0,2,3,0,3,0,0,3,1,0,3,2,0,3,3,13,0,0,13,0,1,13,0,2,13,0,3,13,1,0,13,1,1,13,1,3,13,2,0,13,2,1,13,2,2,13,2,3,13,3,0,13,3,1,13,3,2,13,3,3,0,0,0,0,0,1,0,0,2,0,0,3,0,13,0,0,13,1,0,13,2,0,13,3,2,0,0,2,0,1,2,0,2,2,0,3,2,13,0,2,13,1,2,13,2,0,0,0,0,0,1,0,0,2,0,0,3,0,13,0,0,13,1,0,13,2,0,13,3,13,0,0,13,0,1,13,0,2,13,0,3,13,13,0,13,13,1,13,13,3,0,0,0,0,0,1,0,0,2,0,0,3,0,1,0,0,1,1,0,1,2,0,1,3,0,2,0,0,2,1,0,2,2,0,2,3,0,3,0,0,3,1,0,3,2,0,3,3,13,0,0,13,0,1,13,0,2,13,0,3,13,1,0,13,1,1,13,1,2,13,1,3,13,2,0,13,2,2,13,2,3,13,3,0,13,3,1,13,3,2,13,3,3,0,0,0,0,0,1,0,0,2,0,0,3,0,1,0,0,1,1,0,1,2,0,1,3,0,2,0,0,2,1,0,2,2,0,2,3,0,3,0,0,3,1,0,3,2,0,3,3,13,0,0,13,0,1,13,0,2,13,0,3,13,1,0,13,1,1,13,1,2,13,1,3,13,2,0,13,2,1,13,2,2,13,2,3,13,3,0,13,3,1,13,3,3,0,0,0,0,0,1,0,0,2,0,0,3,0,1,0,0,1,1,0,1,2,0,1,3,0,2,0,0,2,1,0,2,2,0,2,3,0,3,0,0,3,1,0,3,2,0,3,3,1,0,0,1,0,1,1,0,2,1,0,3,1,1,0,1,1,1,1,1,2,1,1,3,1,2,0,1,2,1,1,2,2,1,2,3,1,3,0,1,3,1,1,3,3,2,0,0,2,0,1,2,0,2,2,0,3,2,1,0,2,1,1,2,1,2,2,1,3,2,2,0,2,2,1,2,2,2,2,2,3,2,3,0,2,3,1,2,3,2,2,3,3,3,0,0,3,0,1,3,0,2,3,0,3,3,1,0,3,1,1,3,1,2,3,1,3,3,2,0,3,2,1,3,2,2,3,2,3,3,3,0,3,3,1,3,3,2,3,3,3,0,0,0,0,0,1,0,0,2,0,0,3,0,1,0,0,1,1,0,1,2,0,1,3,0,2,0,0,2,1,0,2,2,0,2,3,0,3,0,0,3,1,0,3,2,0,3,3,13,0,0,13,0,1,13,0,2,13,0,3,13,1,0,13,1,1,13,1,2,13,1,3,13,2,0,13,2,1,13,2,2,13,2,3,13,3,0,13,3,1,13,3,3,0,0,0,0,0,2,0,1,0,0,1,2,0,2,0,0,2,2,0,3,0,0,3,2,13,0,0,13,0,2,13,1,0,13,1,2,13,2,0,13,2,2,13,3,0,0,0,0,0,0,1,0,0,2,0,0,3,0,1,0,0,1,1,0,1,2,0,1,3,0,2,0,0,2,1,0,2,2,0,2,3,0,3,0,0,3,1,0,3,2,0,3,3,13,0,0,13,0,1,13,0,2,13,0,3,13,1,0,13,1,1,13,1,3,13,2,0,13,2,1,13,2,2,13,2,3,13,3,0,13,3,1,13,3,2,13,3,3,0,0,0,0,0,1,0,0,2,0,0,3,0,13,0,0,13,1,0,13,2,0,13,3,1,0,0,1,0,1,1,0,2,1,0,3,1,13,0,1,13,1,1,13,2,1,13,3,2,0,0,2,0,1,2,0,2,2,0,3,2,13,0,2,13,2,2,13,3,3,0,0,3,0,1,3,0,2,3,0,3,3,13,0,3,13,1,3,13,2,3,13,3,0,0,0,0,0,1,0,0,2,0,0,3,0,1,0,0,1,1,0,1,2,0,1,3,0,2,0,0,2,1,0,2,2,0,2,3,0,3,0,0,3,1,0,3,2,0,3,3,1,0,0,1,0,1,1,0,2,1,0,3,1,1,0,1,1,1,1,1,2,1,1,3,1,2,0,1,2,1,1,2,2,1,2,3,1,3,0,1,3,1,1,3,2,1,3,3,2,0,0,2,0,1,2,0,2,2,0,3,2,1,0,2,1,1,2,1,2,2,2,0,2,2,1,2,2,2,2,2,3,2,3,0,2,3,1,2,3,2,2,3,3,3,0,0,3,0,1,3,0,2,3,0,3,3,1,0,3,1,1,3,1,2,3,1,3,3,2,0,3,2,1,3,2,2,3,2,3,3,3,0,3,3,1,3,3,2,3,3,3,0,0,0,0,0,1,0,0,2,0,0,3,0,1,0,0,1,1,0,1,2,0,1,3,0,2,0,0,2,1,0,2,2,0,2,3,0,3,0,0,3,1,0,3,2,0,3,3,13,0,0,13,0,1,13,0,2,13,0,3,13,1,0,13,1,1,13,1,3,13,2,0,13,2,1,13,2,2,13,2,3,13,3,0,13,3,1,13,3,2,13,3,3,0,0,0,0,0,2,0,1,0,0,1,2,0,2,0,0,2,2,0,3,0,0,3,2,13,0,0,13,0,2,13,1,0,13,1,2,13,2,0,13,2,2,13,3,0,0,0,0,0,0,13,0,1,0,0,1,13,0,2,0,0,2,13,0,3,0,0,3,13,1,0,0,1,0,13,1,1,0,1,1,13,1,2,0,1,3,0,1,3,13,2,0,0,2,0,13,2,1,0,2,1,13,2,2,0,2,2,13,2,3,0,2,3,13,3,0,0,3,0,13,3,1,0,3,1,13,3,2,0,3,2,13,3,3,0,3,3,13,0,0,0,0,0,1,0,0,2,0,0,3,0,13,0,0,13,1,0,13,2,0,13,3,2,0,0,2,0,1,2,0,2,2,0,3,2,13,0,2,13,1,2,13,2,0,0,0,0,0,1,0,0,2,0,0,3,0,1,0,0,1,1,0,1,2,0,1,3,0,2,0,0,2,1,0,2,2,0,2,3,0,3,0,0,3,1,0,3,2,0,3,3,13,0,0,13,0,1,13,0,2,13,0,3,13,1,0,13,1,1,13,1,3,13,2,0,13,2,1,13,2,2,13,2,3,13,3,0,13,3,1,13,3,2,13,3,3,0,0,0,0,0,1,0,0,2,0,0,3,0,1,0,0,1,1,0,1,2,0,1,3,0,2,0,0,2,1,0,2,2,0,2,3,0,3,0,0,3,1,0,3,2,0,3,3,13,0,0,13,0,1,13,0,2,13,0,3,13,1,0,13,1,1,13,1,3,13,2,0,13,2,1,13,2,2,13,2,3,13,3,0,13,3,1,13,3,2,13,3,3,0,0,0,0,0,1,0,0,2,0,0,3,0,1,0,0,1,1,0,1,2,0,1,3,0,2,0,0,2,1,0,2,2,0,2,3,0,3,0,0,3,1,0,3,2,0,3,3,13,0,0,13,0,1,13,0,2,13,0,3,13,1,0,13,1,1,13,1,2,13,1,3,13,2,0,13,2,1,13,2,2,13,2,3,13,3,0,13,3,1,13,3,3,0,0,0,0,0,1,0,0,2,0,0,3,0,1,0,0,1,1,0,1,2,0,1,3,0,2,0,0,2,1,0,2,2,0,2,3,0,3,0,0,3,1,0,3,2,0,3,3,13,0,0,13,0,1,13,0,2,13,0,3,13,1,0,13,1,1,13,1,3,13,2,0,13,2,1,13,2,2,13,2,3,13,3,0,13,3,1,13,3,2,13,3,3,0,0,0,0,0,1,0,0,2,0,0,3,0,1,0,0,1,1,0,1,2,0,1,3,0,2,0,0,2,1,0,2,2,0,2,3,0,3,0,0,3,1,0,3,2,0,3,3,1,0,0,1,0,1,1,0,2,1,0,3,1,1,0,1,1,1,1,1,2,1,1,3,1,2,0,1,2,1,1,2,2,1,2,3,1,3,0,1,3,1,1,3,3,2,0,0,2,0,1,2,0,2,2,0,3,2,1,0,2,1,1,2,1,2,2,1,3,2,2,0,2,2,1,2,2,2,2,2,3,2,3,0,2,3,1,2,3,2,2,3,3,3,0,0,3,0,1,3,0,2,3,0,3,3,1,0,3,1,1,3,1,2,3,1,3,3,2,0,3,2,1,3,2,2,3,2,3,3,3,0,3,3,1,3,3,2,3,3,3,0,0,0,0,0,1,0,0,2,0,0,3,0,1,0,0,1,1,0,1,2,0,1,3,0,2,0,0,2,1,0,2,2,0,2,3,0,3,0,0,3,1,0,3,2,0,3,3,1,0,0,1,0,1,1,0,2,1,0,3,1,1,0,1,1,1,1,1,2,1,1,3,1,2,0,1,2,1,1,2,2,1,2,3,1,3,0,1,3,1,1,3,2,1,3,3,2,0,0,2,0,1,2,0,2,2,0,3,2,1,0,2,1,1,2,1,2,2,2,0,2,2,1,2,2,2,2,2,3,2,3,0,2,3,1,2,3,2,2,3,3,3,0,0,3,0,1,3,0,2,3,0,3,3,1,0,3,1,1,3,1,2,3,1,3,3,2,0,3,2,1,3,2,2,3,2,3,3,3,0,3,3,1,3,3,2,3,3,3,0,0,0,0,0,1,0,0,2,0,0,3,0,1,0,0,1,1,0,1,2,0,1,3,0,2,0,0,2,1,0,2,2,0,2,3,0,3,0,0,3,1,0,3,2,0,3,3,13,0,0,13,0,1,13,0,2,13,0,3,13,1,0,13,1,1,13,1,3,13,2,0,13,2,1,13,2,2,13,2,3,13,3,0,13,3,1,13,3,2,13,3,3,0,0,0,0,0,1,0,0,2,0,0,3,0,13,0,0,13,1,0,13,2,0,13,3,2,0,0,2,0,1,2,0,2,2,0,3,2,13,0,2,13,1,2,13,2,0,0,0,0,0,2,0,1,0,0,1,2,0,2,0,0,2,2,0,3,0,0,3,2,13,0,0,13,0,2,13,1,0,13,1,2,13,2,0,13,2,2,13,3,0,0,0,0,0,0,2,0,1,0,0,1,2,0,2,0,0,2,2,0,3,0,0,3,2,13,0,0,13,0,2,13,1,0,13,1,2,13,2,0,13,2,2,13,3,0,0,0,0,0,0,1,0,0,2,0,0,3,0,1,0,0,1,1,0,1,2,0,1,3,0,2,0,0,2,1,0,2,2,0,2,3,0,3,0,0,3,1,0,3,2,0,3,3,13,0,0,13,0,1,13,0,2,13,0,3,13,1,0,13,1,1,13,1,3,13,2,0,13,2,1,13,2,2,13,2,3,13,3,0,13,3,1,13,3,2,13,3,3,0,0,0,0,0,1,0,0,2,0,0,3,0,1,0,0,1,1,0,1,2,0,1,3,0,2,0,0,2,1,0,2,2,0,2,3,0,3,0,0,3,1,0,3,2,0,3,3,1,0,0,1,0,1,1,0,2,1,0,3,1,1,0,1,1,1,1,1,2,1,1,3,1,2,0,1,2,1,1,2,2,1,3,0,1,3,1,1,3,2,1,3,3,2,0,0,2,0,1,2,0,2,2,0,3,2,1,0,2,1,1,2,1,2,2,1,3,2,2,0,2,2,1,2,2,2,2,2,3,2,3,0,2,3,1,2,3,2,2,3,3,3,0,0,3,0,1,3,0,2,3,0,3,3,1,0,3,1,1,3,1,2,3,1,3,3,2,0,3,2,1,3,2,2,3,2,3,3,3,0,3,3,1,3,3,2,3,3,3,0,0,0,0,0,1,0,0,2,0,0,3,0,1,0,0,1,1,0,1,2,0,1,3,0,2,0,0,2,1,0,2,2,0,2,3,0,3,0,0,3,1,0,3,2,0,3,3,1,0,0,1,0,1,1,0,2,1,0,3,1,1,0,1,1,1,1,1,2,1,1,3,1,2,0,1,2,1,1,2,2,1,2,3,1,3,0,1,3,1,1,3,2,1,3,3,2,0,0,2,0,1,2,0,2,2,0,3,2,1,0,2,1,1,2,1,2,2,2,0,2,2,1,2,2,2,2,2,3,2,3,0,2,3,1,2,3,2,2,3,3,3,0,0,3,0,1,3,0,2,3,0,3,3,1,0,3,1,1,3,1,2,3,1,3,3,2,0,3,2,1,3,2,2,3,2,3,3,3,0,3,3,1,3,3,2,3,3,3,0,0,0,0,0,1,0,0,2,0,0,3,0,13,0,0,13,1,0,13,2,0,13,3,2,0,0,2,0,1,2,0,2,2,0,3,2,13,0,2,13,1,2,13,2,0,0,0,0,0,2,0,1,0,0,1,2,0,2,0,0,2,2,0,3,0,0,3,2,13,0,0,13,0,2,13,1,0,13,1,2,13,2,0,13,2,2,13,3,0,0,0,0,0,0,2,0,1,0,0,1,2,0,2,0,0,2,2,0,3,0,0,3,2,13,0,0,13,0,2,13,1,0,13,1,2,13,2,0,13,2,2,13,3,0,0,0,0,0,0,13,0,13,0,0,13,13,1,0,0,1,0,13,1,13,0,1,13,13,2,0,0,2,0,13,2,13,0,3,0,0,3,0,13,3,13,0,3,13,13,0,0,0,0,0,1,0,0,2,0,0,3,0,13,0,0,13,1,0,13,2,0,13,3,2,0,0,2,0,1,2,0,2,2,0,3,2,13,0,2,13,1,2,13,2,0,0,0,0,0,1,0,0,2,0,0,3,0,13,0,0,13,1,0,13,2,0,13,3,13,0,0,13,0,1,13,0,2,13,0,3,13,13,0,13,13,1,13,13,3,0,0,0,0,0,1,0,0,2,0,0,3,0,13,0,0,13,1,0,13,2,0,13,3,1,0,0,1,0,1,1,0,2,1,0,3,1,13,0,1,13,1,1,13,2,1,13,3,2,0,0,2,0,1,2,0,2,2,0,3,2,13,0,2,13,2,2,13,3,3,0,0,3,0,1,3,0,2,3,0,3,3,13,0,3,13,1,3,13,2,3,13,3,0,0,0,0,0,2,0,1,0,0,1,2,0,2,0,0,2,2,0,3,0,0,3,2,13,0,0,13,0,2,13,1,0,13,1,2,13,2,0,13,2,2,13,3,0,0,0,0,0,0,1,0,0,2,0,0,3,0,1,0,0,1,1,0,1,2,0,1,3,0,2,0,0,2,1,0,2,2,0,2,3,0,3,0,0,3,1,0,3,2,0,3,3,13,0,0,13,0,1,13,0,2,13,0,3,13,1,0,13,1,1,13,1,2,13,1,3,13,2,0,13,2,2,13,2,3,13,3,0,13,3,1,13,3,2,13,3,3,0,0,0,0,0,1,0,0,2,0,0,3,0,13,0,0,13,1,0,13,2,0,13,3,2,0,0,2,0,1,2,0,2,2,0,3,2,13,0,2,13,1,2,13,2,0,0,0,0,0,2,0,13,0,0,13,2,13,0,0,13,0,2,13,13,0,0,0,0,0,0,1,0,0,2,0,0,3,0,1,0,0,1,1,0,1,2,0,1,3,0,2,0,0,2,1,0,2,2,0,2,3,0,3,0,0,3,1,0,3,2,0,3,3,1,0,0,1,0,1,1,0,2,1,0,3,1,1,0,1,1,1,1,1,2,1,1,3,1,2,0,1,2,1,1,2,2,1,3,0,1,3,1,1,3,2,1,3,3,2,0,0,2,0,1,2,0,2,2,0,3,2,1,0,2,1,1,2,1,2,2,1,3,2,2,0,2,2,1,2,2,2,2,2,3,2,3,0,2,3,1,2,3,2,2,3,3,3,0,0,3,0,1,3,0,2,3,0,3,3,1,0,3,1,1,3,1,2,3,1,3,3,2,0,3,2,1,3,2,2,3,2,3,3,3,0,3,3,1,3,3,2,3,3,3,0,0,0,0,0,1,0,0,2,0,0,3,0,13,0,0,13,1,0,13,2,0,13,3,1,0,0,1,0,1,1,0,2,1,0,3,1,13,0,1,13,1,1,13,3,2,0,0,2,0,1,2,0,2,2,0,3,2,13,0,2,13,1,2,13,2,2,13,3,3,0,0,3,0,1,3,0,2,3,0,3,3,13,0,3,13,1,3,13,2,3,13,3,0,0,0,0,0,1,0,0,2,0,0,3,0,13,0,0,13,1,0,13,2,0,13,3,1,0,0,1,0,1,1,0,2,1,0,3,1,13,0,1,13,1,1,13,2,1,13,3,2,0,0,2,0,1,2,0,2,2,0,3,2,13,0,2,13,2,2,13,3,3,0,0,3,0,1,3,0,2,3,0,3,3,13,0,3,13,1,3,13,2,3,13,3,0,0,0,0,0,1,0,0,2,0,0,3,0,1,0,0,1,1,0,1,2,0,1,3,0,2,0,0,2,1,0,2,2,0,2,3,0,3,0,0,3,1,0,3,2,0,3,3,13,0,0,13,0,1,13,0,2,13,0,3,13,1,0,13,1,1,13,1,3,13,2,0,13,2,1,13,2,2,13,2,3,13,3,0,13,3,1,13,3,2,13,3,3,0,0,0,0,0,1,0,0,2,0,0,3,0,13,0,0,13,1,0,13,2,0,13,3,13,0,0,13,0,1,13,0,2,13,0,3,13,13,0,13,13,1,13,13,3,0,0,0,0,0,1,0,0,2,0,0,3,0,13,0,0,13,1,0,13,2,0,13,3,2,0,0,2,0,1,2,0,2,2,0,3,2,13,0,2,13,1,2,13,2,0,0,0,0,0,1,0,0,2,0,0,3,0,13,0,0,13,1,0,13,2,0,13,3,13,0,0,13,0,1,13,0,2,13,0,3,13,13,0,13,13,1,13,13,3,0,0,0,0,0,13,0,1,0,0,1,13,0,2,0,0,2,13,0,3,0,0,3,13,13,0,0,13,0,13,13,1,0,13,1,13,13,2,0,13,3,0,13,3,13,0,0,0,0,0,1,0,0,2,0,0,3,0,1,0,0,1,1,0,1,2,0,1,3,0,2,0,0,2,1,0,2,2,0,2,3,0,3,0,0,3,1,0,3,2,0,3,3,13,0,0,13,0,1,13,0,2,13,0,3,13,1,0,13,1,1,13,1,3,13,2,0,13,2,1,13,2,2,13,2,3,13,3,0,13,3,1,13,3,2,13,3,3,0,0,0,0,0,1,0,0,2,0,0,3,0,1,0,0,1,1,0,1,2,0,1,3,0,2,0,0,2,1,0,2,2,0,2,3,0,3,0,0,3,1,0,3,2,0,3,3,13,0,0,13,0,1,13,0,2,13,0,3,13,1,0,13,1,1,13,1,2,13,1,3,13,2,0,13,2,2,13,2,3,13,3,0,13,3,1,13,3,2,13,3,3,0,0,0,0,0,13,0,13,0,0,13,13,2,0,0,2,0,13,2,13,0,0,0,0,0,0,2,0,1,0,0,1,2,0,2,0,0,2,2,0,3,0,0,3,2,13,0,0,13,0,2,13,1,0,13,1,2,13,2,0,13,2,2,13,3,0,0,0,0,0,0,1,0,0,2,0,0,3,0,13,0,0,13,1,0,13,2,0,13,3,1,0,0,1,0,1,1,0,2,1,0,3,1,13,0,1,13,1,1,13,3,2,0,0,2,0,1,2,0,2,2,0,3,2,13,0,2,13,1,2,13,2,2,13,3,3,0,0,3,0,1,3,0,2,3,0,3,3,13,0,3,13,1,3,13,2,3,13,3,0,0,0,0,0,1,0,0,2,0,0,3,0,13,0,0,13,1,0,13,2,0,13,3,13,0,0,13,0,1,13,0,2,13,0,3,13,13,0,13,13,1,13,13,3,0,0,0,0,0,2,0,1,0,0,1,2,0,2,0,0,2,2,0,3,0,0,3,2,13,0,0,13,0,2,13,1,0,13,1,2,13,2,0,13,2,2,13,3,0,0,0,0,0,0,1,0,0,2,0,0,3,0,1,0,0,1,1,0,1,2,0,1,3,0,2,0,0,2,1,0,2,2,0,2,3,0,3,0,0,3,1,0,3,2,0,3,3,1,0,0,1,0,1,1,0,2,1,0,3,1,1,0,1,1,1,1,1,2,1,1,3,1,2,0,1,2,1,1,2,2,1,2,3,1,3,0,1,3,1,1,3,3,2,0,0,2,0,1,2,0,2,2,0,3,2,1,0,2,1,1,2,1,2,2,1,3,2,2,0,2,2,1,2,2,2,2,2,3,2,3,0,2,3,1,2,3,2,2,3,3,3,0,0,3,0,1,3,0,2,3,0,3,3,1,0,3,1,1,3,1,2,3,1,3,3,2,0,3,2,1,3,2,2,3,2,3,3,3,0,3,3,1,3,3,2,3,3,3,0,0,0,0,0,1,0,0,2,0,0,3,0,1,0,0,1,1,0,1,2,0,1,3,0,2,0,0,2,1,0,2,2,0,2,3,0,3,0,0,3,1,0,3,2,0,3,3,13,0,0,13,0,1,13,0,2,13,0,3,13,1,0,13,1,1,13,1,3,13,2,0,13,2,1,13,2,2,13,2,3,13,3,0,13,3,1,13,3,2,13,3,3,0,0,0,0,0,13,0,1,0,0,1,13,0,2,0,0,2,13,0,3,0,0,3,13,13,0,0,13,0,13,13,1,0,13,1,13,13,2,0,13,3,0,13,3,13,0,0,0,0,0,1,0,0,2,0,0,3,0,13,0,0,13,1,0,13,2,0,13,3,13,0,0,13,0,1,13,0,2,13,0,3,13,13,0,13,13,1,13,13,3,0,0,0,0,0,1,0,0,2,0,0,3,0,1,0,0,1,1,0,1,2,0,1,3,0,2,0,0,2,1,0,2,2,0,2,3,0,3,0,0,3,1,0,3,2,0,3,3,1,0,0,1,0,1,1,0,2,1,0,3,1,1,0,1,1,1,1,1,2,1,1,3,1,2,0,1,2,1,1,2,2,1,2,3,1,3,0,1,3,1,1,3,3,2,0,0,2,0,1,2,0,2,2,0,3,2,1,0,2,1,1,2,1,2,2,1,3,2,2,0,2,2,1,2,2,2,2,2,3,2,3,0,2,3,1,2,3,2,2,3,3,3,0,0,3,0,1,3,0,2,3,0,3,3,1,0,3,1,1,3,1,2,3,1,3,3,2,0,3,2,1,3,2,2,3,2,3,3,3,0,3,3,1,3,3,2,3,3,3,0,0,0,0,0,1,0,0,2,0,0,3,0,1,0,0,1,1,0,1,2,0,1,3,0,2,0,0,2,1,0,2,2,0,2,3,0,3,0,0,3,1,0,3,2,0,3,3,1,0,0,1,0,1,1,0,2,1,0,3,1,1,0,1,1,1,1,1,2,1,1,3,1,2,0,1,2,1,1,2,2,1,2,3,1,3,0,1,3,1,1,3,3,2,0,0,2,0,1,2,0,2,2,0,3,2,1,0,2,1,1,2,1,2,2,1,3,2,2,0,2,2,1,2,2,2,2,2,3,2,3,0,2,3,1,2,3,2,2,3,3,3,0,0,3,0,1,3,0,2,3,0,3,3,1,0,3,1,1,3,1,2,3,1,3,3,2,0,3,2,1,3,2,2,3,2,3,3,3,0,3,3,1,3,3,2,3,3,3,0,0,0,0,0,1,0,0,2,0,0,3,0,1,0,0,1,1,0,1,2,0,1,3,0,2,0,0,2,1,0,2,2,0,2,3,0,3,0,0,3,1,0,3,2,0,3,3,1,0,0,1,0,1,1,0,2,1,0,3,1,1,0,1,1,1,1,1,2,1,1,3,1,2,0,1,2,1,1,2,2,1,2,3,1,3,0,1,3,1,1,3,2,1,3,3,2,0,0,2,0,1,2,0,2,2,0,3,2,1,0,2,1,1,2,1,2,2,2,0,2,2,1,2,2,2,2,2,3,2,3,0,2,3,1,2,3,2,2,3,3,3,0,0,3,0,1,3,0,2,3,0,3,3,1,0,3,1,1,3,1,2,3,1,3,3,2,0,3,2,1,3,2,2,3,2,3,3,3,0,3,3,1,3,3,2,3,3,3,0,0,0,0,0,1,0,0,2,0,0,3,0,1,0,0,1,1,0,1,2,0,1,3,0,2,0,0,2,1,0,2,2,0,2,3,0,3,0,0,3,1,0,3,2,0,3,3,13,0,0,13,0,1,13,0,2,13,0,3,13,1,0,13,1,1,13,1,3,13,2,0,13,2,1,13,2,2,13,2,3,13,3,0,13,3,1,13,3,2,13,3,3,0,0,0,0,0,1,0,0,2,0,0,3,0,1,0,0,1,1,0,1,2,0,1,3,0,2,0,0,2,1,0,2,2,0,2,3,0,3,0,0,3,1,0,3,2,0,3,3,13,0,0,13,0,1,13,0,2,13,0,3,13,1,0,13,1,1,13,1,2,13,1,3,13,2,0,13,2,1,13,2,2,13,2,3,13,3,0,13,3,1,13,3,3,0,0,0,0,0,2,0,1,0,0,1,2,0,2,0,0,2,2,0,3,0,0,3,2,13,0,0,13,0,2,13,1,0,13,1,2,13,2,0,13,2,2,13,3,0,0,0,0,0,0,1,0,0,2,0,0,3,0,1,0,0,1,1,0,1,2,0,1,3,0,2,0,0,2,1,0,2,2,0,2,3,0,3,0,0,3,1,0,3,2,0,3,3,1,0,0,1,0,1,1,0,2,1,0,3,1,1,0,1,1,1,1,1,2,1,1,3,1,2,0,1,2,1,1,2,2,1,3,0,1,3,1,1,3,2,1,3,3,2,0,0,2,0,1,2,0,2,2,0,3,2,1,0,2,1,1,2,1,2,2,1,3,2,2,0,2,2,1,2,2,2,2,2,3,2,3,0,2,3,1,2,3,2,2,3,3,3,0,0,3,0,1,3,0,2,3,0,3,3,1,0,3,1,1,3,1,2,3,1,3,3,2,0,3,2,1,3,2,2,3,2,3,3,3,0,3,3,1,3,3,2,3,3,3,0,0,0,0,0,1,0,0,2,0,0,3,0,13,0,0,13,1,0,13,2,0,13,3,13,0,0,13,0,1,13,0,2,13,0,3,13,13,0,13,13,1,13,13,3,0,0,0,0,0,1,0,0,2,0,0,3,0,1,0,0,1,1,0,1,2,0,1,3,0,2,0,0,2,1,0,2,2,0,2,3,0,3,0,0,3,1,0,3,2,0,3,3,13,0,0,13,0,1,13,0,2,13,0,3,13,1,0,13,1,1,13,1,2,13,1,3,13,2,0,13,2,2,13,2,3,13,3,0,13,3,1,13,3,2,13,3,3,0,0,0,0,0,13,0,13,0,0,13,13,1,0,0,1,0,13,1,13,0,1,13,13,2,0,0,2,0,13,2,13,0,3,0,0,3,0,13,3,13,0,3,13,13,0,0,0,0,0,1,0,0,2,0,0,3,0,13,0,0,13,1,0,13,2,0,13,3,2,0,0,2,0,1,2,0,2,2,0,3,2,13,0,2,13,1,2,13,2,0,0,0,0,0,1,0,0,2,0,0,3,0,1,0,0,1,1,0,1,2,0,1,3,0,2,0,0,2,1,0,2,2,0,2,3,0,3,0,0,3,1,0,3,2,0,3,3,13,0,0,13,0,1,13,0,2,13,0,3,13,1,0,13,1,1,13,1,2,13,1,3,13,2,0,13,2,2,13,2,3,13,3,0,13,3,1,13,3,2,13,3,3,0,0,0,0,0,2,0,1,0,0,1,2,0,2,0,0,2,2,0,3,0,0,3,2,13,0,0,13,0,2,13,1,0,13,1,2,13,2,0,13,2,2,13,3,0,0,0,0,0,0,1,0,0,2,0,0,3,0,1,0,0,1,1,0,1,2,0,1,3,0,2,0,0,2,1,0,2,2,0,2,3,0,3,0,0,3,1,0,3,2,0,3,3,1,0,0,1,0,1,1,0,2,1,0,3,1,1,0,1,1,1,1,1,2,1,1,3,1,2,0,1,2,1,1,2,2,1,2,3,1,3,0,1,3,1,1,3,3,2,0,0,2,0,1,2,0,2,2,0,3,2,1,0,2,1,1,2,1,2,2,1,3,2,2,0,2,2,1,2,2,2,2,2,3,2,3,0,2,3,1,2,3,2,2,3,3,3,0,0,3,0,1,3,0,2,3,0,3,3,1,0,3,1,1,3,1,2,3,1,3,3,2,0,3,2,1,3,2,2,3,2,3,3,3,0,3,3,1,3,3,2,3,3,3,0,0,0,0,0,13,0,13,0,0,13,13,1,0,0,1,0,13,1,13,0,1,13,13,2,0,0,2,0,13,2,13,0,3,0,0,3,0,13,3,13,0,3,13,13,0,0,0,0,0,1,0,0,2,0,0,3,0,1,0,0,1,1,0,1,2,0,1,3,0,2,0,0,2,1,0,2,2,0,2,3,0,3,0,0,3,1,0,3,2,0,3,3,13,0,0,13,0,1,13,0,2,13,0,3,13,1,0,13,1,1,13,1,3,13,2,0,13,2,1,13,2,2,13,2,3,13,3,0,13,3,1,13,3,2,13,3,3,0,0,0,0,0,1,0,0,2,0,0,3,0,1,0,0,1,1,0,1,2,0,1,3,0,2,0,0,2,1,0,2,2,0,2,3,0,3,0,0,3,1,0,3,2,0,3,3,1,0,0,1,0,1,1,0,2,1,0,3,1,1,0,1,1,1,1,1,2,1,1,3,1,2,0,1,2,1,1,2,2,1,2,3,1,3,0,1,3,1,1,3,3,2,0,0,2,0,1,2,0,2,2,0,3,2,1,0,2,1,1,2,1,2,2,1,3,2,2,0,2,2,1,2,2,2,2,2,3,2,3,0,2,3,1,2,3,2,2,3,3,3,0,0,3,0,1,3,0,2,3,0,3,3,1,0,3,1,1,3,1,2,3,1,3,3,2,0,3,2,1,3,2,2,3,2,3,3,3,0,3,3,1,3,3,2,3,3,3,0,0,0,0,0,1,0,0,2,0,0,3,0,13,0,0,13,1,0,13,2,0,13,3,2,0,0,2,0,1,2,0,2,2,0,3,2,13,0,2,13,1,2,13,2,0,0,0,0,0,1,0,0,2,0,0,3,0,1,0,0,1,1,0,1,2,0,1,3,0,2,0,0,2,1,0,2,2,0,2,3,0,3,0,0,3,1,0,3,2,0,3,3,13,0,0,13,0,1,13,0,2,13,0,3,13,1,0,13,1,1,13,1,3,13,2,0,13,2,1,13,2,2,13,2,3,13,3,0,13,3,1,13,3,2,13,3,3,0,0,0,0,0,1,0,0,2,0,0,3,0,1,0,0,1,1,0,1,2,0,1,3,0,2,0,0,2,1,0,2,2,0,2,3,0,3,0,0,3,1,0,3,2,0,3,3,13,0,0,13,0,1,13,0,2,13,0,3,13,1,0,13,1,1,13,1,2,13,1,3,13,2,0,13,2,1,13,2,2,13,2,3,13,3,0,13,3,1,13,3,3,0,0,0,0,0,1,0,0,2,0,0,3,0,1,0,0,1,1,0,1,2,0,1,3,0,2,0,0,2,1,0,2,2,0,2,3,0,3,0,0,3,1,0,3,2,0,3,3,13,0,0,13,0,1,13,0,2,13,0,3,13,1,0,13,1,1,13,1,2,13,1,3,13,2,0,13,2,2,13,2,3,13,3,0,13,3,1,13,3,2,13,3,3,0,0,0,0,0,1,0,0,2,0,0,3,0,1,0,0,1,1,0,1,2,0,1,3,0,2,0,0,2,1,0,2,2,0,2,3,0,3,0,0,3,1,0,3,2,0,3,3,1,0,0,1,0,1,1,0,2,1,0,3,1,1,0,1,1,1,1,1,2,1,1,3,1,2,0,1,2,1,1,2,2,1,3,0,1,3,1,1,3,2,1,3,3,2,0,0,2,0,1,2,0,2,2,0,3,2,1,0,2,1,1,2,1,2,2,1,3,2,2,0,2,2,1,2,2,2,2,2,3,2,3,0,2,3,1,2,3,2,2,3,3,3,0,0,3,0,1,3,0,2,3,0,3,3,1,0,3,1,1,3,1,2,3,1,3,3,2,0,3,2,1,3,2,2,3,2,3,3,3,0,3,3,1,3,3,2,3,3,3,0,0,0,0,0,1,0,0,2,0,0,3,0,1,0,0,1,1,0,1,2,0,1,3,0,2,0,0,2,1,0,2,2,0,2,3,0,3,0,0,3,1,0,3,2,0,3,3,13,0,0,13,0,1,13,0,2,13,0,3,13,1,0,13,1,1,13,1,3,13,2,0,13,2,1,13,2,2,13,2,3,13,3,0,13,3,1,13,3,2,13,3,3,0,0,0,0,0,1,0,0,2,0,0,3,0,1,0,0,1,1,0,1,2,0,1,3,0,2,0,0,2,1,0,2,2,0,2,3,0,3,0,0,3,1,0,3,2,0,3,3,13,0,0,13,0,1,13,0,2,13,0,3,13,1,0,13,1,1,13,1,3,13,2,0,13,2,1,13,2,2,13,2,3,13,3,0,13,3,1,13,3,2,13,3,3,0,0,0,0,0,13,0,13,0,0,13,13,1,0,0,1,0,13,1,13,0,1,13,13,2,0,0,2,0,13,2,13,0,3,0,0,3,0,13,3,13,0,3,13,13,0,0,0,0,0,1,0,0,2,0,0,3,0,1,0,0,1,1,0,1,2,0,1,3,0,2,0,0,2,1,0,2,2,0,2,3,0,3,0,0,3,1,0,3,2,0,3,3,13,0,0,13,0,1,13,0,2,13,0,3,13,1,0,13,1,1,13,1,2,13,1,3,13,2,0,13,2,2,13,2,3,13,3,0,13,3,1,13,3,2,13,3,3,0,0,0,0,0,1,0,0,2,0,0,3,0,1,0,0,1,1,0,1,2,0,1,3,0,2,0,0,2,1,0,2,2,0,2,3,0,3,0,0,3,1,0,3,2,0,3,3,13,0,0,13,0,1,13,0,2,13,0,3,13,1,0,13,1,1,13,1,2,13,1,3,13,2,0,13,2,2,13,2,3,13,3,0,13,3,1,13,3,2,13,3,3,0,0,0,0,0,2,0,1,0,0,1,2,0,2,0,0,2,2,0,3,0,0,3,2,13,0,0,13,0,2,13,1,0,13,1,2,13,2,0,13,2,2,13,3,0,0,0,0,0,0,1,0,0,2,0,0,3,0,1,0,0,1,1,0,1,2,0,1,3,0,2,0,0,2,1,0,2,2,0,2,3,0,3,0,0,3,1,0,3,2,0,3,3,13,0,0,13,0,1,13,0,2,13,0,3,13,1,0,13,1,1,13,1,3,13,2,0,13,2,1,13,2,2,13,2,3,13,3,0,13,3,1,13,3,2,13,3,3,0,0,0,0,0,1,0,0,2,0,0,3,0,1,0,0,1,1,0,1,2,0,1,3,0,2,0,0,2,1,0,2,2,0,2,3,0,3,0,0,3,1,0,3,2,0,3,3,13,0,0,13,0,1,13,0,2,13,0,3,13,1,0,13,1,1,13,1,2,13,1,3,13,2,0,13,2,2,13,2,3,13,3,0,13,3,1,13,3,2,13,3,3,0,0,0,0,0,1,0,0,2,0,0,3,0,1,0,0,1,1,0,1,2,0,1,3,0,2,0,0,2,1,0,2,2,0,2,3,0,3,0,0,3,1,0,3,2,0,3,3,1,0,0,1,0,1,1,0,2,1,0,3,1,1,0,1,1,1,1,1,2,1,1,3,1,2,0,1,2,1,1,2,2,1,3,0,1,3,1,1,3,2,1,3,3,2,0,0,2,0,1,2,0,2,2,0,3,2,1,0,2,1,1,2,1,2,2,1,3,2,2,0,2,2,1,2,2,2,2,2,3,2,3,0,2,3,1,2,3,2,2,3,3,3,0,0,3,0,1,3,0,2,3,0,3,3,1,0,3,1,1,3,1,2,3,1,3,3,2,0,3,2,1,3,2,2,3,2,3,3,3,0,3,3,1,3,3,2,3,3,3,0,0,0,0,0,1,0,0,2,0,0,3,0,13,0,0,13,1,0,13,2,0,13,3,13,0,0,13,0,1,13,0,2,13,0,3,13,13,0,13,13,1,13,13,3,0,0,0,0,0,1,0,0,2,0,0,3,0,13,0,0,13,1,0,13,2,0,13,3,2,0,0,2,0,1,2,0,2,2,0,3,2,13,0,2,13,1,2,13,2,0,0,0,0,0,1,0,0,2,0,0,3,0,1,0,0,1,1,0,1,2,0,1,3,0,2,0,0,2,1,0,2,2,0,2,3,0,3,0,0,3,1,0,3,2,0,3,3,1,0,0,1,0,1,1,0,2,1,0,3,1,1,0,1,1,1,1,1,2,1,1,3,1,2,0,1,2,1,1,2,2,1,2,3,1,3,0,1,3,1,1,3,2,1,3,3,2,0,0,2,0,1,2,0,2,2,0,3,2,1,0,2,1,1,2,1,2,2,2,0,2,2,1,2,2,2,2,2,3,2,3,0,2,3,1,2,3,2,2,3,3,3,0,0,3,0,1,3,0,2,3,0,3,3,1,0,3,1,1,3,1,2,3,1,3,3,2,0,3,2,1,3,2,2,3,2,3,3,3,0,3,3,1,3,3,2,3,3,3,0,0,0,0,0,1,0,0,2,0,0,3,0,1,0,0,1,1,0,1,2,0,1,3,0,2,0,0,2,1,0,2,2,0,2,3,0,3,0,0,3,1,0,3,2,0,3,3,13,0,0,13,0,1,13,0,2,13,0,3,13,1,0,13,1,1,13,1,3,13,2,0,13,2,1,13,2,2,13,2,3,13,3,0,13,3,1,13,3,2,13,3,3,0,0,0,0,0,2,0,1,0,0,1,2,0,2,0,0,2,2,0,3,0,0,3,2,13,0,0,13,0,2,13,1,0,13,1,2,13,2,0,13,2,2,13,3,0,0,0,0,0,0,1,0,0,2,0,0,3,0,1,0,0,1,1,0,1,2,0,1,3,0,2,0,0,2,1,0,2,2,0,2,3,0,3,0,0,3,1,0,3,2,0,3,3,1,0,0,1,0,1,1,0,2,1,0,3,1,1,0,1,1,1,1,1,2,1,1,3,1,2,0,1,2,1,1,2,2,1,2,3,1,3,0,1,3,1,1,3,3,2,0,0,2,0,1,2,0,2,2,0,3,2,1,0,2,1,1,2,1,2,2,1,3,2,2,0,2,2,1,2,2,2,2,2,3,2,3,0,2,3,1,2,3,2,2,3,3,3,0,0,3,0,1,3,0,2,3,0,3,3,1,0,3,1,1,3,1,2,3,1,3,3,2,0,3,2,1,3,2,2,3,2,3,3,3,0,3,3,1,3,3,2,3,3,3,0,0,0,0,0,13,0,1,0,0,1,13,0,2,0,0,2,13,0,3,0,0,3,13,1,0,0,1,0,13,1,1,0,1,1,13,1,2,0,1,3,0,1,3,13,2,0,0,2,0,13,2,1,0,2,1,13,2,2,0,2,2,13,2,3,0,2,3,13,3,0,0,3,0,13,3,1,0,3,1,13,3,2,0,3,2,13,3,3,0,3,3,13,0,0,0,0,0,1,0,0,2,0,0,3,0,13,0,0,13,1,0,13,2,0,13,3,1,0,0,1,0,1,1,0,2,1,0,3,1,13,0,1,13,1,1,13,2,1,13,3,2,0,0,2,0,1,2,0,2,2,0,3,2,13,0,2,13,2,2,13,3,3,0,0,3,0,1,3,0,2,3,0,3,3,13,0,3,13,1,3,13,2,3,13,3,0,0,0,0,0,1,0,0,2,0,0,3,0,1,0,0,1,1,0,1,2,0,1,3,0,2,0,0,2,1,0,2,2,0,2,3,0,3,0,0,3,1,0,3,2,0,3,3,1,0,0,1,0,1,1,0,2,1,0,3,1,1,0,1,1,1,1,1,2,1,1,3,1,2,0,1,2,1,1,2,2,1,2,3,1,3,0,1,3,1,1,3,3,2,0,0,2,0,1,2,0,2,2,0,3,2,1,0,2,1,1,2,1,2,2,1,3,2,2,0,2,2,1,2,2,2,2,2,3,2,3,0,2,3,1,2,3,2,2,3,3,3,0,0,3,0,1,3,0,2,3,0,3,3,1,0,3,1,1,3,1,2,3,1,3,3,2,0,3,2,1,3,2,2,3,2,3,3,3,0,3,3,1,3,3,2,3,3,3,0,0,0,0,0,1,0,0,2,0,0,3,0,1,0,0,1,1,0,1,2,0,1,3,0,2,0,0,2,1,0,2,2,0,2,3,0,3,0,0,3,1,0,3,2,0,3,3,13,0,0,13,0,1,13,0,2,13,0,3,13,1,0,13,1,1,13,1,3,13,2,0,13,2,1,13,2,2,13,2,3,13,3,0,13,3,1,13,3,2,13,3,3,0,0,0,0,0,1,0,0,2,0,0,3,0,1,0,0,1,1,0,1,2,0,1,3,0,2,0,0,2,1,0,2,2,0,2,3,0,3,0,0,3,1,0,3,2,0,3,3,13,0,0,13,0,1,13,0,2,13,0,3,13,1,0,13,1,1,13,1,3,13,2,0,13,2,1,13,2,2,13,2,3,13,3,0,13,3,1,13,3,2,13,3,3,0,0,0,0,0,1,0,0,2,0,0,3,0,1,0,0,1,1,0,1,2,0,1,3,0,2,0,0,2,1,0,2,2,0,2,3,0,3,0,0,3,1,0,3,2,0,3,3,13,0,0,13,0,1,13,0,2,13,0,3,13,1,0,13,1,1,13,1,3,13,2,0,13,2,1,13,2,2,13,2,3,13,3,0,13,3,1,13,3,2,13,3,3,0,0,0,0,0,1,0,0,2,0,0,3,0,1,0,0,1,1,0,1,2,0,1,3,0,2,0,0,2,1,0,2,2,0,2,3,0,3,0,0,3,1,0,3,2,0,3,3,1,0,0,1,0,1,1,0,2,1,0,3,1,1,0,1,1,1,1,1,2,1,1,3,1,2,0,1,2,1,1,2,2,1,2,3,1,3,0,1,3,1,1,3,2,1,3,3,2,0,0,2,0,1,2,0,2,2,0,3,2,1,0,2,1,1,2,1,2,2,2,0,2,2,1,2,2,2,2,2,3,2,3,0,2,3,1,2,3,2,2,3,3,3,0,0,3,0,1,3,0,2,3,0,3,3,1,0,3,1,1,3,1,2,3,1,3,3,2,0,3,2,1,3,2,2,3,2,3,3,3,0,3,3,1,3,3,2,3,3,3,0,0,0,0,0,1,0,0,2,0,0,3,0,13,0,0,13,1,0,13,2,0,13,3,1,0,0,1,0,1,1,0,2,1,0,3,1,13,0,1,13,1,1,13,2,1,13,3,2,0,0,2,0,1,2,0,2,2,0,3,2,13,0,2,13,2,2,13,3,3,0,0,3,0,1,3,0,2,3,0,3,3,13,0,3,13,1,3,13,2,3,13,3,0,0,0,0,0,1,0,0,2,0,0,3,0,13,0,0,13,1,0,13,2,0,13,3,13,0,0,13,0,1,13,0,2,13,0,3,13,13,0,13,13,1,13,13,3,0,0,0,0,0,1,0,0,2,0,0,3,0,1,0,0,1,1,0,1,2,0,1,3,0,2,0,0,2,1,0,2,2,0,2,3,0,3,0,0,3,1,0,3,2,0,3,3,1,0,0,1,0,1,1,0,2,1,0,3,1,1,0,1,1,1,1,1,2,1,1,3,1,2,0,1,2,1,1,2,2,1,2,3,1,3,0,1,3,1,1,3,3,2,0,0,2,0,1,2,0,2,2,0,3,2,1,0,2,1,1,2,1,2,2,1,3,2,2,0,2,2,1,2,2,2,2,2,3,2,3,0,2,3,1,2,3,2,2,3,3,3,0,0,3,0,1,3,0,2,3,0,3,3,1,0,3,1,1,3,1,2,3,1,3,3,2,0,3,2,1,3,2,2,3,2,3,3,3,0,3,3,1,3,3,2,3,3,3,0,0,0,0,0,1,0,0,2,0,0,3,0,1,0,0,1,1,0,1,2,0,1,3,0,2,0,0,2,1,0,2,2,0,2,3,0,3,0,0,3,1,0,3,2,0,3,3,1,0,0,1,0,1,1,0,2,1,0,3,1,1,0,1,1,1,1,1,2,1,1,3,1,2,0,1,2,1,1,2,2,1,3,0,1,3,1,1,3,2,1,3,3,2,0,0,2,0,1,2,0,2,2,0,3,2,1,0,2,1,1,2,1,2,2,1,3,2,2,0,2,2,1,2,2,2,2,2,3,2,3,0,2,3,1,2,3,2,2,3,3,3,0,0,3,0,1,3,0,2,3,0,3,3,1,0,3,1,1,3,1,2,3,1,3,3,2,0,3,2,1,3,2,2,3,2,3,3,3,0,3,3,1,3,3,2,3,3,3,0,0,0,0,0,1,0,0,2,0,0,3,0,1,0,0,1,1,0,1,2,0,1,3,0,2,0,0,2,1,0,2,2,0,2,3,0,3,0,0,3,1,0,3,2,0,3,3,1,0,0,1,0,1,1,0,2,1,0,3,1,1,0,1,1,1,1,1,2,1,1,3,1,2,0,1,2,1,1,2,2,1,2,3,1,3,0,1,3,1,1,3,3,2,0,0,2,0,1,2,0,2,2,0,3,2,1,0,2,1,1,2,1,2,2,1,3,2,2,0,2,2,1,2,2,2,2,2,3,2,3,0,2,3,1,2,3,2,2,3,3,3,0,0,3,0,1,3,0,2,3,0,3,3,1,0,3,1,1,3,1,2,3,1,3,3,2,0,3,2,1,3,2,2,3,2,3,3,3,0,3,3,1,3,3,2,3,3,3,0,0,0,0,0,1,0,0,2,0,0,3,0,13,0,0,13,1,0,13,2,0,13,3,1,0,0,1,0,1,1,0,2,1,0,3,1,13,0,1,13,1,1,13,2,1,13,3,2,0,0,2,0,1,2,0,2,2,0,3,2,13,0,2,13,2,2,13,3,3,0,0,3,0,1,3,0,2,3,0,3,3,13,0,3,13,1,3,13,2,3,13,3,0,0,0,0,0,13,0,1,0,0,1,13,0,2,0,0,2,13,0,3,0,0,3,13,13,0,0,13,0,13,13,1,0,13,1,13,13,2,0,13,3,0,13,3,13,0,0,0,0,0,1,0,0,2,0,0,3,0,1,0,0,1,1,0,1,2,0,1,3,0,2,0,0,2,1,0,2,2,0,2,3,0,3,0,0,3,1,0,3,2,0,3,3,13,0,0,13,0,1,13,0,2,13,0,3,13,1,0,13,1,1,13,1,2,13,1,3,13,2,0,13,2,1,13,2,2,13,2,3,13,3,0,13,3,1,13,3,3,0,0,0,0,0,1,0,0,2,0,0,3,0,1,0,0,1,1,0,1,2,0,1,3,0,2,0,0,2,1,0,2,2,0,2,3,0,3,0,0,3,1,0,3,2,0,3,3,13,0,0,13,0,1,13,0,2,13,0,3,13,1,0,13,1,1,13,1,2,13,1,3,13,2,0,13,2,2,13,2,3,13,3,0,13,3,1,13,3,2,13,3,3,0,0,0,0,0,1,0,0,2,0,0,3,0,1,0,0,1,1,0,1,2,0,1,3,0,2,0,0,2,1,0,2,2,0,2,3,0,3,0,0,3,1,0,3,2,0,3,3,13,0,0,13,0,1,13,0,2,13,0,3,13,1,0,13,1,1,13,1,3,13,2,0,13,2,1,13,2,2,13,2,3,13,3,0,13,3,1,13,3,2,13,3,3,0,0,0,0,0,1,0,0,2,0,0,3,0,1,0,0,1,1,0,1,2,0,1,3,0,2,0,0,2,1,0,2,2,0,2,3,0,3,0,0,3,1,0,3,2,0,3,3,1,0,0,1,0,1,1,0,2,1,0,3,1,1,0,1,1,1,1,1,2,1,1,3,1,2,0,1,2,1,1,2,2,1,2,3,1,3,0,1,3,1,1,3,3,2,0,0,2,0,1,2,0,2,2,0,3,2,1,0,2,1,1,2,1,2,2,1,3,2,2,0,2,2,1,2,2,2,2,2,3,2,3,0,2,3,1,2,3,2,2,3,3,3,0,0,3,0,1,3,0,2,3,0,3,3,1,0,3,1,1,3,1,2,3,1,3,3,2,0,3,2,1,3,2,2,3,2,3,3,3,0,3,3,1,3,3,2,3,3,3,0,0,0,0,0,2,0,1,0,0,1,2,0,2,0,0,2,2,0,3,0,0,3,2,13,0,0,13,0,2,13,1,0,13,1,2,13,2,0,13,2,2,13,3,0,0,0,0,0,0,1,0,0,2,0,0,3,0,1,0,0,1,1,0,1,2,0,1,3,0,2,0,0,2,1,0,2,2,0,2,3,0,3,0,0,3,1,0,3,2,0,3,3,13,0,0,13,0,1,13,0,2,13,0,3,13,1,0,13,1,1,13,1,2,13,1,3,13,2,0,13,2,1,13,2,2,13,2,3,13,3,0,13,3,1,13,3,3,0,0,0,0,0,13,0,1,0,0,1,13,0,2,0,0,2,13,0,3,0,0,3,13,13,0,0,13,0,13,13,1,0,13,1,13,13,2,0,13,3,0,13,3,13,0,0,0,0,0,13,0,1,0,0,1,13,0,2,0,0,2,13,0,3,0,0,3,13,13,0,0,13,0,13,13,1,0,13,1,13,13,2,0,13,3,0,13,3,13,0,0,0,0,0,1,0,0,2,0,0,3,0,1,0,0,1,1,0,1,2,0,1,3,0,2,0,0,2,1,0,2,2,0,2,3,0,3,0,0,3,1,0,3,2,0,3,3,1,0,0,1,0,1,1,0,2,1,0,3,1,1,0,1,1,1,1,1,2,1,1,3,1,2,0,1,2,1,1,2,2,1,2,3,1,3,0,1,3,1,1,3,2,1,3,3,2,0,0,2,0,1,2,0,2,2,0,3,2,1,0,2,1,1,2,1,2,2,1,3,2,2,0,2,2,1,2,2,2,2,2,3,2,3,0,2,3,1,2,3,2,2,3,3,3,0,0,3,0,1,3,0,2,3,0,3,3,1,0,3,1,1,3,1,2,3,1,3,3,2,0,3,2,2,3,2,3,3,3,0,3,3,1,3,3,2,3,3,3,0,0,0,0,0,1,0,0,2,0,0,3,0,1,0,0,1,1,0,1,2,0,1,3,0,2,0,0,2,1,0,2,2,0,2,3,0,3,0,0,3,1,0,3,2,0,3,3,1,0,0,1,0,1,1,0,2,1,0,3,1,1,0,1,1,1,1,1,2,1,1,3,1,2,0,1,2,1,1,2,2,1,3,0,1,3,1,1,3,2,1,3,3,2,0,0,2,0,1,2,0,2,2,0,3,2,1,0,2,1,1,2,1,2,2,1,3,2,2,0,2,2,1,2,2,2,2,2,3,2,3,0,2,3,1,2,3,2,2,3,3,3,0,0,3,0,1,3,0,2,3,0,3,3,1,0,3,1,1,3,1,2,3,1,3,3,2,0,3,2,1,3,2,2,3,2,3,3,3,0,3,3,1,3,3,2,3,3,3,0,0,0,0,0,1,0,0,2,0,0,3,0,13,0,0,13,1,0,13,2,0,13,3,1,0,0,1,0,1,1,0,2,1,0,3,1,13,0,1,13,1,1,13,3,2,0,0,2,0,1,2,0,2,2,0,3,2,13,0,2,13,1,2,13,2,2,13,3,3,0,0,3,0,1,3,0,2,3,0,3,3,13,0,3,13,1,3,13,2,3,13,3,0,0,0,0,0,1,0,0,2,0,0,3,0,1,0,0,1,1,0,1,2,0,1,3,0,2,0,0,2,1,0,2,2,0,2,3,0,3,0,0,3,1,0,3,2,0,3,3,13,0,0,13,0,1,13,0,2,13,0,3,13,1,0,13,1,1,13,1,3,13,2,0,13,2,1,13,2,2,13,2,3,13,3,0,13,3,1,13,3,2,13,3,3,0,0,0,0,0,13,0,1,0,0,1,13,0,2,0,0,2,13,0,3,0,0,3,13,13,0,0,13,0,13,13,1,0,13,1,13,13,2,0,13,3,0,13,3,13,0,0,0,0,0,1,0,0,2,0,0,3,0,1,0,0,1,1,0,1,2,0,1,3,0,2,0,0,2,1,0,2,2,0,2,3,0,3,0,0,3,1,0,3,2,0,3,3,13,0,0,13,0,1,13,0,2,13,0,3,13,1,0,13,1,1,13,1,2,13,1,3,13,2,0,13,2,2,13,2,3,13,3,0,13,3,1,13,3,2,13,3,3,0,0,0,0,0,1,0,0,2,0,0,3,0,1,0,0,1,1,0,1,2,0,1,3,0,2,0,0,2,1,0,2,2,0,2,3,0,3,0,0,3,1,0,3,2,0,3,3,1,0,0,1,0,1,1,0,2,1,0,3,1,1,0,1,1,1,1,1,2,1,1,3,1,2,0,1,2,1,1,2,2,1,2,3,1,3,0,1,3,1,1,3,2,1,3,3,2,0,0,2,0,1,2,0,2,2,0,3,2,1,0,2,1,1,2,1,2,2,2,0,2,2,1,2,2,2,2,2,3,2,3,0,2,3,1,2,3,2,2,3,3,3,0,0,3,0,1,3,0,2,3,0,3,3,1,0,3,1,1,3,1,2,3,1,3,3,2,0,3,2,1,3,2,2,3,2,3,3,3,0,3,3,1,3,3,2,3,3,3,0,0,0,0,0,1,0,0,2,0,0,3,0,13,0,0,13,1,0,13,2,0,13,3,13,0,0,13,0,1,13,0,2,13,0,3,13,13,0,13,13,1,13,13,3,0,0,0,0,0,1,0,0,2,0,0,3,0,13,0,0,13,1,0,13,2,0,13,3,13,0,0,13,0,1,13,0,2,13,0,3,13,13,0,13,13,1,13,13,3,0,0,0,0,0,1,0,0,2,0,0,3,0,1,0,0,1,1,0,1,2,0,1,3,0,2,0,0,2,1,0,2,2,0,2,3,0,3,0,0,3,1,0,3,2,0,3,3,13,0,0,13,0,1,13,0,2,13,0,3,13,1,0,13,1,1,13,1,2,13,1,3,13,2,0,13,2,2,13,2,3,13,3,0,13,3,1,13,3,2,13,3,3,0,0,0,0,0,1,0,0,2,0,0,3,0,1,0,0,1,1,0,1,2,0,1,3,0,2,0,0,2,1,0,2,2,0,2,3,0,3,0,0,3,1,0,3,2,0,3,3,13,0,0,13,0,1,13,0,2,13,0,3,13,1,0,13,1,1,13,1,3,13,2,0,13,2,1,13,2,2,13,2,3,13,3,0,13,3,1,13,3,2,13,3,3,0,0,0,0,0,1,0,0,2,0,0,3,0,1,0,0,1,1,0,1,2,0,1,3,0,2,0,0,2,1,0,2,2,0,2,3,0,3,0,0,3,1,0,3,2,0,3,3,1,0,0,1,0,1,1,0,2,1,0,3,1,1,0,1,1,1,1,1,2,1,1,3,1,2,0,1,2,1,1,2,2,1,2,3,1,3,0,1,3,1,1,3,3,2,0,0,2,0,1,2,0,2,2,0,3,2,1,0,2,1,1,2,1,2,2,1,3,2,2,0,2,2,1,2,2,2,2,2,3,2,3,0,2,3,1,2,3,2,2,3,3,3,0,0,3,0,1,3,0,2,3,0,3,3,1,0,3,1,1,3,1,2,3,1,3,3,2,0,3,2,1,3,2,2,3,2,3,3,3,0,3,3,1,3,3,2,3,3,3,0,0,0,0,0,1,0,0,2,0,0,3,0,1,0,0,1,1,0,1,2,0,1,3,0,2,0,0,2,1,0,2,2,0,2,3,0,3,0,0,3,1,0,3,2,0,3,3,13,0,0,13,0,1,13,0,2,13,0,3,13,1,0,13,1,1,13,1,3,13,2,0,13,2,1,13,2,2,13,2,3,13,3,0,13,3,1,13,3,2,13,3,3,0,0,0,0,0,1,0,0,2,0,0,3,0,1,0,0,1,1,0,1,2,0,1,3,0,2,0,0,2,1,0,2,2,0,2,3,0,3,0,0,3,1,0,3,2,0,3,3,1,0,0,1,0,1,1,0,2,1,0,3,1,1,0,1,1,1,1,1,2,1,1,3,1,2,0,1,2,1,1,2,2,1,2,3,1,3,0,1,3,1,1,3,3,2,0,0,2,0,1,2,0,2,2,0,3,2,1,0,2,1,1,2,1,2,2,1,3,2,2,0,2,2,1,2,2,2,2,2,3,2,3,0,2,3,1,2,3,2,2,3,3,3,0,0,3,0,1,3,0,2,3,0,3,3,1,0,3,1,1,3,1,2,3,1,3,3,2,0,3,2,1,3,2,2,3,2,3,3,3,0,3,3,1,3,3,2,3,3,3,0,0,0,0,0,13,0,1,0,0,1,13,0,2,0,0,2,13,0,3,0,0,3,13,1,0,0,1,0,13,1,1,0,1,1,13,1,2,0,1,2,13,1,3,0,1,3,13,2,0,0,2,0,13,2,1,0,2,2,0,2,2,13,2,3,0,2,3,13,3,0,0,3,0,13,3,1,0,3,1,13,3,2,0,3,2,13,3,3,0,3,3,13,0,0,0,0,0,1,0,0,2,0,0,3,0,1,0,0,1,1,0,1,2,0,1,3,0,2,0,0,2,1,0,2,2,0,2,3,0,3,0,0,3,1,0,3,2,0,3,3,1,0,0,1,0,1,1,0,2,1,0,3,1,1,0,1,1,1,1,1,2,1,1,3,1,2,0,1,2,1,1,2,2,1,3,0,1,3,1,1,3,2,1,3,3,2,0,0,2,0,1,2,0,2,2,0,3,2,1,0,2,1,1,2,1,2,2,1,3,2,2,0,2,2,1,2,2,2,2,2,3,2,3,0,2,3,1,2,3,2,2,3,3,3,0,0,3,0,1,3,0,2,3,0,3,3,1,0,3,1,1,3,1,2,3,1,3,3,2,0,3,2,1,3,2,2,3,2,3,3,3,0,3,3,1,3,3,2,3,3,3,0,0,0,0,0,1,0,0,2,0,0,3,0,13,0,0,13,1,0,13,2,0,13,3,1,0,0,1,0,1,1,0,2,1,0,3,1,13,0,1,13,1,1,13,2,1,13,3,2,0,0,2,0,1,2,0,2,2,0,3,2,13,0,2,13,2,2,13,3,3,0,0,3,0,1,3,0,2,3,0,3,3,13,0,3,13,1,3,13,2,3,13,3,0,0,0,0,0,1,0,0,2,0,0,3,0,1,0,0,1,1,0,1,2,0,1,3,0,2,0,0,2,1,0,2,2,0,2,3,0,3,0,0,3,1,0,3,2,0,3,3,1,0,0,1,0,1,1,0,2,1,0,3,1,1,0,1,1,1,1,1,2,1,1,3,1,2,0,1,2,1,1,2,2,1,2,3,1,3,0,1,3,1,1,3,3,2,0,0,2,0,1,2,0,2,2,0,3,2,1,0,2,1,1,2,1,2,2,1,3,2,2,0,2,2,1,2,2,2,2,2,3,2,3,0,2,3,1,2,3,2,2,3,3,3,0,0,3,0,1,3,0,2,3,0,3,3,1,0,3,1,1,3,1,2,3,1,3,3,2,0,3,2,1,3,2,2,3,2,3,3,3,0,3,3,1,3,3,2,3,3,3,0,0,0,0,0,13,0,1,0,0,1,13,0,2,0,0,2,13,0,3,0,0,3,13,13,0,0,13,0,13,13,1,0,13,1,13,13,2,0,13,3,0,13,3,13,0,0,0,0,0,1,0,0,2,0,0,3,0,1,0,0,1,1,0,1,2,0,1,3,0,2,0,0,2,1,0,2,2,0,2,3,0,3,0,0,3,1,0,3,2,0,3,3,13,0,0,13,0,1,13,0,2,13,0,3,13,1,0,13,1,1,13,1,2,13,1,3,13,2,0,13,2,1,13,2,2,13,2,3,13,3,0,13,3,1,13,3,3,0,0,0,0,0,1,0,0,2,0,0,3,0,13,0,0,13,1,0,13,2,0,13,3,13,0,0,13,0,1,13,0,2,13,0,3,13,13,0,13,13,1,13,13,3,0,0,0,0,0,1,0,0,2,0,0,3,0,1,0,0,1,1,0,1,2,0,1,3,0,2,0,0,2,1,0,2,2,0,2,3,0,3,0,0,3,1,0,3,2,0,3,3,1,0,0,1,0,1,1,0,2,1,0,3,1,1,0,1,1,1,1,1,2,1,1,3,1,2,0,1,2,1,1,2,2,1,2,3,1,3,0,1,3,1,1,3,2,1,3,3,2,0,0,2,0,1,2,0,2,2,0,3,2,1,0,2,1,1,2,1,2,2,2,0,2,2,1,2,2,2,2,2,3,2,3,0,2,3,1,2,3,2,2,3,3,3,0,0,3,0,1,3,0,2,3,0,3,3,1,0,3,1,1,3,1,2,3,1,3,3,2,0,3,2,1,3,2,2,3,2,3,3,3,0,3,3,1,3,3,2,3,3,3,0,0,0,0,0,1,0,0,2,0,0,3,0,1,0,0,1,1,0,1,2,0,1,3,0,2,0,0,2,1,0,2,2,0,2,3,0,3,0,0,3,1,0,3,2,0,3,3,13,0,0,13,0,1,13,0,2,13,0,3,13,1,0,13,1,1,13,1,3,13,2,0,13,2,1,13,2,2,13,2,3,13,3,0,13,3,1,13,3,2,13,3,3,0,0,0,0,0,1,0,0,2,0,0,3,0,1,0,0,1,1,0,1,2,0,1,3,0,2,0,0,2,1,0,2,2,0,2,3,0,3,0,0,3,1,0,3,2,0,3,3,13,0,0,13,0,1,13,0,2,13,0,3,13,1,0,13,1,1,13,1,3,13,2,0,13,2,1,13,2,2,13,2,3,13,3,0,13,3,1,13,3,2,13,3,3,0,0,0,0,0,1,0,0,2,0,0,3,0,1,0,0,1,1,0,1,2,0,1,3,0,2,0,0,2,1,0,2,2,0,2,3,0,3,0,0,3,1,0,3,2,0,3,3,13,0,0,13,0,1,13,0,2,13,0,3,13,1,0,13,1,1,13,1,3,13,2,0,13,2,1,13,2,2,13,2,3,13,3,0,13,3,1,13,3,2,13,3,3,0,0,0,0,0,1,0,0,2,0,0,3,0,1,0,0,1,1,0,1,2,0,1,3,0,2,0,0,2,1,0,2,2,0,2,3,0,3,0,0,3,1,0,3,2,0,3,3,1,0,0,1,0,1,1,0,2,1,0,3,1,1,0,1,1,1,1,1,2,1,1,3,1,2,0,1,2,1,1,2,2,1,2,3,1,3,0,1,3,1,1,3,2,1,3,3,2,0,0,2,0,1,2,0,2,2,0,3,2,1,0,2,1,1,2,1,2,2,1,3,2,2,0,2,2,1,2,2,2,2,2,3,2,3,0,2,3,1,2,3,2,2,3,3,3,0,0,3,0,1,3,0,2,3,0,3,3,1,0,3,1,1,3,1,2,3,1,3,3,2,0,3,2,2,3,2,3,3,3,0,3,3,1,3,3,2,3,3,3,0,0,0,0,0,1,0,0,2,0,0,3,0,1,0,0,1,1,0,1,2,0,1,3,0,2,0,0,2,1,0,2,2,0,2,3,0,3,0,0,3,1,0,3,2,0,3,3,1,0,0,1,0,1,1,0,2,1,0,3,1,1,0,1,1,1,1,1,2,1,1,3,1,2,0,1,2,1,1,2,2,1,2,3,1,3,0,1,3,1,1,3,2,1,3,3,2,0,0,2,0,1,2,0,2,2,0,3,2,1,0,2,1,1,2,1,2,2,1,3,2,2,0,2,2,1,2,2,2,2,2,3,2,3,0,2,3,1,2,3,2,2,3,3,3,0,0,3,0,1,3,0,2,3,0,3,3,1,0,3,1,1,3,1,2,3,1,3,3,2,0,3,2,2,3,2,3,3,3,0,3,3,1,3,3,2,3,3,3,0,0,0,0,0,1,0,0,2,0,0,3,0,1,0,0,1,1,0,1,2,0,1,3,0,2,0,0,2,1,0,2,2,0,2,3,0,3,0,0,3,1,0,3,2,0,3,3,13,0,0,13,0,1,13,0,2,13,0,3,13,1,0,13,1,1,13,1,3,13,2,0,13,2,1,13,2,2,13,2,3,13,3,0,13,3,1,13,3,2,13,3,3,0,0,0,0,0,2,0,1,0,0,1,2,0,2,0,0,2,2,0,3,0,0,3,2,13,0,0,13,0,2,13,1,0,13,1,2,13,2,0,13,2,2,13,3,0,0,0,0,0,0,1,0,0,2,0,0,3,0,1,0,0,1,1,0,1,2,0,1,3,0,2,0,0,2,1,0,2,2,0,2,3,0,3,0,0,3,1,0,3,2,0,3,3,1,0,0,1,0,1,1,0,2,1,0,3,1,1,0,1,1,1,1,1,2,1,1,3,1,2,0,1,2,1,1,2,2,1,2,3,1,3,0,1,3,1,1,3,2,1,3,3,2,0,0,2,0,1,2,0,2,2,0,3,2,1,0,2,1,1,2,1,2,2,1,3,2,2,0,2,2,1,2,2,2,2,2,3,2,3,0,2,3,2,2,3,3,3,0,0,3,0,1,3,0,2,3,0,3,3,1,0,3,1,1,3,1,2,3,1,3,3,2,0,3,2,1,3,2,2,3,2,3,3,3,0,3,3,1,3,3,2,3,3,3,0,0,0,0,0,1,0,0,2,0,0,3,0,13,0,0,13,1,0,13,2,0,13,3,1,0,0,1,0,1,1,0,2,1,0,3,1,13,0,1,13,1,1,13,3,2,0,0,2,0,1,2,0,2,2,0,3,2,13,0,2,13,1,2,13,2,2,13,3,3,0,0,3,0,1,3,0,2,3,0,3,3,13,0,3,13,1,3,13,2,3,13,3,0,0,0,0,0,1,0,0,2,0,0,3,0,1,0,0,1,1,0,1,2,0,1,3,0,2,0,0,2,1,0,2,2,0,2,3,0,3,0,0,3,1,0,3,2,0,3,3,13,0,0,13,0,1,13,0,2,13,0,3,13,1,0,13,1,1,13,1,2,13,1,3,13,2,0,13,2,2,13,2,3,13,3,0,13,3,1,13,3,2,13,3,3,0,0,0,0,0,1,0,0,2,0,0,3,0,13,0,0,13,1,0,13,2,0,13,3,13,0,0,13,0,1,13,0,2,13,0,3,13,13,0,13,13,1,13,13,3,0,0,0,0,0,1,0,0,2,0,0,3,0,13,0,0,13,1,0,13,2,0,13,3,2,0,0,2,0,1,2,0,2,2,0,3,2,13,0,2,13,1,2,13,2,0,0,0,0,0,1,0,0,2,0,0,3,0,1,0,0,1,1,0,1,2,0,1,3,0,2,0,0,2,1,0,2,2,0,2,3,0,3,0,0,3,1,0,3,2,0,3,3,1,0,0,1,0,1,1,0,2,1,0,3,1,1,0,1,1,1,1,1,2,1,1,3,1,2,0,1,2,1,1,2,2,1,3,0,1,3,1,1,3,2,1,3,3,2,0,0,2,0,1,2,0,2,2,0,3,2,1,0,2,1,1,2,1,2,2,1,3,2,2,0,2,2,1,2,2,2,2,2,3,2,3,0,2,3,1,2,3,2,2,3,3,3,0,0,3,0,1,3,0,2,3,0,3,3,1,0,3,1,1,3,1,2,3,1,3,3,2,0,3,2,1,3,2,2,3,2,3,3,3,0,3,3,1,3,3,2,3,3,3,0,0,0,0,0,1,0,0,2,0,0,3,0,13,0,0,13,1,0,13,2,0,13,3,1,0,0,1,0,1,1,0,2,1,0,3,1,13,0,1,13,1,1,13,2,1,13,3,2,0,0,2,0,1,2,0,2,2,0,3,2,13,0,2,13,2,2,13,3,3,0,0,3,0,1,3,0,2,3,0,3,3,13,0,3,13,1,3,13,2,3,13,3,0,0,0,0,0,1,0,0,2,0,0,3,0,1,0,0,1,1,0,1,2,0,1,3,0,2,0,0,2,1,0,2,2,0,2,3,0,3,0,0,3,1,0,3,2,0,3,3,13,0,0,13,0,1,13,0,2,13,0,3,13,1,0,13,1,1,13,1,2,13,1,3,13,2,0,13,2,1,13,2,2,13,2,3,13,3,0,13,3,1,13,3,3,0,0,0,0,0,1,0,0,2,0,0,3,0,1,0,0,1,1,0,1,2,0,1,3,0,2,0,0,2,1,0,2,2,0,2,3,0,3,0,0,3,1,0,3,2,0,3,3,1,0,0,1,0,1,1,0,2,1,0,3,1,1,0,1,1,1,1,1,2,1,1,3,1,2,0,1,2,1,1,2,2,1,2,3,1,3,0,1,3,1,1,3,2,1,3,3,2,0,0,2,0,1,2,0,2,2,0,3,2,1,0,2,1,1,2,1,2,2,2,0,2,2,1,2,2,2,2,2,3,2,3,0,2,3,1,2,3,2,2,3,3,3,0,0,3,0,1,3,0,2,3,0,3,3,1,0,3,1,1,3,1,2,3,1,3,3,2,0,3,2,1,3,2,2,3,2,3,3,3,0,3,3,1,3,3,2,3,3,3,0,0,0,0,0,1,0,0,2,0,0,3,0,1,0,0,1,1,0,1,2,0,1,3,0,2,0,0,2,1,0,2,2,0,2,3,0,3,0,0,3,1,0,3,2,0,3,3,1,0,0,1,0,1,1,0,2,1,0,3,1,1,0,1,1,1,1,1,2,1,1,3,1,2,0,1,2,1,1,2,2,1,2,3,1,3,0,1,3,1,1,3,2,1,3,3,2,0,0,2,0,1,2,0,2,2,0,3,2,1,0,2,1,1,2,1,2,2,1,3,2,2,0,2,2,1,2,2,2,2,2,3,2,3,0,2,3,1,2,3,2,2,3,3,3,0,0,3,0,1,3,0,2,3,0,3,3,1,0,3,1,1,3,1,3,3,2,0,3,2,1,3,2,2,3,2,3,3,3,0,3,3,1,3,3,2,3,3,3,0,0,0,0,0,1,0,0,2,0,0,3,0,1,0,0,1,1,0,1,2,0,1,3,0,2,0,0,2,1,0,2,2,0,2,3,0,3,0,0,3,1,0,3,2,0,3,3,13,0,0,13,0,1,13,0,2,13,0,3,13,1,0,13,1,1,13,1,3,13,2,0,13,2,1,13,2,2,13,2,3,13,3,0,13,3,1,13,3,2,13,3,3,0,0,0,0,0,1,0,0,2,0,0,3,0,13,0,0,13,1,0,13,2,0,13,3,1,0,0,1,0,1,1,0,2,1,0,3,1,13,0,1,13,1,1,13,2,1,13,3,2,0,0,2,0,1,2,0,2,2,0,3,2,13,0,2,13,2,2,13,3,3,0,0,3,0,1,3,0,2,3,0,3,3,13,0,3,13,1,3,13,2,3,13,3,0,0,0,0,0,1,0,0,2,0,0,3,0,1,0,0,1,1,0,1,2,0,1,3,0,2,0,0,2,1,0,2,2,0,2,3,0,3,0,0,3,1,0,3,2,0,3,3,1,0,0,1,0,1,1,0,2,1,0,3,1,1,0,1,1,1,1,1,2,1,1,3,1,2,0,1,2,1,1,2,2,1,2,3,1,3,0,1,3,1,1,3,3,2,0,0,2,0,1,2,0,2,2,0,3,2,1,0,2,1,1,2,1,2,2,1,3,2,2,0,2,2,1,2,2,2,2,2,3,2,3,0,2,3,1,2,3,2,2,3,3,3,0,0,3,0,1,3,0,2,3,0,3,3,1,0,3,1,1,3,1,2,3,1,3,3,2,0,3,2,1,3,2,2,3,2,3,3,3,0,3,3,1,3,3,2,3,3,3,0,0,0,0,0,1,0,0,2,0,0,3,0,1,0,0,1,1,0,1,2,0,1,3,0,2,0,0,2,1,0,2,2,0,2,3,0,3,0,0,3,1,0,3,2,0,3,3,1,0,0,1,0,1,1,0,2,1,0,3,1,1,0,1,1,1,1,1,2,1,1,3,1,2,0,1,2,1,1,2,2,1,3,0,1,3,1,1,3,2,1,3,3,2,0,0,2,0,1,2,0,2,2,0,3,2,1,0,2,1,1,2,1,2,2,1,3,2,2,0,2,2,1,2,2,2,2,2,3,2,3,0,2,3,1,2,3,2,2,3,3,3,0,0,3,0,1,3,0,2,3,0,3,3,1,0,3,1,1,3,1,2,3,1,3,3,2,0,3,2,1,3,2,2,3,2,3,3,3,0,3,3,1,3,3,2,3,3,3,0,0,0,0,0,1,0,0,2,0,0,3,0,1,0,0,1,1,0,1,2,0,1,3,0,2,0,0,2,1,0,2,2,0,2,3,0,3,0,0,3,1,0,3,2,0,3,3,1,0,0,1,0,1,1,0,2,1,0,3,1,1,0,1,1,1,1,1,2,1,1,3,1,2,0,1,2,1,1,2,2,1,2,3,1,3,0,1,3,1,1,3,3,2,0,0,2,0,1,2,0,2,2,0,3,2,1,0,2,1,1,2,1,2,2,1,3,2,2,0,2,2,1,2,2,2,2,2,3,2,3,0,2,3,1,2,3,2,2,3,3,3,0,0,3,0,1,3,0,2,3,0,3,3,1,0,3,1,1,3,1,2,3,1,3,3,2,0,3,2,1,3,2,2,3,2,3,3,3,0,3,3,1,3,3,2,3,3,3,0,0,0,0,0,1,0,0,2,0,0,3,0,13,0,0,13,1,0,13,2,0,13,3,2,0,0,2,0,1,2,0,2,2,0,3,2,13,0,2,13,1,2,13,2,0,0,0,0,0,1,0,0,2,0,0,3,0,13,0,0,13,1,0,13,2,0,13,3,13,0,0,13,0,1,13,0,2,13,0,3,13,13,0,13,13,1,13,13,3,0,0,0,0,0,2,0,1,0,0,1,2,0,2,0,0,2,2,0,3,0,0,3,2,13,0,0,13,0,2,13,1,0,13,1,2,13,2,0,13,2,2,13,3,0,0,0,0,0,0,1,0,0,2,0,0,3,0,1,0,0,1,1,0,1,2,0,1,3,0,2,0,0,2,1,0,2,2,0,2,3,0,3,0,0,3,1,0,3,2,0,3,3,13,0,0,13,0,1,13,0,2,13,0,3,13,1,0,13,1,1,13,1,2,13,1,3,13,2,0,13,2,2,13,2,3,13,3,0,13,3,1,13,3,2,13,3,3,0,0,0,0,0,1,0,0,2,0,0,3,0,1,0,0,1,1,0,1,2,0,1,3,0,2,0,0,2,1,0,2,2,0,2,3,0,3,0,0,3,1,0,3,2,0,3,3,13,0,0,13,0,1,13,0,2,13,0,3,13,1,0,13,1,1,13,1,3,13,2,0,13,2,1,13,2,2,13,2,3,13,3,0,13,3,1,13,3,2,13,3,3,0,0,0,0,0,1,0,0,2,0,0,3,0,1,0,0,1,1,0,1,2,0,1,3,0,2,0,0,2,1,0,2,2,0,2,3,0,3,0,0,3,1,0,3,2,0,3,3,13,0,0,13,0,1,13,0,2,13,0,3,13,1,0,13,1,1,13,1,2,13,1,3,13,2,0,13,2,1,13,2,2,13,2,3,13,3,0,13,3,1,13,3,3,0,0,0,0,0,1,0,0,2,0,0,3,0,1,0,0,1,1,0,1,2,0,1,3,0,2,0,0,2,1,0,2,2,0,2,3,0,3,0,0,3,1,0,3,2,0,3,3,13,0,0,13,0,1,13,0,2,13,0,3,13,1,0,13,1,1,13,1,2,13,1,3,13,2,0,13,2,2,13,2,3,13,3,0,13,3,1,13,3,2,13,3,3,0,0,0,0,0,1,0,0,2,0,0,3,0,1,0,0,1,1,0,1,2,0,1,3,0,2,0,0,2,1,0,2,2,0,2,3,0,3,0,0,3,1,0,3,2,0,3,3,13,0,0,13,0,1,13,0,2,13,0,3,13,1,0,13,1,1,13,1,3,13,2,0,13,2,1,13,2,2,13,2,3,13,3,0,13,3,1,13,3,2,13,3,3,0,0,0,0,0,1,0,0,2,0,0,3,0,13,0,0,13,1,0,13,2,0,13,3,2,0,0,2,0,1,2,0,2,2,0,3,2,13,0,2,13,1,2,13,2,0,0,0,0,0,1,0,0,2,0,0,3,0,1,0,0,1,1,0,1,2,0,1,3,0,2,0,0,2,1,0,2,2,0,2,3,0,3,0,0,3,1,0,3,2,0,3,3,13,0,0,13,0,1,13,0,2,13,0,3,13,1,0,13,1,1,13,1,3,13,2,0,13,2,1,13,2,2,13,2,3,13,3,0,13,3,1,13,3,2,13,3,3,0,0,0,0,0,1,0,0,2,0,0,3,0,13,0,0,13,1,0,13,2,0,13,3,2,0,0,2,0,1,2,0,2,2,0,3,2,13,0,2,13,1,2,13,2,0,0,0,0,0,1,0,0,2,0,0,3,0,1,0,0,1,1,0,1,2,0,1,3,0,2,0,0,2,1,0,2,2,0,2,3,0,3,0,0,3,1,0,3,2,0,3,3,1,0,0,1,0,1,1,0,2,1,0,3,1,1,0,1,1,1,1,1,2,1,1,3,1,2,0,1,2,1,1,2,2,1,2,3,1,3,0,1,3,1,1,3,2,1,3,3,2,0,0,2,0,1,2,0,2,2,0,3,2,1,0,2,1,1,2,1,2,2,2,0,2,2,1,2,2,2,2,2,3,2,3,0,2,3,1,2,3,2,2,3,3,3,0,0,3,0,1,3,0,2,3,0,3,3,1,0,3,1,1,3,1,2,3,1,3,3,2,0,3,2,1,3,2,2,3,2,3,3,3,0,3,3,1,3,3,2,3,3,3,0,0,0,0,0,1,0,0,2,0,0,3,0,1,0,0,1,1,0,1,2,0,1,3,0,2,0,0,2,1,0,2,2,0,2,3,0,3,0,0,3,1,0,3,2,0,3,3,1,0,0,1,0,1,1,0,2,1,0,3,1,1,0,1,1,1,1,1,2,1,1,3,1,2,0,1,2,1,1,2,2,1,2,3,1,3,0,1,3,1,1,3,2,1,3,3,2,0,0,2,0,1,2,0,2,2,0,3,2,1,0,2,1,1,2,1,2,2,1,3,2,2,0,2,2,1,2,2,2,2,2,3,2,3,0,2,3,1,2,3,2,2,3,3,3,0,0,3,0,1,3,0,2,3,0,3,3,1,0,3,1,1,3,1,3,3,2,0,3,2,1,3,2,2,3,2,3,3,3,0,3,3,1,3,3,2,3,3,3,0,0,0,0,0,1,0,0,2,0,0,3,0,1,0,0,1,1,0,1,2,0,1,3,0,2,0,0,2,1,0,2,2,0,2,3,0,3,0,0,3,1,0,3,2,0,3,3,13,0,0,13,0,1,13,0,2,13,0,3,13,1,0,13,1,1,13,1,3,13,2,0,13,2,1,13,2,2,13,2,3,13,3,0,13,3,1,13,3,2,13,3,3,0,0,0,0,0,1,0,0,2,0,0,3,0,1,0,0,1,1,0,1,2,0,1,3,0,2,0,0,2,1,0,2,2,0,2,3,0,3,0,0,3,1,0,3,2,0,3,3,13,0,0,13,0,1,13,0,2,13,0,3,13,1,0,13,1,1,13,1,3,13,2,0,13,2,1,13,2,2,13,2,3,13,3,0,13,3,1,13,3,2,13,3,3,0,0,0,0,0,1,0,0,2,0,0,3,0,1,0,0,1,1,0,1,2,0,1,3,0,2,0,0,2,1,0,2,2,0,2,3,0,3,0,0,3,1,0,3,2,0,3,3,13,0,0,13,0,1,13,0,2,13,0,3,13,1,0,13,1,1,13,1,2,13,1,3,13,2,0,13,2,1,13,2,2,13,2,3,13,3,0,13,3,1,13,3,3,0,0,0,0,0,2,0,1,0,0,1,2,0,2,0,0,2,2,0,3,0,0,3,2,13,0,0,13,0,2,13,1,0,13,1,2,13,2,0,13,2,2,13,3,0,0,0,0,0,0,1,0,0,2,0,0,3,0,1,0,0,1,1,0,1,2,0,1,3,0,2,0,0,2,1,0,2,2,0,2,3,0,3,0,0,3,1,0,3,2,0,3,3,1,0,0,1,0,1,1,0,2,1,0,3,1,1,0,1,1,1,1,1,2,1,1,3,1,2,0,1,2,1,1,2,2,1,2,3,1,3,0,1,3,1,1,3,2,1,3,3,2,0,0,2,0,1,2,0,2,2,0,3,2,1,0,2,1,1,2,1,2,2,2,0,2,2,1,2,2,2,2,2,3,2,3,0,2,3,1,2,3,2,2,3,3,3,0,0,3,0,1,3,0,2,3,0,3,3,1,0,3,1,1,3,1,2,3,1,3,3,2,0,3,2,1,3,2,2,3,2,3,3,3,0,3,3,1,3,3,2,3,3,3,0,0,0,0,0,1,0,0,2,0,0,3,0,1,0,0,1,1,0,1,2,0,1,3,0,2,0,0,2,1,0,2,2,0,2,3,0,3,0,0,3,1,0,3,2,0,3,3,13,0,0,13,0,1,13,0,2,13,0,3,13,1,0,13,1,1,13,1,2,13,1,3,13,2,0,13,2,2,13,2,3,13,3,0,13,3,1,13,3,2,13,3,3,0,0,0,0,0,1,0,0,2,0,0,3,0,13,0,0,13,1,0,13,2,0,13,3,2,0,0,2,0,1,2,0,2,2,0,3,2,13,0,2,13,1,2,13,2,0,0,0,0,0,1,0,0,2,0,0,3,0,1,0,0,1,1,0,1,2,0,1,3,0,2,0,0,2,1,0,2,2,0,2,3,0,3,0,0,3,1,0,3,2,0,3,3,1,0,0,1,0,1,1,0,2,1,0,3,1,1,0,1,1,1,1,1,2,1,1,3,1,2,0,1,2,1,1,2,2,1,2,3,1,3,0,1,3,1,1,3,2,1,3,3,2,0,0,2,0,1,2,0,2,2,0,3,2,1,0,2,1,1,2,1,2,2,2,0,2,2,1,2,2,2,2,2,3,2,3,0,2,3,1,2,3,2,2,3,3,3,0,0,3,0,1,3,0,2,3,0,3,3,1,0,3,1,1,3,1,2,3,1,3,3,2,0,3,2,1,3,2,2,3,2,3,3,3,0,3,3,1,3,3,2,3,3,3,0,0,0,0,0,1,0,0,2,0,0,3,0,1,0,0,1,1,0,1,2,0,1,3,0,2,0,0,2,1,0,2,2,0,2,3,0,3,0,0,3,1,0,3,2,0,3,3,1,0,0,1,0,1,1,0,2,1,0,3,1,1,0,1,1,1,1,1,2,1,1,3,1,2,0,1,2,1,1,2,2,1,2,3,1,3,0,1,3,1,1,3,2,1,3,3,2,0,0,2,0,1,2,0,2,2,0,3,2,1,0,2,1,1,2,1,2,2,2,0,2,2,1,2,2,2,2,2,3,2,3,0,2,3,1,2,3,2,2,3,3,3,0,0,3,0,1,3,0,2,3,0,3,3,1,0,3,1,1,3,1,2,3,1,3,3,2,0,3,2,1,3,2,2,3,2,3,3,3,0,3,3,1,3,3,2,3,3,3,0,0,0,0,0,1,0,0,2,0,0,3,0,1,0,0,1,1,0,1,2,0,1,3,0,2,0,0,2,1,0,2,2,0,2,3,0,3,0,0,3,1,0,3,2,0,3,3,13,0,0,13,0,1,13,0,2,13,0,3,13,1,0,13,1,1,13,1,2,13,1,3,13,2,0,13,2,2,13,2,3,13,3,0,13,3,1,13,3,2,13,3,3,0,0,0,0,0,1,0,0,2,0,0,3,0,1,0,0,1,1,0,1,2,0,1,3,0,2,0,0,2,1,0,2,2,0,2,3,0,3,0,0,3,1,0,3,2,0,3,3,13,0,0,13,0,1,13,0,2,13,0,3,13,1,0,13,1,1,13,1,3,13,2,0,13,2,1,13,2,2,13,2,3,13,3,0,13,3,1,13,3,2,13,3,3,0,0,0,0,0,1,0,0,2,0,0,3,0,1,0,0,1,1,0,1,2,0,1,3,0,2,0,0,2,1,0,2,2,0,2,3,0,3,0,0,3,1,0,3,2,0,3,3,1,0,0,1,0,1,1,0,2,1,0,3,1,1,0,1,1,1,1,1,2,1,1,3,1,2,0,1,2,1,1,2,2,1,2,3,1,3,0,1,3,1,1,3,3,2,0,0,2,0,1,2,0,2,2,0,3,2,1,0,2,1,1,2,1,2,2,1,3,2,2,0,2,2,1,2,2,2,2,2,3,2,3,0,2,3,1,2,3,2,2,3,3,3,0,0,3,0,1,3,0,2,3,0,3,3,1,0,3,1,1,3,1,2,3,1,3,3,2,0,3,2,1,3,2,2,3,2,3,3,3,0,3,3,1,3,3,2,3,3,3,0,0,0,0,0,1,0,0,2,0,0,3,0,1,0,0,1,1,0,1,2,0,1,3,0,2,0,0,2,1,0,2,2,0,2,3,0,3,0,0,3,1,0,3,2,0,3,3,13,0,0,13,0,1,13,0,2,13,0,3,13,1,0,13,1,1,13,1,3,13,2,0,13,2,1,13,2,2,13,2,3,13,3,0,13,3,1,13,3,2,13,3,3,0,0,0,0,0,13,0,1,0,0,1,13,0,2,0,0,2,13,0,3,0,0,3,13,1,0,0,1,0,13,1,1,0,1,1,13,1,2,0,1,3,0,1,3,13,2,0,0,2,0,13,2,1,0,2,1,13,2,2,0,2,2,13,2,3,0,2,3,13,3,0,0,3,0,13,3,1,0,3,1,13,3,2,0,3,2,13,3,3,0,3,3,13,0,0,0,0,0,1,0,0,2,0,0,3,0,1,0,0,1,1,0,1,2,0,1,3,0,2,0,0,2,1,0,2,2,0,2,3,0,3,0,0,3,1,0,3,2,0,3,3,13,0,0,13,0,1,13,0,2,13,0,3,13,1,0,13,1,1,13,1,2,13,1,3,13,2,0,13,2,2,13,2,3,13,3,0,13,3,1,13,3,2,13,3,3,0,0,0,0,0,2,0,1,0,0,1,2,0,2,0,0,2,2,0,3,0,0,3,2,13,0,0,13,0,2,13,1,0,13,1,2,13,2,0,13,2,2,13,3,0,0,0,0,0,0,1,0,0,2,0,0,3,0,1,0,0,1,1,0,1,2,0,1,3,0,2,0,0,2,1,0,2,2,0,2,3,0,3,0,0,3,1,0,3,2,0,3,3,1,0,0,1,0,1,1,0,2,1,0,3,1,1,0,1,1,1,1,1,2,1,1,3,1,2,0,1,2,1,1,2,2,1,2,3,1,3,0,1,3,1,1,3,3,2,0,0,2,0,1,2,0,2,2,0,3,2,1,0,2,1,1,2,1,2,2,1,3,2,2,0,2,2,1,2,2,2,2,2,3,2,3,0,2,3,1,2,3,2,2,3,3,3,0,0,3,0,1,3,0,2,3,0,3,3,1,0,3,1,1,3,1,2,3,1,3,3,2,0,3,2,1,3,2,2,3,2,3,3,3,0,3,3,1,3,3,2,3,3,3,0,0,0,0,0,1,0,0,2,0,0,3,0,1,0,0,1,1,0,1,2,0,1,3,0,2,0,0,2,1,0,2,2,0,2,3,0,3,0,0,3,1,0,3,2,0,3,3,1,0,0,1,0,1,1,0,2,1,0,3,1,1,0,1,1,1,1,1,2,1,1,3,1,2,0,1,2,1,1,2,2,1,2,3,1,3,0,1,3,1,1,3,3,2,0,0,2,0,1,2,0,2,2,0,3,2,1,0,2,1,1,2,1,2,2,1,3,2,2,0,2,2,1,2,2,2,2,2,3,2,3,0,2,3,1,2,3,2,2,3,3,3,0,0,3,0,1,3,0,2,3,0,3,3,1,0,3,1,1,3,1,2,3,1,3,3,2,0,3,2,1,3,2,2,3,2,3,3,3,0,3,3,1,3,3,2,3,3,3,0,0,0,0,0,1,0,0,2,0,0,3,0,1,0,0,1,1,0,1,2,0,1,3,0,2,0,0,2,1,0,2,2,0,2,3,0,3,0,0,3,1,0,3,2,0,3,3,13,0,0,13,0,1,13,0,2,13,0,3,13,1,0,13,1,1,13,1,3,13,2,0,13,2,1,13,2,2,13,2,3,13,3,0,13,3,1,13,3,2,13,3,3,0,0,0,0,0,13,0,13,0,0,13,13,1,0,0,1,0,13,1,13,0,1,13,13,2,0,0,2,0,13,2,13,0,3,0,0,3,0,13,3,13,0,3,13,13,0,0,0,0,0,1,0,0,2,0,0,3,0,1,0,0,1,1,0,1,2,0,1,3,0,2,0,0,2,1,0,2,2,0,2,3,0,3,0,0,3,1,0,3,2,0,3,3,13,0,0,13,0,1,13,0,2,13,0,3,13,1,0,13,1,1,13,1,3,13,2,0,13,2,1,13,2,2,13,2,3,13,3,0,13,3,1,13,3,2,13,3,3,0,0,0,0,0,1,0,0,2,0,0,3,0,1,0,0,1,1,0,1,2,0,1,3,0,2,0,0,2,1,0,2,2,0,2,3,0,3,0,0,3,1,0,3,2,0,3,3,13,0,0,13,0,1,13,0,2,13,0,3,13,1,0,13,1,1,13,1,3,13,2,0,13,2,1,13,2,2,13,2,3,13,3,0,13,3,1,13,3,2,13,3,3,0,0,0,0,0,1,0,0,2,0,0,3,0,1,0,0,1,1,0,1,2,0,1,3,0,2,0,0,2,1,0,2,2,0,2,3,0,3,0,0,3,1,0,3,2,0,3,3,1,0,0,1,0,1,1,0,2,1,0,3,1,1,0,1,1,1,1,1,2,1,1,3,1,2,0,1,2,1,1,2,2,1,2,3,1,3,0,1,3,1,1,3,2,1,3,3,2,0,0,2,0,1,2,0,2,2,0,3,2,1,0,2,1,1,2,1,2,2,2,0,2,2,1,2,2,2,2,2,3,2,3,0,2,3,1,2,3,2,2,3,3,3,0,0,3,0,1,3,0,2,3,0,3,3,1,0,3,1,1,3,1,2,3,1,3,3,2,0,3,2,1,3,2,2,3,2,3,3,3,0,3,3,1,3,3,2,3,3,3,0,0,0,0,0,1,0,0,2,0,0,3,0,13,0,0,13,1,0,13,2,0,13,3,2,0,0,2,0,1,2,0,2,2,0,3,2,13,0,2,13,1,2,13,2,0,0,0,0,0,1,0,0,2,0,0,3,0,1,0,0,1,1,0,1,2,0,1,3,0,2,0,0,2,1,0,2,2,0,2,3,0,3,0,0,3,1,0,3,2,0,3,3,1,0,0,1,0,1,1,0,2,1,0,3,1,1,0,1,1,1,1,1,2,1,1,3,1,2,0,1,2,1,1,2,2,1,2,3,1,3,0,1,3,1,1,3,3,2,0,0,2,0,1,2,0,2,2,0,3,2,1,0,2,1,1,2,1,2,2,1,3,2,2,0,2,2,1,2,2,2,2,2,3,2,3,0,2,3,1,2,3,2,2,3,3,3,0,0,3,0,1,3,0,2,3,0,3,3,1,0,3,1,1,3,1,2,3,1,3,3,2,0,3,2,1,3,2,2,3,2,3,3,3,0,3,3,1,3,3,2,3,3,3,0,0,0,0,0,1,0,0,2,0,0,3,0,1,0,0,1,1,0,1,2,0,1,3,0,2,0,0,2,1,0,2,2,0,2,3,0,3,0,0,3,1,0,3,2,0,3,3,1,0,0,1,0,1,1,0,2,1,0,3,1,1,0,1,1,1,1,1,2,1,1,3,1,2,0,1,2,1,1,2,2,1,2,3,1,3,0,1,3,1,1,3,2,1,3,3,2,0,0,2,0,1,2,0,2,2,0,3,2,1,0,2,1,1,2,1,2,2,2,0,2,2,1,2,2,2,2,2,3,2,3,0,2,3,1,2,3,2,2,3,3,3,0,0,3,0,1,3,0,2,3,0,3,3,1,0,3,1,1,3,1,2,3,1,3,3,2,0,3,2,1,3,2,2,3,2,3,3,3,0,3,3,1,3,3,2,3,3,3,0,0,0,0,0,1,0,0,2,0,0,3,0,1,0,0,1,1,0,1,2,0,1,3,0,2,0,0,2,1,0,2,2,0,2,3,0,3,0,0,3,1,0,3,2,0,3,3,1,0,0,1,0,1,1,0,2,1,0,3,1,1,0,1,1,1,1,1,2,1,1,3,1,2,0,1,2,1,1,2,2,1,2,3,1,3,0,1,3,1,1,3,3,2,0,0,2,0,1,2,0,2,2,0,3,2,1,0,2,1,1,2,1,2,2,1,3,2,2,0,2,2,1,2,2,2,2,2,3,2,3,0,2,3,1,2,3,2,2,3,3,3,0,0,3,0,1,3,0,2,3,0,3,3,1,0,3,1,1,3,1,2,3,1,3,3,2,0,3,2,1,3,2,2,3,2,3,3,3,0,3,3,1,3,3,2,3,3,3,0,0,0,0,0,1,0,0,2,0,0,3,0,1,0,0,1,1,0,1,2,0,1,3,0,2,0,0,2,1,0,2,2,0,2,3,0,3,0,0,3,1,0,3,2,0,3,3,13,0,0,13,0,1,13,0,2,13,0,3,13,1,0,13,1,1,13,1,2,13,1,3,13,2,0,13,2,1,13,2,2,13,2,3,13,3,0,13,3,1,13,3,3,0,0,0,0,0,1,0,0,2,0,0,3,0,1,0,0,1,1,0,1,2,0,1,3,0,2,0,0,2,1,0,2,2,0,2,3,0,3,0,0,3,1,0,3,2,0,3,3,13,0,0,13,0,1,13,0,2,13,0,3,13,1,0,13,1,1,13,1,2,13,1,3,13,2,0,13,2,2,13,2,3,13,3,0,13,3,1,13,3,2,13,3,3,0,0,0,0,0,1,0,0,2,0,0,3,0,1,0,0,1,1,0,1,2,0,1,3,0,2,0,0,2,1,0,2,2,0,2,3,0,3,0,0,3,1,0,3,2,0,3,3,13,0,0,13,0,1,13,0,2,13,0,3,13,1,0,13,1,1,13,1,3,13,2,0,13,2,1,13,2,2,13,2,3,13,3,0,13,3,1,13,3,2,13,3,3,0,0,0,0,0,1,0,0,2,0,0,3,0,1,0,0,1,1,0,1,2,0,1,3,0,2,0,0,2,1,0,2,2,0,2,3,0,3,0,0,3,1,0,3,2,0,3,3,13,0,0,13,0,1,13,0,2,13,0,3,13,1,0,13,1,1,13,1,2,13,1,3,13,2,0,13,2,2,13,2,3,13,3,0,13,3,1,13,3,2,13,3,3,0,0,0,0,0,1,0,0,2,0,0,3,0,13,0,0,13,1,0,13,2,0,13,3,1,0,0,1,0,1,1,0,2,1,0,3,1,13,0,1,13,1,1,13,3,2,0,0,2,0,1,2,0,2,2,0,3,2,13,0,2,13,1,2,13,2,2,13,3,3,0,0,3,0,1,3,0,2,3,0,3,3,13,0,3,13,1,3,13,2,3,13,3,0,0,0,0,0,1,0,0,2,0,0,3,0,13,0,0,13,1,0,13,2,0,13,3,13,0,0,13,0,1,13,0,2,13,0,3,13,13,0,13,13,1,13,13,3,0,0,0,0,0,1,0,0,2,0,0,3,0,1,0,0,1,1,0,1,2,0,1,3,0,2,0,0,2,1,0,2,2,0,2,3,0,3,0,0,3,1,0,3,2,0,3,3,13,0,0,13,0,1,13,0,2,13,0,3,13,1,0,13,1,1,13,1,3,13,2,0,13,2,1,13,2,2,13,2,3,13,3,0,13,3,1,13,3,2,13,3,3,0,0,0,0,0,1,0,0,2,0,0,3,0,1,0,0,1,1,0,1,2,0,1,3,0,2,0,0,2,1,0,2,2,0,2,3,0,3,0,0,3,1,0,3,2,0,3,3,13,0,0,13,0,1,13,0,2,13,0,3,13,1,0,13,1,1,13,1,3,13,2,0,13,2,1,13,2,2,13,2,3,13,3,0,13,3,1,13,3,2,13,3,3,0,0,0,0,0,1,0,0,2,0,0,3,0,1,0,0,1,1,0,1,2,0,1,3,0,2,0,0,2,1,0,2,2,0,2,3,0,3,0,0,3,1,0,3,2,0,3,3,13,0,0,13,0,1,13,0,2,13,0,3,13,1,0,13,1,1,13,1,3,13,2,0,13,2,1,13,2,2,13,2,3,13,3,0,13,3,1,13,3,2,13,3,3,0,0,0,0,0,1,0,0,2,0,0,3,0,1,0,0,1,1,0,1,2,0,1,3,0,2,0,0,2,1,0,2,2,0,2,3,0,3,0,0,3,1,0,3,2,0,3,3,13,0,0,13,0,1,13,0,2,13,0,3,13,1,0,13,1,1,13,1,3,13,2,0,13,2,1,13,2,2,13,2,3,13,3,0,13,3,1,13,3,2,13,3,3,0,0,0,0,0,1,0,0,2,0,0,3,0,13,0,0,13,1,0,13,2,0,13,3,1,0,0,1,0,1,1,0,2,1,0,3,1,13,0,1,13,1,1,13,2,1,13,3,2,0,0,2,0,1,2,0,2,2,0,3,2,13,0,2,13,2,2,13,3,3,0,0,3,0,1,3,0,2,3,0,3,3,13,0,3,13,1,3,13,2,3,13,3,0,0,0,0,0,1,0,0,2,0,0,3,0,1,0,0,1,1,0,1,2,0,1,3,0,2,0,0,2,1,0,2,2,0,2,3,0,3,0,0,3,1,0,3,2,0,3,3,1,0,0,1,0,1,1,0,2,1,0,3,1,1,0,1,1,1,1,1,2,1,1,3,1,2,0,1,2,1,1,2,2,1,3,0,1,3,1,1,3,2,1,3,3,2,0,0,2,0,1,2,0,2,2,0,3,2,1,0,2,1,1,2,1,2,2,1,3,2,2,0,2,2,1,2,2,2,2,2,3,2,3,0,2,3,1,2,3,2,2,3,3,3,0,0,3,0,1,3,0,2,3,0,3,3,1,0,3,1,1,3,1,2,3,1,3,3,2,0,3,2,1,3,2,2,3,2,3,3,3,0,3,3,1,3,3,2,3,3,3,0,0,0,0,0,1,0,0,2,0,0,3,0,13,0,0,13,1,0,13,2,0,13,3,13,0,0,13,0,1,13,0,2,13,0,3,13,13,0,13,13,1,13,13,3,0,0,0,0,0,1,0,0,2,0,0,3,0,1,0,0,1,1,0,1,2,0,1,3,0,2,0,0,2,1,0,2,2,0,2,3,0,3,0,0,3,1,0,3,2,0,3,3,1,0,0,1,0,1,1,0,2,1,0,3,1,1,0,1,1,1,1,1,2,1,1,3,1,2,0,1,2,1,1,2,2,1,3,0,1,3,1,1,3,2,1,3,3,2,0,0,2,0,1,2,0,2,2,0,3,2,1,0,2,1,1,2,1,2,2,1,3,2,2,0,2,2,1,2,2,2,2,2,3,2,3,0,2,3,1,2,3,2,2,3,3,3,0,0,3,0,1,3,0,2,3,0,3,3,1,0,3,1,1,3,1,2,3,1,3,3,2,0,3,2,1,3,2,2,3,2,3,3,3,0,3,3,1,3,3,2,3,3,3,0,0,0,0,0,2,0,1,0,0,1,2,0,2,0,0,2,2,0,3,0,0,3,2,13,0,0,13,0,2,13,1,0,13,1,2,13,2,0,13,2,2,13,3,0,0,0,0,0,0,1,0,0,2,0,0,3,0,13,0,0,13,1,0,13,2,0,13,3,2,0,0,2,0,1,2,0,2,2,0,3,2,13,0,2,13,1,2,13,2,0,0,0,0,0,1,0,0,2,0,0,3,0,13,0,0,13,1,0,13,2,0,13,3,13,0,0,13,0,1,13,0,2,13,0,3,13,13,0,13,13,1,13,13,3,0,0,0,0,0,2,0,1,0,0,1,2,0,2,0,0,2,2,0,3,0,0,3,2,13,0,0,13,0,2,13,1,0,13,1,2,13,2,0,13,2,2,13,3,0,0,0,0,0,0,1,0,0,2,0,0,3,0,1,0,0,1,1,0,1,2,0,1,3,0,2,0,0,2,1,0,2,2,0,2,3,0,3,0,0,3,1,0,3,2,0,3,3,13,0,0,13,0,1,13,0,2,13,0,3,13,1,0,13,1,1,13,1,3,13,2,0,13,2,1,13,2,2,13,2,3,13,3,0,13,3,1,13,3,2,13,3,3,0,0,0,0,0,1,0,0,2,0,0,3,0,1,0,0,1,1,0,1,2,0,1,3,0,2,0,0,2,1,0,2,2,0,2,3,0,3,0,0,3,1,0,3,2,0,3,3,13,0,0,13,0,1,13,0,2,13,0,3,13,1,0,13,1,1,13,1,2,13,1,3,13,2,0,13,2,1,13,2,2,13,2,3,13,3,0,13,3,1,13,3,3,0,0,0,0,0,1,0,0,2,0,0,3,0,13,0,0,13,1,0,13,2,0,13,3,13,0,0,13,0,1,13,0,2,13,0,3,13,13,0,13,13,1,13,13,3,0,0,0,0,0,1,0,0,2,0,0,3,0,1,0,0,1,1,0,1,2,0,1,3,0,2,0,0,2,1,0,2,2,0,2,3,0,3,0,0,3,1,0,3,2,0,3,3,13,0,0,13,0,1,13,0,2,13,0,3,13,1,0,13,1,1,13,1,3,13,2,0,13,2,1,13,2,2,13,2,3,13,3,0,13,3,1,13,3,2,13,3,3,0,0,0,0,0,1,0,0,2,0,0,3,0,1,0,0,1,1,0,1,2,0,1,3,0,2,0,0,2,1,0,2,2,0,2,3,0,3,0,0,3,1,0,3,2,0,3,3,1,0,0,1,0,1,1,0,2,1,0,3,1,1,0,1,1,1,1,1,2,1,1,3,1,2,0,1,2,1,1,2,2,1,2,3,1,3,0,1,3,1,1,3,3,2,0,0,2,0,1,2,0,2,2,0,3,2,1,0,2,1,1,2,1,2,2,1,3,2,2,0,2,2,1,2,2,2,2,2,3,2,3,0,2,3,1,2,3,2,2,3,3,3,0,0,3,0,1,3,0,2,3,0,3,3,1,0,3,1,1,3,1,2,3,1,3,3,2,0,3,2,1,3,2,2,3,2,3,3,3,0,3,3,1,3,3,2,3,3,3,0,0,0,0,0,1,0,0,2,0,0,3,0,13,0,0,13,1,0,13,2,0,13,3,2,0,0,2,0,1,2,0,2,2,0,3,2,13,0,2,13,1,2,13,2,0,0,0,0,0,1,0,0,2,0,0,3,0,1,0,0,1,1,0,1,2,0,1,3,0,2,0,0,2,1,0,2,2,0,2,3,0,3,0,0,3,1,0,3,2,0,3,3,13,0,0,13,0,1,13,0,2,13,0,3,13,1,0,13,1,1,13,1,3,13,2,0,13,2,1,13,2,2,13,2,3,13,3,0,13,3,1,13,3,2,13,3,3,0,0,0,0,0,1,0,0,2,0,0,3,0,1,0,0,1,1,0,1,2,0,1,3,0,2,0,0,2,1,0,2,2,0,2,3,0,3,0,0,3,1,0,3,2,0,3,3,13,0,0,13,0,1,13,0,2,13,0,3,13,1,0,13,1,1,13,1,3,13,2,0,13,2,1,13,2,2,13,2,3,13,3,0,13,3,1,13,3,2,13,3,3,0,0,0,0,0,1,0,0,2,0,0,3,0,1,0,0,1,1,0,1,2,0,1,3,0,2,0,0,2,1,0,2,2,0,2,3,0,3,0,0,3,1,0,3,2,0,3,3,13,0,0,13,0,1,13,0,2,13,0,3,13,1,0,13,1,1,13,1,2,13,1,3,13,2,0,13,2,1,13,2,2,13,2,3,13,3,0,13,3,1,13,3,3,0,0,0,0,0,1,0,0,2,0,0,3,0,1,0,0,1,1,0,1,2,0,1,3,0,2,0,0,2,1,0,2,2,0,2,3,0,3,0,0,3,1,0,3,2,0,3,3,13,0,0,13,0,1,13,0,2,13,0,3,13,1,0,13,1,1,13,1,3,13,2,0,13,2,1,13,2,2,13,2,3,13,3,0,13,3,1,13,3,2,13,3,3,0,0,0,0,0,1,0,0,2,0,0,3,0,13,0,0,13,1,0,13,2,0,13,3,1,0,0,1,0,1,1,0,2,1,0,3,1,13,0,1,13,1,1,13,2,1,13,3,2,0,0,2,0,1,2,0,2,2,0,3,2,13,0,2,13,2,2,13,3,3,0,0,3,0,1,3,0,2,3,0,3,3,13,0,3,13,1,3,13,2,3,13,3,0,0,0,0,0,1,0,0,2,0,0,3,0,1,0,0,1,1,0,1,2,0,1,3,0,2,0,0,2,1,0,2,2,0,2,3,0,3,0,0,3,1,0,3,2,0,3,3,1,0,0,1,0,1,1,0,2,1,0,3,1,1,0,1,1,1,1,1,2,1,1,3,1,2,0,1,2,1,1,2,2,1,2,3,1,3,0,1,3,1,1,3,2,1,3,3,2,0,0,2,0,1,2,0,2,2,0,3,2,1,0,2,1,1,2,1,2,2,2,0,2,2,1,2,2,2,2,2,3,2,3,0,2,3,1,2,3,2,2,3,3,3,0,0,3,0,1,3,0,2,3,0,3,3,1,0,3,1,1,3,1,2,3,1,3,3,2,0,3,2,1,3,2,2,3,2,3,3,3,0,3,3,1,3,3,2,3,3,3,0,0,0,0,0,1,0,0,2,0,0,3,0,1,0,0,1,1,0,1,2,0,1,3,0,2,0,0,2,1,0,2,2,0,2,3,0,3,0,0,3,1,0,3,2,0,3,3,13,0,0,13,0,1,13,0,2,13,0,3,13,1,0,13,1,1,13,1,2,13,1,3,13,2,0,13,2,1,13,2,2,13,2,3,13,3,0,13,3,1,13,3,3,0,0,0,0,0,1,0,0,2,0,0,3,0,1,0,0,1,1,0,1,2,0,1,3,0,2,0,0,2,1,0,2,2,0,2,3,0,3,0,0,3,1,0,3,2,0,3,3,13,0,0,13,0,1,13,0,2,13,0,3,13,1,0,13,1,1,13,1,2,13,1,3,13,2,0,13,2,1,13,2,2,13,3,0,13,3,1,13,3,2,13,3,3,0,0,0,0,0,2,0,1,0,0,1,2,0,2,0,0,2,2,0,3,0,0,3,2,13,0,0,13,0,2,13,1,0,13,1,2,13,2,0,13,2,2,13,3,0,0,0,0,0,0,1,0,0,2,0,0,3,0,1,0,0,1,1,0,1,2,0,1,3,0,2,0,0,2,1,0,2,2,0,2,3,0,3,0,0,3,1,0,3,2,0,3,3,13,0,0,13,0,1,13,0,2,13,0,3,13,1,0,13,1,1,13,1,2,13,1,3,13,2,0,13,2,2,13,2,3,13,3,0,13,3,1,13,3,2,13,3,3,0,0,0,0,0,1,0,0,2,0,0,3,0,1,0,0,1,1,0,1,2,0,1,3,0,2,0,0,2,1,0,2,2,0,2,3,0,3,0,0,3,1,0,3,2,0,3,3,1,0,0,1,0,1,1,0,2,1,0,3,1,1,0,1,1,1,1,1,2,1,1,3,1,2,0,1,2,1,1,2,2,1,2,3,1,3,0,1,3,1,1,3,2,1,3,3,2,0,0,2,0,1,2,0,2,2,0,3,2,1,0,2,1,1,2,1,2,2,2,0,2,2,1,2,2,2,2,2,3,2,3,0,2,3,1,2,3,2,2,3,3,3,0,0,3,0,1,3,0,2,3,0,3,3,1,0,3,1,1,3,1,2,3,1,3,3,2,0,3,2,1,3,2,2,3,2,3,3,3,0,3,3,1,3,3,2,3,3,3,0,0,0,0,0,1,0,0,2,0,0,3,0,1,0,0,1,1,0,1,2,0,1,3,0,2,0,0,2,1,0,2,2,0,2,3,0,3,0,0,3,1,0,3,2,0,3,3,13,0,0,13,0,1,13,0,2,13,0,3,13,1,0,13,1,1,13,1,2,13,1,3,13,2,0,13,2,2,13,2,3,13,3,0,13,3,1,13,3,2,13,3,3,0,0,0,0,0,2,0,1,0,0,1,2,0,2,0,0,2,2,0,3,0,0,3,2,13,0,0,13,0,2,13,1,0,13,1,2,13,2,0,13,2,2,13,3,0,0,0,0,0,0,1,0,0,2,0,0,3,0,1,0,0,1,1,0,1,2,0,1,3,0,2,0,0,2,1,0,2,2,0,2,3,0,3,0,0,3,1,0,3,2,0,3,3,13,0,0,13,0,1,13,0,2,13,0,3,13,1,0,13,1,1,13,1,2,13,1,3,13,2,0,13,2,2,13,2,3,13,3,0,13,3,1,13,3,2,13,3,3,0,0,0,0,0,1,0,0,2,0,0,3,0,1,0,0,1,1,0,1,2,0,1,3,0,2,0,0,2,1,0,2,2,0,2,3,0,3,0,0,3,1,0,3,2,0,3,3,1,0,0,1,0,1,1,0,2,1,0,3,1,1,0,1,1,1,1,1,2,1,1,3,1,2,0,1,2,1,1,2,2,1,2,3,1,3,0,1,3,1,1,3,2,1,3,3,2,0,0,2,0,1,2,0,2,2,0,3,2,1,0,2,1,1,2,1,2,2,1,3,2,2,0,2,2,1,2,2,2,2,2,3,2,3,0,2,3,2,2,3,3,3,0,0,3,0,1,3,0,2,3,0,3,3,1,0,3,1,1,3,1,2,3,1,3,3,2,0,3,2,1,3,2,2,3,2,3,3,3,0,3,3,1,3,3,2,3,3,3,0,0,0,0,0,1,0,0,2,0,0,3,0,1,0,0,1,1,0,1,2,0,1,3,0,2,0,0,2,1,0,2,2,0,2,3,0,3,0,0,3,1,0,3,2,0,3,3,1,0,0,1,0,1,1,0,2,1,0,3,1,1,0,1,1,1,1,1,2,1,1,3,1,2,0,1,2,1,1,2,2,1,2,3,1,3,0,1,3,1,1,3,3,2,0,0,2,0,1,2,0,2,2,0,3,2,1,0,2,1,1,2,1,2,2,1,3,2,2,0,2,2,1,2,2,2,2,2,3,2,3,0,2,3,1,2,3,2,2,3,3,3,0,0,3,0,1,3,0,2,3,0,3,3,1,0,3,1,1,3,1,2,3,1,3,3,2,0,3,2,1,3,2,2,3,2,3,3,3,0,3,3,1,3,3,2,3,3,3,0,0,0,0,0,13,0,13,0,0,13,13,2,0,0,2,0,13,2,13,0,0,0,0,0,0,1,0,0,2,0,0,3,0,1,0,0,1,1,0,1,2,0,1,3,0,2,0,0,2,1,0,2,2,0,2,3,0,3,0,0,3,1,0,3,2,0,3,3,13,0,0,13,0,1,13,0,2,13,0,3,13,1,0,13,1,1,13,1,2,13,1,3,13,2,0,13,2,2,13,2,3,13,3,0,13,3,1,13,3,2,13,3,3,0,0,0,0,0,1,0,0,2,0,0,3,0,1,0,0,1,1,0,1,2,0,1,3,0,2,0,0,2,1,0,2,2,0,2,3,0,3,0,0,3,1,0,3,2,0,3,3,13,0,0,13,0,1,13,0,2,13,0,3,13,1,0,13,1,1,13,1,3,13,2,0,13,2,1,13,2,2,13,2,3,13,3,0,13,3,1,13,3,2,13,3,3,0,0,0,0,0,1,0,0,2,0,0,3,0,1,0,0,1,1,0,1,2,0,1,3,0,2,0,0,2,1,0,2,2,0,2,3,0,3,0,0,3,1,0,3,2,0,3,3,13,0,0,13,0,1,13,0,2,13,0,3,13,1,0,13,1,1,13,1,3,13,2,0,13,2,1,13,2,2,13,2,3,13,3,0,13,3,1,13,3,2,13,3,3,0,0,0,0,0,1,0,0,2,0,0,3,0,1,0,0,1,1,0,1,2,0,1,3,0,2,0,0,2,1,0,2,2,0,2,3,0,3,0,0,3,1,0,3,2,0,3,3,13,0,0,13,0,1,13,0,2,13,0,3,13,1,0,13,1,1,13,1,2,13,1,3,13,2,0,13,2,2,13,2,3,13,3,0,13,3,1,13,3,2,13,3,3,0,0,0,0,0,1,0,0,2,0,0,3,0,13,0,0,13,1,0,13,2,0,13,3,2,0,0,2,0,1,2,0,2,2,0,3,2,13,0,2,13,1,2,13,2,0,0,0,0,0,1,0,0,2,0,0,3,0,1,0,0,1,1,0,1,2,0,1,3,0,2,0,0,2,1,0,2,2,0,2,3,0,3,0,0,3,1,0,3,2,0,3,3,1,0,0,1,0,1,1,0,2,1,0,3,1,1,0,1,1,1,1,1,2,1,1,3,1,2,0,1,2,1,1,2,2,1,2,3,1,3,0,1,3,1,1,3,3,2,0,0,2,0,1,2,0,2,2,0,3,2,1,0,2,1,1,2,1,2,2,1,3,2,2,0,2,2,1,2,2,2,2,2,3,2,3,0,2,3,1,2,3,2,2,3,3,3,0,0,3,0,1,3,0,2,3,0,3,3,1,0,3,1,1,3,1,2,3,1,3,3,2,0,3,2,1,3,2,2,3,2,3,3,3,0,3,3,1,3,3,2,3,3,3,0,0,0,0,0,1,0,0,2,0,0,3,0,13,0,0,13,1,0,13,2,0,13,3,1,0,0,1,0,1,1,0,2,1,0,3,1,13,0,1,13,1,1,13,3,2,0,0,2,0,1,2,0,2,2,0,3,2,13,0,2,13,1,2,13,2,2,13,3,3,0,0,3,0,1,3,0,2,3,0,3,3,13,0,3,13,1,3,13,2,3,13,3,0,0,0,0,0,2,0,1,0,0,1,2,0,2,0,0,2,2,0,3,0,0,3,2,13,0,0,13,0,2,13,1,0,13,2,0,13,2,2,13,3,0,13,3,2,0,0,0,0,0,1,0,0,2,0,0,3,0,1,0,0,1,1,0,1,2,0,1,3,0,2,0,0,2,1,0,2,2,0,2,3,0,3,0,0,3,1,0,3,2,0,3,3,1,0,0,1,0,1,1,0,2,1,0,3,1,1,0,1,1,1,1,1,2,1,1,3,1,2,0,1,2,1,1,2,2,1,3,0,1,3,1,1,3,2,1,3,3,2,0,0,2,0,1,2,0,2,2,0,3,2,1,0,2,1,1,2,1,2,2,1,3,2,2,0,2,2,1,2,2,2,2,2,3,2,3,0,2,3,1,2,3,2,2,3,3,3,0,0,3,0,1,3,0,2,3,0,3,3,1,0,3,1,1,3,1,2,3,1,3,3,2,0,3,2,1,3,2,2,3,2,3,3,3,0,3,3,1,3,3,2,3,3,3,0,0,0,0,0,1,0,0,2,0,0,3,0,1,0,0,1,1,0,1,2,0,1,3,0,2,0,0,2,1,0,2,2,0,2,3,0,3,0,0,3,1,0,3,2,0,3,3,13,0,0,13,0,1,13,0,2,13,0,3,13,1,0,13,1,1,13,1,3,13,2,0,13,2,1,13,2,2,13,2,3,13,3,0,13,3,1,13,3,2,13,3,3,0,0,0,0,0,2,0,1,0,0,1,2,0,2,0,0,2,2,0,3,0,0,3,2,13,0,0,13,0,2,13,1,0,13,1,2,13,2,0,13,2,2,13,3,0,0,0,0,0,0,1,0,0,2,0,0,3,0,13,0,0,13,1,0,13,2,0,13,3,13,0,0,13,0,1,13,0,2,13,0,3,13,13,0,13,13,1,13,13,3,0,0,0,0,0,1,0,0,2,0,0,3,0,1,0,0,1,1,0,1,2,0,1,3,0,2,0,0,2,1,0,2,2,0,2,3,0,3,0,0,3,1,0,3,2,0,3,3,1,0,0,1,0,1,1,0,2,1,0,3,1,1,0,1,1,1,1,1,2,1,1,3,1,2,0,1,2,1,1,2,2,1,3,0,1,3,1,1,3,2,1,3,3,2,0,0,2,0,1,2,0,2,2,0,3,2,1,0,2,1,1,2,1,2,2,1,3,2,2,0,2,2,1,2,2,2,2,2,3,2,3,0,2,3,1,2,3,2,2,3,3,3,0,0,3,0,1,3,0,2,3,0,3,3,1,0,3,1,1,3,1,2,3,1,3,3,2,0,3,2,1,3,2,2,3,2,3,3,3,0,3,3,1,3,3,2,3,3,3,0,0,0,0,0,1,0,0,2,0,0,3,0,1,0,0,1,1,0,1,2,0,1,3,0,2,0,0,2,1,0,2,2,0,2,3,0,3,0,0,3,1,0,3,2,0,3,3,1,0,0,1,0,1,1,0,2,1,0,3,1,1,0,1,1,1,1,1,2,1,1,3,1,2,0,1,2,1,1,2,2,1,2,3,1,3,0,1,3,1,1,3,2,1,3,3,2,0,0,2,0,1,2,0,2,2,0,3,2,1,0,2,1,1,2,1,2,2,1,3,2,2,0,2,2,1,2,2,2,2,2,3,2,3,0,2,3,1,2,3,2,2,3,3,3,0,0,3,0,1,3,0,2,3,0,3,3,1,0,3,1,1,3,1,2,3,1,3,3,2,0,3,2,2,3,2,3,3,3,0,3,3,1,3,3,2,3,3,3,0,0,0,0,0,1,0,0,2,0,0,3,0,1,0,0,1,1,0,1,2,0,1,3,0,2,0,0,2,1,0,2,2,0,2,3,0,3,0,0,3,1,0,3,2,0,3,3,13,0,0,13,0,1,13,0,2,13,0,3,13,1,0,13,1,1,13,1,3,13,2,0,13,2,1,13,2,2,13,2,3,13,3,0,13,3,1,13,3,2,13,3,3,0,0,0,0,0,1,0,0,2,0,0,3,0,13,0,0,13,1,0,13,2,0,13,3,13,0,0,13,0,1,13,0,2,13,0,3,13,13,0,13,13,1,13,13,3,0,0,0,0,0,1,0,0,2,0,0,3,0,1,0,0,1,1,0,1,2,0,1,3,0,2,0,0,2,1,0,2,2,0,2,3,0,3,0,0,3,1,0,3,2,0,3,3,1,0,0,1,0,1,1,0,2,1,0,3,1,1,0,1,1,1,1,1,2,1,1,3,1,2,0,1,2,1,1,2,2,1,2,3,1,3,0,1,3,1,1,3,2,1,3,3,2,0,0,2,0,1,2,0,2,2,0,3,2,1,0,2,1,1,2,1,2,2,1,3,2,2,0,2,2,1,2,2,2,2,2,3,2,3,0,2,3,2,2,3,3,3,0,0,3,0,1,3,0,2,3,0,3,3,1,0,3,1,1,3,1,2,3,1,3,3,2,0,3,2,1,3,2,2,3,2,3,3,3,0,3,3,1,3,3,2,3,3,3,0,0,0,0,0,1,0,0,2,0,0,3,0,1,0,0,1,1,0,1,2,0,1,3,0,2,0,0,2,1,0,2,2,0,2,3,0,3,0,0,3,1,0,3,2,0,3,3,13,0,0,13,0,1,13,0,2,13,0,3,13,1,0,13,1,1,13,1,3,13,2,0,13,2,1,13,2,2,13,2,3,13,3,0,13,3,1,13,3,2,13,3,3,0,0,0,0,0,2,0,1,0,0,1,2,0,2,0,0,2,2,0,3,0,0,3,2,13,0,0,13,0,2,13,1,0,13,1,2,13,2,0,13,2,2,13,3,0,0,0,0,0,0,1,0,0,2,0,0,3,0,1,0,0,1,1,0,1,2,0,1,3,0,2,0,0,2,1,0,2,2,0,2,3,0,3,0,0,3,1,0,3,2,0,3,3,1,0,0,1,0,1,1,0,2,1,0,3,1,1,0,1,1,1,1,1,2,1,1,3,1,2,0,1,2,1,1,2,2,1,3,0,1,3,1,1,3,2,1,3,3,2,0,0,2,0,1,2,0,2,2,0,3,2,1,0,2,1,1,2,1,2,2,1,3,2,2,0,2,2,1,2,2,2,2,2,3,2,3,0,2,3,1,2,3,2,2,3,3,3,0,0,3,0,1,3,0,2,3,0,3,3,1,0,3,1,1,3,1,2,3,1,3,3,2,0,3,2,1,3,2,2,3,2,3,3,3,0,3,3,1,3,3,2,3,3,3,0,0,0,0,0,13,0,1,0,0,1,13,0,2,0,0,2,13,0,3,0,0,3,13,13,0,0,13,0,13,13,1,0,13,1,13,13,2,0,13,3,0,13,3,13,0,0,0,0,0,2,0,1,0,0,1,2,0,2,0,0,2,2,0,3,0,0,3,2,13,0,0,13,0,2,13,1,0,13,1,2,13,2,0,13,2,2,13,3,0,0,0,0,0,0,13,0,1,0,0,1,13,0,2,0,0,2,13,0,3,0,0,3,13,1,0,0,1,0,13,1,1,0,1,1,13,1,2,0,1,2,13,1,3,0,1,3,13,2,0,0,2,0,13,2,1,0,2,2,0,2,2,13,2,3,0,2,3,13,3,0,0,3,0,13,3,1,0,3,1,13,3,2,0,3,2,13,3,3,0,3,3,13,0,0,0,0,0,1,0,0,2,0,0,3,0,13,0,0,13,1,0,13,2,0,13,3,13,0,0,13,0,1,13,0,2,13,0,3,13,13,0,13,13,1,13,13,3,0,0,0,0,0,1,0,0,2,0,0,3,0,1,0,0,1,1,0,1,2,0,1,3,0,2,0,0,2,1,0,2,2,0,2,3,0,3,0,0,3,1,0,3,2,0,3,3,1,0,0,1,0,1,1,0,2,1,0,3,1,1,0,1,1,1,1,1,2,1,1,3,1,2,0,1,2,1,1,2,2,1,2,3,1,3,0,1,3,1,1,3,2,1,3,3,2,0,0,2,0,1,2,0,2,2,0,3,2,1,0,2,1,1,2,1,2,2,2,0,2,2,1,2,2,2,2,2,3,2,3,0,2,3,1,2,3,2,2,3,3,3,0,0,3,0,1,3,0,2,3,0,3,3,1,0,3,1,1,3,1,2,3,1,3,3,2,0,3,2,1,3,2,2,3,2,3,3,3,0,3,3,1,3,3,2,3,3,3,0,0,0,0,0,1,0,0,2,0,0,3,0,1,0,0,1,1,0,1,2,0,1,3,0,2,0,0,2,1,0,2,2,0,2,3,0,3,0,0,3,1,0,3,2,0,3,3,13,0,0,13,0,1,13,0,2,13,0,3,13,1,0,13,1,1,13,1,3,13,2,0,13,2,1,13,2,2,13,2,3,13,3,0,13,3,1,13,3,2,13,3,3,0,0,0,0,0,1,0,0,2,0,0,3,0,13,0,0,13,1,0,13,2,0,13,3,13,0,0,13,0,1,13,0,2,13,0,3,13,13,0,13,13,1,13,13,3,0,0,0,0,0,1,0,0,2,0,0,3,0,1,0,0,1,1,0,1,2,0,1,3,0,2,0,0,2,1,0,2,2,0,2,3,0,3,0,0,3,1,0,3,2,0,3,3,13,0,0,13,0,1,13,0,2,13,0,3,13,1,0,13,1,1,13,1,3,13,2,0,13,2,1,13,2,2,13,2,3,13,3,0,13,3,1,13,3,2,13,3,3,0,0,0,0,0,13,0,13,0,0,13,13,1,0,0,1,0,13,1,13,0,1,13,13,2,0,0,2,0,13,2,13,0,3,0,0,3,0,13,3,13,0,3,13,13,0,0,0,0,0,1,0,0,2,0,0,3,0,13,0,0,13,1,0,13,2,0,13,3,13,0,0,13,0,1,13,0,2,13,0,3,13,13,0,13,13,1,13,13,3,0,0,0,0,0,2,0,1,0,0,1,2,0,2,0,0,2,2,0,3,0,0,3,2,13,0,0,13,0,2,13,1,0,13,1,2,13,2,0,13,2,2,13,3,0,0,0,0,0,0,13,0,1,0,0,1,13,0,2,0,0,2,13,0,3,0,0,3,13,1,0,0,1,0,13,1,1,0,1,1,13,1,2,0,1,3,0,1,3,13,2,0,0,2,0,13,2,1,0,2,1,13,2,2,0,2,2,13,2,3,0,2,3,13,3,0,0,3,0,13,3,1,0,3,1,13,3,2,0,3,2,13,3,3,0,3,3,13,0,0,0,0,0,1,0,0,2,0,0,3,0,1,0,0,1,1,0,1,2,0,1,3,0,2,0,0,2,1,0,2,2,0,2,3,0,3,0,0,3,1,0,3,2,0,3,3,13,0,0,13,0,1,13,0,2,13,0,3,13,1,0,13,1,1,13,1,3,13,2,0,13,2,1,13,2,2,13,2,3,13,3,0,13,3,1,13,3,2,13,3,3,0,0,0,0,0,1,0,0,2,0,0,3,0,2,0,0,2,1,0,2,2,0,2,3,13,0,0,13,0,1,13,0,2,13,0,3,13,2,0,13,2,2,13,2,3,0,0,0,0,0,1,0,0,2,0,0,3,0,13,0,0,13,1,0,13,2,0,13,3,2,0,0,2,0,1,2,0,2,2,0,3,2,13,0,2,13,1,2,13,2,0,0,0,0,0,1,0,0,2,0,0,3,0,13,0,0,13,1,0,13,2,0,13,3,1,0,0,1,0,1,1,0,2,1,0,3,1,13,0,1,13,1,1,13,3,2,0,0,2,0,1,2,0,2,2,0,3,2,13,0,2,13,1,2,13,2,2,13,3,3,0,0,3,0,1,3,0,2,3,0,3,3,13,0,3,13,1,3,13,2,3,13,3,0,0,0,0,0,1,0,0,2,0,0,3,0,1,0,0,1,1,0,1,2,0,1,3,0,2,0,0,2,1,0,2,2,0,2,3,0,3,0,0,3,1,0,3,2,0,3,3,1,0,0,1,0,1,1,0,2,1,0,3,1,1,0,1,1,1,1,1,2,1,1,3,1,2,0,1,2,1,1,2,2,1,2,3,1,3,0,1,3,1,1,3,3,2,0,0,2,0,1,2,0,2,2,0,3,2,1,0,2,1,1,2,1,2,2,1,3,2,2,0,2,2,1,2,2,2,2,2,3,2,3,0,2,3,1,2,3,2,2,3,3,3,0,0,3,0,1,3,0,2,3,0,3,3,1,0,3,1,1,3,1,2,3,1,3,3,2,0,3,2,1,3,2,2,3,2,3,3,3,0,3,3,1,3,3,2,3,3,3,0,0,0,0,0,1,0,0,2,0,0,3,0,13,0,0,13,1,0,13,2,0,13,3,1,0,0,1,0,1,1,0,2,1,0,3,1,13,0,1,13,1,1,13,2,1,13,3,2,0,0,2,0,1,2,0,2,2,0,3,2,13,0,2,13,2,2,13,3,3,0,0,3,0,1,3,0,2,3,0,3,3,13,0,3,13,1,3,13,2,3,13,3,0,0,0,0,0,13,0,1,0,0,1,13,0,2,0,0,2,13,0,3,0,0,3,13,1,0,0,1,0,13,1,1,0,1,1,13,1,2,0,1,3,0,1,3,13,2,0,0,2,0,13,2,1,0,2,1,13,2,2,0,2,2,13,2,3,0,2,3,13,3,0,0,3,0,13,3,1,0,3,1,13,3,2,0,3,2,13,3,3,0,3,3,13,0,0,0,0,0,1,0,0,2,0,0,3,0,13,0,0,13,1,0,13,2,0,13,3,2,0,0,2,0,1,2,0,2,2,0,3,2,13,0,2,13,1,2,13,2,0,0,0,0,0,1,0,0,2,0,0,3,0,1,0,0,1,1,0,1,2,0,1,3,0,2,0,0,2,1,0,2,2,0,2,3,0,3,0,0,3,1,0,3,2,0,3,3,1,0,0,1,0,1,1,0,2,1,0,3,1,1,0,1,1,1,1,1,2,1,1,3,1,2,0,1,2,1,1,2,2,1,2,3,1,3,0,1,3,1,1,3,2,1,3,3,2,0,0,2,0,1,2,0,2,2,0,3,2,1,0,2,1,1,2,1,2,2,2,0,2,2,1,2,2,2,2,2,3,2,3,0,2,3,1,2,3,2,2,3,3,3,0,0,3,0,1,3,0,2,3,0,3,3,1,0,3,1,1,3,1,2,3,1,3,3,2,0,3,2,1,3,2,2,3,2,3,3,3,0,3,3,1,3,3,2,3,3,3,0,0,0,0,0,1,0,0,2,0,0,3,0,1,0,0,1,1,0,1,2,0,1,3,0,2,0,0,2,1,0,2,2,0,2,3,0,3,0,0,3,1,0,3,2,0,3,3,13,0,0,13,0,1,13,0,2,13,0,3,13,1,0,13,1,1,13,1,2,13,1,3,13,2,0,13,2,2,13,2,3,13,3,0,13,3,1,13,3,2,13,3,3,0,0,0,0,0,1,0,0,2,0,0,3,0,1,0,0,1,1,0,1,2,0,1,3,0,2,0,0,2,1,0,2,2,0,2,3,0,3,0,0,3,1,0,3,2,0,3,3,13,0,0,13,0,1,13,0,2,13,0,3,13,1,0,13,1,1,13,1,2,13,1,3,13,2,0,13,2,1,13,2,2,13,2,3,13,3,0,13,3,1,13,3,3,0,0,0,0,0,1,0,0,2,0,0,3,0,1,0,0,1,1,0,1,2,0,1,3,0,2,0,0,2,1,0,2,2,0,2,3,0,3,0,0,3,1,0,3,2,0,3,3,1,0,0,1,0,1,1,0,2,1,0,3,1,1,0,1,1,1,1,1,2,1,1,3,1,2,0,1,2,1,1,2,2,1,3,0,1,3,1,1,3,2,1,3,3,2,0,0,2,0,1,2,0,2,2,0,3,2,1,0,2,1,1,2,1,2,2,1,3,2,2,0,2,2,1,2,2,2,2,2,3,2,3,0,2,3,1,2,3,2,2,3,3,3,0,0,3,0,1,3,0,2,3,0,3,3,1,0,3,1,1,3,1,2,3,1,3,3,2,0,3,2,1,3,2,2,3,2,3,3,3,0,3,3,1,3,3,2,3,3,3,0,0,0,0,0,1,0,0,2,0,0,3,0,1,0,0,1,1,0,1,2,0,1,3,0,2,0,0,2,1,0,2,2,0,2,3,0,3,0,0,3,1,0,3,2,0,3,3,1,0,0,1,0,1,1,0,2,1,0,3,1,1,0,1,1,1,1,1,2,1,1,3,1,2,0,1,2,1,1,2,2,1,2,3,1,3,0,1,3,1,1,3,2,1,3,3,2,0,0,2,0,1,2,0,2,2,0,3,2,1,0,2,1,1,2,1,2,2,2,0,2,2,1,2,2,2,2,2,3,2,3,0,2,3,1,2,3,2,2,3,3,3,0,0,3,0,1,3,0,2,3,0,3,3,1,0,3,1,1,3,1,2,3,1,3,3,2,0,3,2,1,3,2,2,3,2,3,3,3,0,3,3,1,3,3,2,3,3,3,0,0,0,0,0,1,0,0,2,0,0,3,0,1,0,0,1,1,0,1,2,0,1,3,0,2,0,0,2,1,0,2,2,0,2,3,0,3,0,0,3,1,0,3,2,0,3,3,1,0,0,1,0,1,1,0,2,1,0,3,1,1,0,1,1,1,1,1,2,1,1,3,1,2,0,1,2,1,1,2,2,1,3,0,1,3,1,1,3,2,1,3,3,2,0,0,2,0,1,2,0,2,2,0,3,2,1,0,2,1,1,2,1,2,2,1,3,2,2,0,2,2,1,2,2,2,2,2,3,2,3,0,2,3,1,2,3,2,2,3,3,3,0,0,3,0,1,3,0,2,3,0,3,3,1,0,3,1,1,3,1,2,3,1,3,3,2,0,3,2,1,3,2,2,3,2,3,3,3,0,3,3,1,3,3,2,3,3,3,0,0,0,0,0,1,0,0,2,0,0,3,0,13,0,0,13,1,0,13,2,0,13,3,1,0,0,1,0,1,1,0,2,1,0,3,1,13,0,1,13,1,1,13,2,1,13,3,2,0,0,2,0,1,2,0,2,2,0,3,2,13,0,2,13,2,2,13,3,3,0,0,3,0,1,3,0,2,3,0,3,3,13,0,3,13,1,3,13,2,3,13,3,0,0,0,0,0,1,0,0,2,0,0,3,0,1,0,0,1,1,0,1,2,0,1,3,0,2,0,0,2,1,0,2,2,0,2,3,0,3,0,0,3,1,0,3,2,0,3,3,1,0,0,1,0,1,1,0,2,1,0,3,1,1,0,1,1,1,1,1,2,1,1,3,1,2,0,1,2,1,1,2,2,1,3,0,1,3,1,1,3,2,1,3,3,2,0,0,2,0,1,2,0,2,2,0,3,2,1,0,2,1,1,2,1,2,2,1,3,2,2,0,2,2,1,2,2,2,2,2,3,2,3,0,2,3,1,2,3,2,2,3,3,3,0,0,3,0,1,3,0,2,3,0,3,3,1,0,3,1,1,3,1,2,3,1,3,3,2,0,3,2,1,3,2,2,3,2,3,3,3,0,3,3,1,3,3,2,3,3,3,0,0,0,0,0,1,0,0,2,0,0,3,0,1,0,0,1,1,0,1,2,0,1,3,0,2,0,0,2,1,0,2,2,0,2,3,0,3,0,0,3,1,0,3,2,0,3,3,13,0,0,13,0,1,13,0,2,13,0,3,13,1,0,13,1,1,13,1,2,13,1,3,13,2,0,13,2,2,13,2,3,13,3,0,13,3,1,13,3,2,13,3,3,0,0,0,0,0,1,0,0,2,0,0,3,0,1,0,0,1,1,0,1,2,0,1,3,0,2,0,0,2,1,0,2,2,0,2,3,0,3,0,0,3,1,0,3,2,0,3,3,13,0,0,13,0,1,13,0,2,13,0,3,13,1,0,13,1,1,13,1,3,13,2,0,13,2,1,13,2,2,13,2,3,13,3,0,13,3,1,13,3,2,13,3,3,0,0,0,0,0,1,0,0,2,0,0,3,0,1,0,0,1,1,0,1,2,0,1,3,0,2,0,0,2,1,0,2,2,0,2,3,0,3,0,0,3,1,0,3,2,0,3,3,1,0,0,1,0,1,1,0,2,1,0,3,1,1,0,1,1,1,1,1,2,1,1,3,1,2,0,1,2,1,1,2,2,1,2,3,1,3,0,1,3,1,1,3,3,2,0,0,2,0,1,2,0,2,2,0,3,2,1,0,2,1,1,2,1,2,2,1,3,2,2,0,2,2,1,2,2,2,2,2,3,2,3,0,2,3,1,2,3,2,2,3,3,3,0,0,3,0,1,3,0,2,3,0,3,3,1,0,3,1,1,3,1,2,3,1,3,3,2,0,3,2,1,3,2,2,3,2,3,3,3,0,3,3,1,3,3,2,3,3,3,0,0,0,0,0,1,0,0,2,0,0,3,0,1,0,0,1,1,0,1,2,0,1,3,0,2,0,0,2,1,0,2,2,0,2,3,0,3,0,0,3,1,0,3,2,0,3,3,13,0,0,13,0,1,13,0,2,13,0,3,13,1,0,13,1,1,13,1,3,13,2,0,13,2,1,13,2,2,13,2,3,13,3,0,13,3,1,13,3,2,13,3,3,0,0,0,0,0,1,0,0,2,0,0,3,0,13,0,0,13,1,0,13,2,0,13,3,2,0,0,2,0,1,2,0,2,2,0,3,2,13,0,2,13,1,2,13,2,0,0,0,0,0,1,0,0,2,0,0,3,0,1,0,0,1,1,0,1,2,0,1,3,0,2,0,0,2,1,0,2,2,0,2,3,0,3,0,0,3,1,0,3,2,0,3,3,1,0,0,1,0,1,1,0,2,1,0,3,1,1,0,1,1,1,1,1,2,1,1,3,1,2,0,1,2,1,1,2,2,1,2,3,1,3,0,1,3,1,1,3,2,1,3,3,2,0,0,2,0,1,2,0,2,2,0,3,2,1,0,2,1,1,2,1,2,2,2,0,2,2,1,2,2,2,2,2,3,2,3,0,2,3,1,2,3,2,2,3,3,3,0,0,3,0,1,3,0,2,3,0,3,3,1,0,3,1,1,3,1,2,3,1,3,3,2,0,3,2,1,3,2,2,3,2,3,3,3,0,3,3,1,3,3,2,3,3,3,0,0,0,0,0,1,0,0,2,0,0,3,0,1,0,0,1,1,0,1,2,0,1,3,0,2,0,0,2,1,0,2,2,0,2,3,0,3,0,0,3,1,0,3,2,0,3,3,13,0,0,13,0,1,13,0,2,13,0,3,13,1,0,13,1,1,13,1,2,13,1,3,13,2,0,13,2,2,13,2,3,13,3,0,13,3,1,13,3,2,13,3,3,0,0,0,0,0,1,0,0,2,0,0,3,0,1,0,0,1,1,0,1,2,0,1,3,0,2,0,0,2,1,0,2,2,0,2,3,0,3,0,0,3,1,0,3,2,0,3,3,1,0,0,1,0,1,1,0,2,1,0,3,1,1,0,1,1,1,1,1,2,1,1,3,1,2,0,1,2,1,1,2,2,1,2,3,1,3,0,1,3,1,1,3,2,1,3,3,2,0,0,2,0,1,2,0,2,2,0,3,2,1,0,2,1,1,2,1,2,2,1,3,2,2,0,2,2,1,2,2,2,2,2,3,2,3,0,2,3,2,2,3,3,3,0,0,3,0,1,3,0,2,3,0,3,3,1,0,3,1,1,3,1,2,3,1,3,3,2,0,3,2,1,3,2,2,3,2,3,3,3,0,3,3,1,3,3,2,3,3,3,0,0,0,0,0,2,0,1,0,0,1,2,0,2,0,0,2,2,0,3,0,0,3,2,13,0,0,13,0,2,13,1,0,13,1,2,13,2,0,13,2,2,13,3,0,0,0,0,0,0,1,0,0,2,0,0,3,0,1,0,0,1,1,0,1,2,0,1,3,0,2,0,0,2,1,0,2,2,0,2,3,0,3,0,0,3,1,0,3,2,0,3,3,13,0,0,13,0,1,13,0,2,13,0,3,13,1,0,13,1,1,13,1,3,13,2,0,13,2,1,13,2,2,13,2,3,13,3,0,13,3,1,13,3,2,13,3,3,0,0,0,0,0,1,0,0,2,0,0,3,0,13,0,0,13,1,0,13,2,0,13,3,2,0,0,2,0,1,2,0,2,2,0,3,2,13,0,2,13,1,2,13,2,0,0,0,0,0,1,0,0,2,0,0,3,0,13,0,0,13,1,0,13,2,0,13,3,1,0,0,1,0,1,1,0,2,1,0,3,1,13,0,1,13,1,1,13,2,1,13,3,2,0,0,2,0,1,2,0,2,2,0,3,2,13,0,2,13,2,2,13,3,3,0,0,3,0,1,3,0,2,3,0,3,3,13,0,3,13,1,3,13,2,3,13,3,0,0,0,0,0,2,0,1,0,0,1,2,0,2,0,0,2,2,0,3,0,0,3,2,13,0,0,13,0,2,13,1,0,13,2,0,13,2,2,13,3,0,13,3,2,0,0,0,0,0,1,0,0,2,0,0,3,0,1,0,0,1,1,0,1,2,0,1,3,0,2,0,0,2,1,0,2,2,0,2,3,0,3,0,0,3,1,0,3,2,0,3,3,13,0,0,13,0,1,13,0,2,13,0,3,13,1,0,13,1,1,13,1,2,13,1,3,13,2,0,13,2,1,13,2,2,13,2,3,13,3,0,13,3,1,13,3,3,0,0,0,0,0,1,0,0,2,0,0,3,0,1,0,0,1,1,0,1,2,0,1,3,0,2,0,0,2,1,0,2,2,0,2,3,0,3,0,0,3,1,0,3,2,0,3,3,13,0,0,13,0,1,13,0,2,13,0,3,13,1,0,13,1,1,13,1,3,13,2,0,13,2,1,13,2,2,13,2,3,13,3,0,13,3,1,13,3,2,13,3,3,0,0,0,0,0,1,0,0,2,0,0,3,0,1,0,0,1,1,0,1,2,0,1,3,0,2,0,0,2,1,0,2,2,0,2,3,0,3,0,0,3,1,0,3,2,0,3,3,13,0,0,13,0,1,13,0,2,13,0,3,13,1,0,13,1,1,13,1,3,13,2,0,13,2,1,13,2,2,13,2,3,13,3,0,13,3,1,13,3,2,13,3,3,0,0,0,0,0,1,0,0,2,0,0,3,0,1,0,0,1,1,0,1,2,0,1,3,0,2,0,0,2,1,0,2,2,0,2,3,0,3,0,0,3,1,0,3,2,0,3,3,13,0,0,13,0,1,13,0,2,13,0,3,13,1,0,13,1,1,13,1,3,13,2,0,13,2,1,13,2,2,13,2,3,13,3,0,13,3,1,13,3,2,13,3,3,0,0,0,0,0,1,0,0,2,0,0,3,0,13,0,0,13,1,0,13,2,0,13,3,13,0,0,13,0,1,13,0,2,13,0,3,13,13,0,13,13,1,13,13,3,0,0,0,0,0,1,0,0,2,0,0,3,0,1,0,0,1,1,0,1,2,0,1,3,0,2,0,0,2,1,0,2,2,0,2,3,0,3,0,0,3,1,0,3,2,0,3,3,13,0,0,13,0,1,13,0,2,13,0,3,13,1,0,13,1,1,13,1,2,13,1,3,13,2,0,13,2,2,13,2,3,13,3,0,13,3,1,13,3,2,13,3,3,0,0,0,0,0,1,0,0,2,0,0,3,0,13,0,0,13,1,0,13,2,0,13,3,2,0,0,2,0,1,2,0,2,2,0,3,2,13,0,2,13,1,2,13,2,0,0,0,0,0,2,0,1,0,0,1,2,0,2,0,0,2,2,0,3,0,0,3,2,13,0,0,13,0,2,13,1,0,13,1,2,13,2,0,13,2,2,13,3,0,0,0,0,0,0,1,0,0,2,0,0,3,0,1,0,0,1,1,0,1,2,0,1,3,0,2,0,0,2,1,0,2,2,0,2,3,0,3,0,0,3,1,0,3,2,0,3,3,13,0,0,13,0,1,13,0,2,13,0,3,13,1,0,13,1,1,13,1,2,13,1,3,13,2,0,13,2,2,13,2,3,13,3,0,13,3,1,13,3,2,13,3,3,0,0,0,0,0,1,0,0,2,0,0,3,0,1,0,0,1,1,0,1,2,0,1,3,0,2,0,0,2,1,0,2,2,0,2,3,0,3,0,0,3,1,0,3,2,0,3,3,1,0,0,1,0,1,1,0,2,1,0,3,1,1,0,1,1,1,1,1,2,1,1,3,1,2,0,1,2,1,1,2,2,1,2,3,1,3,0,1,3,1,1,3,2,1,3,3,2,0,0,2,0,1,2,0,2,2,0,3,2,1,0,2,1,1,2,1,2,2,2,0,2,2,1,2,2,2,2,2,3,2,3,0,2,3,1,2,3,2,2,3,3,3,0,0,3,0,1,3,0,2,3,0,3,3,1,0,3,1,1,3,1,2,3,1,3,3,2,0,3,2,1,3,2,2,3,2,3,3,3,0,3,3,1,3,3,2,3,3,3,0,0,0,0,0,1,0,0,2,0,0,3,0,13,0,0,13,1,0,13,2,0,13,3,13,0,0,13,0,1,13,0,2,13,0,3,13,13,0,13,13,1,13,13,3,0,0,0,0,0,1,0,0,2,0,0,3,0,13,0,0,13,1,0,13,2,0,13,3,2,0,0,2,0,1,2,0,2,2,0,3,2,13,0,2,13,1,2,13,2,0,0,0,0,0,1,0,0,2,0,0,3,0,1,0,0,1,1,0,1,2,0,1,3,0,2,0,0,2,1,0,2,2,0,2,3,0,3,0,0,3,1,0,3,2,0,3,3,13,0,0,13,0,1,13,0,2,13,0,3,13,1,0,13,1,1,13,1,2,13,1,3,13,2,0,13,2,2,13,2,3,13,3,0,13,3,1,13,3,2,13,3,3];
