%  translation in .gbac format of file bacp12.dat in CSPlib

n_periods =  12 ;
n_courses =  66 ;
n_curricula =  1 ;
min_courses =  2 ;
max_courses =  10 ;
n_precedences =  65 ;
n_undesirables =  0 ;
w1 = 1;
w2 = 1;
course_load =  [1, 3, 1, 2, 4, 4, 1, 5, 3, 4, 4, 1, 4, 1, 1, 4, 4, 4, 4, 4, 3, 3, 4, 4, 1, 3, 3, 3, 3, 3, 4, 4, 3, 4, 4, 3, 4, 3, 3, 3, 4, 2, 4, 3, 3, 4, 2, 4, 4, 4, 3, 3, 2, 4, 4, 3, 3, 3, 2, 2, 3, 4, 3, 3, 2, 2] ;
courses_of =  [{1, 2, 3, 4, 5, 6, 7, 8, 9, 10, 11, 12, 13, 14, 15, 16, 17, 18, 19, 20, 21, 22, 23, 24, 25, 26, 27, 28, 29, 30, 31, 32, 33, 34, 35, 36, 37, 38, 39, 40, 41, 42, 43, 44, 45, 46, 47, 48, 49, 50, 51, 52, 53, 54, 55, 56, 57, 58, 59, 60, 61, 62, 63, 64, 65, 66}] ;
precedes = array2d(precedences,1..2, [7, 1, 8, 2, 8, 6, 10, 5, 11, 5, 11, 6, 12, 7, 13, 8, 13, 11, 14, 3, 16, 9, 17, 10, 17, 11, 18, 10, 18, 11, 19, 8, 19, 11, 20, 9, 21, 10, 23, 17, 23, 18, 24, 13, 24, 19, 26, 13, 26, 23, 30, 9, 32, 9, 33, 27, 34, 17, 35, 9, 35, 17, 35, 18, 37, 20, 37, 30, 37, 35, 38, 33, 39, 35, 41, 9, 41, 17, 41, 18, 43, 20, 44, 16, 45, 38, 46, 37, 47, 42, 48, 34, 48, 35, 49, 30, 49, 32, 50, 43, 51, 33, 53, 47, 54, 50, 55, 43, 55, 38, 56, 51, 57, 39, 57, 34, 58, 28, 59, 55, 61, 48, 61, 55, 62, 31, 63, 48, 65, 59]) ;
undesirable = array2d(undesirables,1..2, []) ;
% {'dew100': 1, 'fis100': 2, 'hcw310': 3, 'iwg101': 4, 'mat111': 5, 'mat121': 6, 'dew101': 7, 'fis110': 8, 'iwi131': 9, 'mat112': 10, 'mat122': 11, 'dewxx0': 12, 'fis120': 13, 'hcw311': 14, 'hxwxx1': 15, 'ili142': 16, 'mat113': 17, 'mat123': 18, 'fis130': 19, 'ili134': 20, 'ili151': 21, 'iwm185': 22, 'mat124': 23, 'fis140': 24, 'hxwxx2': 25, 'ile260': 26, 'ili260': 27, 'iwn170': 28, 'qui104': 29, 'ili231': 30, 'ili243': 31, 'ili252': 32, 'ili273': 33, 'mat210': 34, 'mat260': 35, 'ild208': 36, 'ili221': 37, 'ili274': 38, 'ili281': 39, 'iwn270': 40, 'mat270': 41, 'hrw150': 42, 'ili238': 43, 'ili242': 44, 'ili275': 45, 'ili355': 46, 'hrw110': 47, 'ici393': 48, 'ili237': 49, 'ili334': 50, 'ili363': 51, 'iwn261': 52, 'hrw100': 53, 'ici382': 54, 'ili331': 55, 'ili362': 56, 'ili381': 57, 'iln230': 58, 'ici313': 59, 'ici315': 60, 'ici332': 61, 'ici344': 62, 'icn336': 63, 'iwi365': 64, 'ici314': 65, 'ici367': 66}
