%  A reduced (simplified) version of the UD1 instance 
%  of http://satt.diegm.uniud.it/projects/gbac/
%
%  The instance is reduced by removing all courses
%  that do not have an undesired period and lowering
%  min_courses to 0, so as not to make the instance UNSAT.
%

%  Ing@UD aa07-08, first level

n_periods =  9 ;
n_courses =  82 ;
n_curricula =  37 ;
min_courses =  0 ;
max_courses =  6 ;
n_precedences =  68 ;
n_undesirables =  270 ;
w1 = 1;
w2 = 1;
course_load =  [5, 5, 5, 3, 6, 12, 6, 6, 5, 5, 6, 6, 1, 5, 5, 3, 6, 5, 5, 6, 5, 5, 5, 5, 7, 5, 5, 5, 5, 5, 5, 6, 5, 6, 5, 5, 6, 5, 6, 6, 5, 5, 1, 12, 6, 5, 7, 6, 1, 5, 5, 7, 5, 5, 6, 6, 5, 1, 5, 5, 6, 5, 5, 5, 5, 5, 5, 5, 5, 5, 3, 20, 1, 5, 5, 5, 6, 5, 5, 5, 5, 1] ;
courses_of =  [{69, 20, 21, 22, 23, 24, 25}, {69, 75, 20, 21, 22, 23, 24, 25}, {69, 75, 20, 21, 22, 23, 24, 25}, {69, 20, 21, 22, 23, 25}, {69, 20, 21, 22, 23, 25, 59}, {69, 75, 20, 21, 22, 23, 25}, {1, 2, 3, 4, 37, 38, 5, 6, 71, 77}, {1, 2, 3, 4, 37, 38, 5, 7, 71, 77}, {4, 5, 37, 38, 8, 6, 41, 71, 77, 17, 18, 19}, {4, 5, 37, 38, 8, 41, 71, 77, 17, 18, 19}, {2, 4, 5, 37, 38, 7, 71, 77, 62, 63}, {9, 10, 11, 12, 13, 73, 16, 82, 61}, {9, 10, 11, 12, 13, 73, 15, 16, 82, 61}, {9, 10, 11, 12, 13, 73, 74, 16, 82, 61}, {9, 10, 11, 12, 13, 14, 73, 16, 82, 61}, {37, 38, 39, 40, 41, 42, 43, 71, 77, 18}, {37, 38, 39, 71, 41, 42, 43, 44, 77, 18}, {37, 38, 39, 40, 71, 43, 45, 77}, {37, 38, 71, 39, 43, 44, 77}, {77, 71, 37, 38, 39}, {32, 33, 34, 35, 36, 46, 47}, {32, 33, 35, 46, 47}, {32, 33, 35, 46, 47}, {64, 72, 78, 79, 80, 81, 26, 27, 28, 29, 30, 31}, {64, 67, 72, 78, 79, 80, 81, 26, 27, 28, 29, 30, 31}, {64, 65, 66, 68, 78, 79, 80, 81, 26, 27, 28, 29, 30, 31}, {64, 66, 68, 72, 78, 79, 80, 81, 26, 27, 28, 29, 30, 31}, {32, 36, 9, 46, 47, 14, 48, 49, 61}, {32, 9, 46, 47, 48, 14, 49, 51, 61}, {32, 9, 46, 47, 48, 14, 49, 50, 61}, {52, 53, 54, 55, 56, 57, 58, 60}, {52, 53, 54, 55, 56, 57, 58, 60}, {76, 52, 53, 54, 55, 56, 57, 58, 60}, {52, 53, 54, 55, 56, 57, 58, 60}, {52, 53, 54, 55, 56, 57, 58, 60}, {76, 52, 53, 54, 55, 56, 57, 58, 60}, {70, 52, 53, 54, 55, 56, 58}] ;
precedes = array2d(precedences,1..2, [5, 1, 5, 38, 5, 2, 5, 3, 5, 6, 5, 7, 5, 18, 5, 62, 5, 63, 10, 74, 12, 15, 20, 24, 20, 69, 22, 24, 25, 24, 25, 69, 37, 3, 37, 7, 37, 8, 37, 17, 37, 41, 37, 18, 37, 19, 37, 39, 37, 40, 37, 42, 37, 45, 48, 46, 48, 14, 48, 47, 48, 36, 48, 50, 48, 61, 52, 53, 52, 54, 52, 56, 52, 60, 52, 76, 55, 54, 55, 76, 58, 57, 58, 76, 61, 74, 71, 38, 71, 39, 71, 40, 71, 41, 71, 42, 71, 18, 71, 45, 71, 1, 71, 2, 71, 3, 71, 7, 71, 8, 71, 17, 71, 19, 71, 44, 71, 6, 71, 62, 77, 38, 77, 40, 77, 44, 77, 45, 77, 2, 77, 6, 77, 7, 77, 62] );
undesirable = array2d(undesirables,1..2, [1, 3, 1, 6, 1, 9, 2, 1, 2, 4, 2, 7, 3, 3, 3, 6, 3, 9, 4, 1, 4, 4, 4, 7, 5, 2, 5, 5, 5, 8, 6, 1, 6, 4, 6, 7, 7, 3, 7, 6, 7, 9, 7, 1, 7, 4, 7, 7, 8, 3, 8, 6, 8, 9, 9, 1, 9, 4, 9, 7, 10, 1, 10, 4, 10, 7, 11, 3, 11, 6, 11, 9, 12, 1, 12, 4, 12, 7, 13, 3, 13, 6, 13, 9, 14, 2, 14, 5, 14, 8, 15, 3, 15, 6, 15, 9, 16, 3, 16, 6, 16, 9, 17, 2, 17, 5, 17, 8, 18, 3, 18, 6, 18, 9, 18, 2, 18, 5, 18, 8, 19, 3, 19, 6, 19, 9, 20, 1, 20, 4, 20, 7, 21, 1, 21, 4, 21, 7, 22, 2, 22, 5, 22, 8, 23, 3, 23, 6, 23, 9, 24, 3, 24, 6, 24, 9, 25, 2, 25, 5, 25, 8, 26, 2, 26, 5, 26, 8, 27, 2, 27, 5, 27, 8, 28, 3, 28, 6, 28, 9, 29, 3, 29, 6, 29, 9, 30, 1, 30, 4, 30, 7, 31, 3, 31, 6, 31, 9, 32, 3, 32, 6, 32, 9, 33, 3, 33, 6, 33, 9, 34, 2, 34, 5, 34, 8, 35, 2, 35, 5, 35, 8, 36, 3, 36, 6, 36, 9, 37, 3, 37, 6, 37, 9, 38, 3, 38, 6, 38, 9, 39, 3, 39, 6, 39, 9, 40, 1, 40, 4, 40, 7, 41, 1, 41, 4, 41, 7, 42, 3, 42, 6, 42, 9, 43, 2, 43, 5, 43, 8, 44, 1, 44, 4, 44, 7, 45, 3, 45, 6, 45, 9, 46, 3, 46, 6, 46, 9, 47, 3, 47, 6, 47, 9, 48, 1, 48, 4, 48, 7, 49, 3, 49, 6, 49, 9, 49, 1, 49, 4, 49, 7, 50, 3, 50, 6, 50, 9, 51, 1, 51, 4, 51, 7, 52, 2, 52, 5, 52, 8, 53, 3, 53, 6, 53, 9, 54, 2, 54, 5, 54, 8, 54, 3, 54, 6, 54, 9, 55, 1, 55, 4, 55, 7, 56, 1, 56, 4, 56, 7, 57, 1, 57, 4, 57, 7, 58, 1, 58, 4, 58, 7, 59, 3, 59, 6, 59, 9, 59, 2, 59, 5, 59, 8, 60, 2, 60, 5, 60, 8, 60, 3, 60, 6, 60, 9, 61, 3, 61, 6, 61, 9, 62, 3, 62, 6, 62, 9, 62, 2, 62, 5, 62, 8, 63, 1, 63, 4, 63, 7, 64, 2, 64, 5, 64, 8, 65, 2, 65, 5, 65, 8, 66, 3, 66, 6, 66, 9, 67, 1, 67, 4, 67, 7, 68, 3, 68, 6, 68, 9, 69, 3, 69, 6, 69, 9, 70, 1, 70, 4, 70, 7, 71, 2, 71, 5, 71, 8, 72, 1, 72, 4, 72, 7, 73, 2, 73, 5, 73, 8, 73, 1, 73, 4, 73, 7, 74, 3, 74, 6, 74, 9, 75, 1, 75, 4, 75, 7, 76, 3, 76, 6, 76, 9, 77, 3, 77, 6, 77, 9, 78, 3, 78, 6, 78, 9, 79, 3, 79, 6, 79, 9, 80, 2, 80, 5, 80, 8, 81, 3, 81, 6, 81, 9, 82, 1, 82, 4, 82, 7] );
% {'c34': 6, 'c231': 41, 'c184': 32, 'c36': 7, 'c127': 25, 'c137': 27, 'c211': 37, 'c150': 30, 'c271': 47, 'c225': 39, 'c1077': 75, 'c1089': 77, 'c1018': 70, 'c13': 2, 'c198': 35, 'c227': 40, 'c77': 16, 'c241': 44, 'c691': 54, 'c779': 62, 'c978': 68, 'c37': 8, 'c149': 29, 'c74': 15, 'c64': 12, 'c723': 59, 'c71': 13, 'c51': 9, 'c203': 36, 'c197': 34, 'c1043': 72, 'c1170': 81, 'c732': 60, 'c705': 58, 'c117': 24, 'c101': 22, 'c693': 55, 'c133': 26, 'c904': 65, 'c88': 18, 'c690': 53, 'c1023': 71, 'c30': 5, 'c278': 49, 'c280': 51, 'c29': 4, 'c232': 42, 'c1155': 79, 'c7': 1, 'c163': 31, 'c1069': 74, 'c703': 57, 'c20': 3, 'c1078': 76, 'c901': 64, 'c72': 14, 'c249': 45, 'c969': 67, 'c91': 19, 'c279': 50, 'c98': 21, 'c114': 23, 'c696': 56, 'c193': 33, 'c143': 28, 'c1156': 80, 'c681': 52, 'c252': 46, 'c963': 66, 'c224': 38, 'c239': 43, 'c80': 17, 'c1192': 82, 'c275': 48, 'c780': 63, 'c746': 61, 'c62': 11, 'c1059': 73, 'c94': 20, 'c998': 69, 'c55': 10, 'c1152': 78}
