%  A reduced (simplified) version of the UD9 instance 
%  of http://satt.diegm.uniud.it/projects/gbac/
%
%  The instance is reduced by removing all courses
%  that do not have an undesired period and lowering
%  min_courses to 0, so as not to make the instance UNSAT.
%

%  Ing@UD aa06-07, first level

n_periods =  9 ;
n_courses =  77 ;
n_curricula =  37 ;
min_courses =  0 ;
max_courses =  6 ;
n_precedences =  98 ;
n_undesirables =  255 ;
w1 = 1;
w2 = 1;
course_load =  [5, 5, 3, 12, 6, 6, 6, 5, 6, 6, 7, 1, 5, 5, 3, 6, 5, 5, 7, 5, 7, 5, 1, 5, 5, 5, 5, 5, 1, 6, 5, 6, 5, 5, 6, 5, 5, 6, 6, 5, 5, 3, 6, 5, 6, 5, 6, 5, 12, 6, 5, 6, 5, 5, 5, 5, 7, 3, 6, 5, 5, 4, 1, 5, 5, 5, 5, 5, 12, 3, 5, 1, 6, 10, 5, 6, 3] ;
courses_of =  [{70, 19, 20, 21, 22, 23, 30}, {70, 19, 20, 21, 22, 23, 30}, {70, 19, 20, 21, 22, 23, 30}, {70, 19, 20, 21, 22, 23, 30}, {70, 19, 20, 21, 22, 23, 30}, {70, 19, 20, 21, 22, 23, 30}, {1, 2, 3, 36, 4, 76}, {1, 2, 3, 36, 5, 76}, {2, 3, 36, 4, 6, 39, 37, 41, 38, 76, 46, 16, 17, 18}, {2, 3, 36, 37, 6, 39, 38, 41, 76, 46, 16, 17, 18}, {3, 36, 5, 72, 76, 61}, {69, 7, 8, 9, 10, 11, 12, 77, 15, 59}, {69, 7, 8, 9, 10, 11, 12, 77, 14, 15, 59}, {69, 7, 8, 9, 10, 11, 12, 75, 77, 15, 59}, {69, 7, 8, 9, 10, 11, 12, 13, 77, 15, 59}, {35, 36, 37, 38, 39, 40, 41, 42, 43, 76, 17, 28}, {35, 36, 37, 38, 39, 40, 41, 42, 43, 76, 17, 28}, {35, 36, 37, 38, 39, 40, 42, 43, 44, 45, 46, 76, 28}, {35, 36, 37, 38, 39, 40, 42, 43, 44, 76, 46, 28}, {35, 36, 38, 40, 42, 43, 76, 60, 28}, {32, 33, 34, 47, 30, 31}, {32, 31, 30, 47}, {32, 31, 30, 47}, {64, 66, 24, 25, 26, 27, 28, 29}, {65, 24, 25, 26, 27, 28, 29}, {67, 61, 24, 25, 26, 27, 28, 29}, {67, 24, 25, 26, 27, 28, 29}, {33, 34, 69, 11, 13, 77, 47, 59}, {69, 71, 11, 77, 13, 47, 49, 59}, {69, 11, 13, 77, 47, 48, 49, 59}, {73, 50, 51, 52, 53, 54, 55, 56, 57, 58, 62, 63}, {73, 50, 51, 52, 53, 54, 56, 57, 58, 62, 63}, {73, 50, 51, 52, 53, 54, 56, 57, 58, 62, 63}, {73, 74, 50, 51, 52, 53, 55, 56, 57, 58, 62, 63}, {73, 74, 50, 51, 52, 53, 56, 57, 58, 62, 63}, {73, 74, 50, 51, 52, 53, 56, 57, 58, 62, 63}, {68, 73, 74, 50, 51, 52, 53, 57, 58, 62, 63}] ;
precedes = array2d(precedences,1..2, [11, 7, 11, 9, 11, 10, 11, 13, 11, 14, 11, 47, 11, 33, 11, 34, 11, 48, 11, 71, 19, 30, 19, 20, 19, 22, 19, 21, 21, 22, 29, 27, 29, 61, 32, 47, 32, 31, 32, 33, 32, 34, 35, 45, 36, 4, 36, 5, 36, 61, 36, 45, 39, 41, 40, 45, 43, 37, 43, 38, 43, 39, 43, 17, 43, 45, 43, 46, 50, 54, 50, 56, 50, 74, 52, 51, 52, 54, 52, 55, 53, 54, 53, 56, 53, 74, 57, 51, 57, 54, 57, 55, 59, 75, 65, 61, 69, 7, 69, 8, 69, 9, 69, 10, 69, 13, 69, 14, 69, 59, 69, 47, 69, 33, 69, 34, 69, 48, 69, 71, 70, 30, 70, 20, 70, 22, 72, 4, 72, 5, 72, 17, 72, 46, 72, 38, 72, 61, 73, 50, 73, 51, 73, 53, 73, 54, 73, 55, 73, 62, 73, 63, 73, 56, 73, 68, 73, 74, 76, 37, 76, 39, 76, 45, 76, 2, 76, 4, 76, 5, 76, 61, 77, 47, 77, 13, 77, 33, 77, 34, 77, 48, 77, 71, 77, 59, 77, 7, 77, 8, 77, 9, 77, 10, 77, 14] );
undesirable = array2d(undesirables,1..2, [1, 3, 1, 6, 1, 9, 2, 1, 2, 4, 2, 7, 3, 1, 3, 4, 3, 7, 3, 2, 3, 5, 3, 8, 4, 1, 4, 4, 4, 7, 5, 1, 5, 4, 5, 7, 5, 3, 5, 6, 5, 9, 6, 3, 6, 6, 6, 9, 7, 1, 7, 4, 7, 7, 8, 1, 8, 4, 8, 7, 9, 3, 9, 6, 9, 9, 10, 1, 10, 4, 10, 7, 11, 3, 11, 6, 11, 9, 12, 2, 12, 5, 12, 8, 13, 3, 13, 6, 13, 9, 14, 3, 14, 6, 14, 9, 15, 2, 15, 5, 15, 8, 16, 2, 16, 5, 16, 8, 16, 3, 16, 6, 16, 9, 17, 3, 17, 6, 17, 9, 18, 1, 18, 4, 18, 7, 19, 1, 19, 4, 19, 7, 20, 2, 20, 5, 20, 8, 21, 3, 21, 6, 21, 9, 22, 3, 22, 6, 22, 9, 23, 2, 23, 5, 23, 8, 24, 2, 24, 5, 24, 8, 25, 2, 25, 5, 25, 8, 26, 3, 26, 6, 26, 9, 27, 3, 27, 6, 27, 9, 28, 1, 28, 4, 28, 7, 29, 3, 29, 6, 29, 9, 30, 3, 30, 6, 30, 9, 31, 2, 31, 5, 31, 8, 32, 3, 32, 6, 32, 9, 33, 3, 33, 6, 33, 9, 34, 3, 34, 6, 34, 9, 35, 3, 35, 6, 35, 9, 36, 3, 36, 6, 36, 9, 37, 1, 37, 4, 37, 7, 38, 1, 38, 4, 38, 7, 39, 3, 39, 6, 39, 9, 40, 2, 40, 5, 40, 8, 41, 1, 41, 4, 41, 7, 42, 3, 42, 6, 42, 9, 43, 3, 43, 6, 43, 9, 44, 3, 44, 6, 44, 9, 45, 1, 45, 4, 45, 7, 46, 1, 46, 4, 46, 7, 46, 3, 46, 6, 46, 9, 47, 1, 47, 4, 47, 7, 48, 2, 48, 5, 48, 8, 49, 3, 49, 6, 49, 9, 50, 1, 50, 4, 50, 7, 51, 1, 51, 4, 51, 7, 52, 1, 52, 4, 52, 7, 53, 1, 53, 4, 53, 7, 54, 3, 54, 6, 54, 9, 55, 2, 55, 5, 55, 8, 55, 3, 55, 6, 55, 9, 56, 2, 56, 5, 56, 8, 57, 3, 57, 6, 57, 9, 58, 3, 58, 6, 58, 9, 59, 2, 59, 5, 59, 8, 59, 3, 59, 6, 59, 9, 60, 1, 60, 4, 60, 7, 61, 2, 61, 5, 61, 8, 62, 3, 62, 6, 62, 9, 63, 1, 63, 4, 63, 7, 64, 3, 64, 6, 64, 9, 65, 3, 65, 6, 65, 9, 66, 1, 66, 4, 66, 7, 67, 2, 67, 5, 67, 8, 68, 1, 68, 4, 68, 7, 69, 1, 69, 4, 69, 7, 69, 2, 69, 5, 69, 8, 70, 3, 70, 6, 70, 9, 71, 1, 71, 4, 71, 7, 71, 3, 71, 6, 71, 9, 72, 3, 72, 6, 72, 9, 73, 3, 73, 6, 73, 9, 74, 3, 74, 6, 74, 9, 75, 2, 75, 5, 75, 8, 76, 3, 76, 6, 76, 9, 77, 1, 77, 4, 77, 7] );
% {'c746': 59, 'c36': 5, 'c1034': 70, 'c131': 26, 'c218': 37, 'c253': 46, 'c69': 11, 'c243': 44, 'c34': 4, 'c703': 56, 'c88': 17, 'c279': 48, 'c7': 1, 'c74': 14, 'c125': 23, 'c231': 41, 'c112': 21, 'c471': 49, 'c1050': 72, 'c37': 6, 'c1149': 77, 'c770': 60, 'c180': 30, 'c221': 38, 'c95': 19, 'c1060': 73, 'c685': 51, 'c130': 25, 'c695': 53, 'c983': 67, 'c61': 9, 'c1089': 76, 'c216': 36, 'c1027': 69, 'c29': 3, 'c53': 8, 'c682': 50, 'c236': 42, 'c203': 34, 'c80': 16, 'c701': 55, 'c62': 10, 'c898': 61, 'c1016': 68, 'c70': 12, 'c72': 13, 'c91': 18, 'c946': 63, 'c223': 39, 'c195': 32, 'c1037': 71, 'c215': 35, 'c945': 62, 'c957': 65, 'c137': 28, 'c1069': 75, 'c700': 54, 'c1061': 74, 'c188': 31, 'c710': 58, 'c77': 15, 'c249': 45, 'c228': 40, 'c975': 66, 'c50': 7, 'c133': 27, 'c202': 33, 'c693': 52, 'c115': 22, 'c98': 20, 'c708': 57, 'c12': 2, 'c951': 64, 'c237': 43, 'c173': 29, 'c129': 24, 'c257': 47}
