%  Real case instance UD1 of http://satt.diegm.uniud.it/projects/gbac/ 
%  Downloaded from https://bitbucket.org/satt/gbacp-instances/raw/Imported/UD/
%  and translated into a MiniZinc data-file.

%  Ing@UD aa07-08, first level

n_periods =  9 ;
n_courses =  307 ;
n_curricula =  37 ;
min_courses =  2 ;
max_courses =  6 ;
n_precedences =  1383 ;
n_undesirables =  270 ;
w1 = 1;
w2 = 1;
course_load =  [6, 5, 5, 6, 5, 5, 6, 5, 6, 6, 5, 6, 5, 5, 5, 3, 6, 1, 1, 12, 6, 6, 6, 7, 7, 5, 6, 5, 5, 6, 5, 5, 6, 6, 5, 6, 5, 6, 6, 6, 7, 1, 1, 5, 5, 5, 3, 10, 6, 5, 5, 5, 5, 6, 6, 7, 6, 5, 5, 5, 6, 5, 5, 5, 6, 6, 5, 6, 7, 5, 5, 5, 5, 5, 5, 5, 3, 6, 1, 1, 10, 7, 5, 5, 5, 5, 5, 5, 5, 5, 5, 5, 5, 5, 6, 1, 1, 6, 7, 7, 6, 6, 6, 6, 5, 6, 5, 5, 6, 6, 6, 5, 5, 5, 5, 5, 3, 6, 7, 1, 1, 6, 6, 6, 7, 7, 6, 5, 5, 5, 5, 6, 6, 6, 5, 6, 6, 6, 5, 6, 5, 5, 6, 3, 6, 7, 1, 1, 12, 5, 5, 6, 5, 5, 5, 6, 5, 7, 3, 6, 1, 1, 5, 5, 5, 5, 5, 12, 12, 6, 7, 6, 6, 5, 5, 6, 5, 5, 5, 6, 6, 5, 6, 7, 5, 5, 5, 5, 5, 6, 1, 1, 7, 3, 5, 5, 5, 5, 5, 5, 5, 6, 5, 5, 5, 6, 5, 5, 5, 5, 5, 5, 5, 18, 31, 5, 5, 5, 5, 5, 3, 3, 3, 3, 7, 5, 5, 5, 10, 5, 5, 5, 5, 5, 5, 11, 4, 1, 5, 5, 5, 5, 5, 5, 5, 5, 5, 5, 5, 6, 6, 6, 5, 5, 5, 5, 3, 3, 12, 12, 3, 12, 3, 6, 3, 5, 5, 20, 2, 1, 1, 1, 5, 1, 6, 10, 5, 1, 4, 5, 5, 5, 5, 5, 5, 6, 6, 6, 5, 3, 5, 5, 5, 5, 5, 5, 5, 5, 5, 5, 5, 5, 5, 5, 5, 5, 1] ;
courses_of =  [{262, 263, 55, 56, 57, 58, 59, 60, 61, 62, 63, 64, 65, 66, 67, 68, 69, 70, 71, 72, 73, 74, 75, 76, 77, 78, 79, 80, 82, 195, 101, 236, 248}, {262, 263, 280, 55, 56, 57, 58, 59, 60, 61, 62, 63, 64, 65, 66, 67, 68, 69, 70, 71, 72, 73, 74, 195, 76, 77, 78, 79, 80, 82, 101, 236, 248}, {262, 263, 280, 55, 56, 57, 58, 59, 60, 61, 62, 63, 64, 65, 66, 67, 68, 69, 70, 71, 72, 73, 74, 195, 76, 77, 78, 79, 80, 82, 101, 236, 248}, {262, 263, 55, 56, 57, 58, 59, 60, 61, 62, 63, 64, 65, 66, 67, 68, 69, 70, 71, 72, 195, 75, 76, 77, 78, 79, 80, 81, 82, 101, 236, 248}, {262, 263, 55, 56, 57, 58, 59, 60, 61, 62, 63, 64, 65, 66, 67, 68, 69, 70, 71, 72, 195, 196, 76, 77, 78, 79, 80, 81, 82, 101, 236, 248}, {262, 263, 280, 55, 56, 57, 58, 59, 60, 61, 62, 63, 64, 65, 66, 67, 68, 69, 70, 71, 72, 195, 76, 77, 78, 79, 80, 81, 82, 101, 236, 248}, {128, 1, 2, 3, 4, 5, 6, 135, 7, 8, 9, 10, 11, 137, 140, 12, 13, 14, 15, 16, 17, 146, 18, 19, 20, 258, 286, 287, 257, 269, 122, 123, 124, 125, 126}, {128, 1, 2, 3, 4, 5, 6, 135, 7, 8, 9, 10, 11, 137, 140, 12, 13, 14, 15, 16, 17, 146, 18, 19, 21, 22, 258, 286, 287, 257, 269, 122, 123, 124, 125, 126}, {128, 1, 129, 130, 132, 5, 134, 135, 133, 137, 10, 258, 140, 12, 141, 16, 17, 146, 18, 19, 20, 23, 154, 286, 287, 49, 50, 51, 52, 53, 122, 123, 124, 125, 126}, {128, 1, 129, 130, 132, 5, 134, 135, 133, 137, 10, 7, 140, 12, 141, 16, 17, 146, 18, 19, 258, 23, 154, 286, 287, 49, 50, 51, 52, 53, 54, 122, 123, 124, 125, 126}, {128, 1, 258, 3, 4, 6, 135, 8, 7, 10, 12, 140, 270, 16, 17, 146, 18, 22, 286, 287, 204, 206, 207, 208, 209, 210, 211, 212, 213, 215, 216, 122, 123, 124, 125, 126}, {259, 273, 274, 24, 25, 26, 27, 28, 29, 30, 31, 32, 33, 34, 35, 36, 37, 38, 39, 40, 41, 42, 43, 47, 306, 307, 290, 200, 201, 202, 234, 250, 251, 252, 253}, {259, 273, 274, 24, 25, 27, 28, 29, 30, 31, 32, 33, 34, 35, 36, 37, 38, 39, 40, 41, 42, 43, 45, 46, 47, 48, 306, 307, 290, 202, 250, 251, 252, 253}, {259, 273, 274, 277, 157, 24, 25, 27, 28, 29, 30, 31, 32, 33, 34, 35, 36, 37, 38, 39, 40, 41, 42, 43, 47, 48, 306, 307, 290, 202, 250, 251, 252, 253}, {259, 273, 274, 24, 25, 27, 28, 29, 30, 31, 32, 33, 34, 35, 36, 37, 38, 39, 40, 41, 42, 43, 44, 45, 47, 48, 306, 307, 290, 202, 250, 251, 252, 253}, {128, 129, 130, 131, 132, 133, 134, 135, 136, 137, 138, 139, 12, 140, 141, 142, 143, 144, 145, 146, 147, 148, 258, 286, 287, 50, 51, 203, 122, 123, 124, 125, 126, 127}, {128, 129, 130, 131, 132, 133, 134, 135, 136, 137, 258, 139, 12, 140, 141, 142, 144, 145, 146, 147, 148, 149, 286, 287, 50, 51, 203, 122, 123, 124, 125, 126, 127}, {128, 129, 130, 131, 132, 133, 134, 135, 136, 137, 138, 139, 12, 140, 144, 145, 146, 147, 148, 258, 150, 151, 152, 154, 286, 287, 203, 235, 122, 123, 124, 125, 126, 127}, {128, 129, 130, 131, 132, 133, 134, 135, 136, 137, 258, 139, 12, 140, 144, 145, 146, 147, 148, 149, 150, 151, 154, 286, 287, 203, 235, 122, 123, 124, 125, 126, 127}, {128, 129, 258, 131, 132, 133, 135, 136, 139, 140, 271, 144, 145, 146, 272, 151, 286, 287, 203, 204, 205, 206, 207, 208, 214, 221, 222, 223, 224, 122, 123, 124, 125, 126, 127}, {260, 261, 153, 155, 156, 158, 305, 63, 68, 98, 99, 100, 101, 102, 103, 104, 105, 106, 107, 108, 109, 110, 111, 112, 113, 114, 115, 116, 117, 118, 119, 120, 121}, {260, 261, 9, 153, 155, 156, 158, 166, 169, 63, 68, 98, 99, 100, 101, 102, 103, 104, 105, 106, 107, 108, 109, 112, 113, 114, 115, 117, 118, 119, 120, 121}, {260, 261, 153, 155, 156, 158, 167, 169, 63, 64, 68, 98, 99, 100, 101, 102, 103, 104, 105, 106, 107, 108, 109, 112, 113, 114, 115, 117, 118, 119, 120, 121}, {267, 268, 278, 279, 291, 292, 293, 294, 295, 296, 297, 298, 299, 300, 301, 302, 303, 304, 83, 84, 85, 86, 87, 88, 217, 218, 219, 89, 90, 91, 92, 96, 97, 225, 93, 94, 95, 230, 243, 244}, {267, 268, 278, 279, 291, 292, 293, 294, 295, 296, 297, 298, 299, 300, 301, 302, 303, 304, 83, 84, 85, 86, 87, 88, 217, 89, 90, 91, 92, 93, 94, 96, 97, 225, 95, 230, 239, 240, 242, 246}, {278, 279, 283, 284, 285, 291, 292, 293, 294, 299, 300, 301, 302, 303, 304, 83, 84, 85, 86, 87, 88, 89, 90, 91, 92, 93, 94, 95, 96, 97, 225, 226, 227, 228, 229, 230, 231, 232, 233, 241, 245, 247}, {267, 268, 278, 279, 291, 292, 293, 294, 295, 296, 297, 298, 299, 300, 301, 302, 303, 304, 83, 84, 85, 86, 87, 88, 217, 89, 90, 220, 91, 92, 93, 96, 97, 225, 94, 95, 230, 241, 245, 247}, {259, 24, 153, 26, 27, 25, 157, 155, 156, 29, 33, 30, 35, 36, 37, 158, 159, 160, 41, 161, 162, 44, 305, 290, 200, 202, 102, 103, 104, 234, 115, 116, 250}, {259, 266, 24, 153, 26, 27, 25, 157, 158, 155, 156, 33, 29, 35, 36, 37, 30, 159, 160, 41, 161, 162, 44, 164, 168, 290, 202, 102, 103, 104, 115, 250}, {259, 24, 153, 26, 27, 25, 157, 158, 155, 156, 33, 29, 35, 36, 37, 30, 159, 160, 41, 161, 162, 44, 165, 168, 290, 163, 202, 102, 103, 104, 115, 250}, {264, 265, 275, 288, 289, 170, 171, 172, 173, 174, 175, 176, 177, 178, 179, 180, 181, 182, 183, 184, 185, 186, 187, 188, 189, 190, 191, 192, 193, 194, 197, 198, 199, 237, 238, 249}, {264, 265, 275, 282, 288, 289, 170, 171, 172, 173, 174, 175, 176, 177, 178, 179, 180, 181, 182, 183, 184, 185, 186, 187, 189, 190, 191, 192, 193, 194, 197, 198, 199, 237, 238, 249}, {264, 265, 275, 281, 288, 289, 170, 171, 172, 173, 174, 175, 176, 177, 178, 179, 180, 181, 182, 183, 184, 185, 186, 187, 189, 190, 191, 192, 193, 194, 197, 198, 199, 237, 238, 249}, {264, 265, 275, 276, 288, 289, 170, 171, 172, 173, 174, 175, 176, 177, 178, 179, 180, 181, 182, 183, 184, 185, 188, 189, 190, 191, 192, 193, 194, 197, 198, 199, 237, 238, 249}, {264, 265, 275, 276, 282, 288, 289, 170, 171, 172, 173, 174, 175, 176, 177, 178, 179, 180, 181, 182, 183, 184, 185, 189, 190, 191, 192, 193, 194, 197, 198, 199, 237, 238, 249}, {264, 265, 275, 276, 281, 288, 289, 170, 171, 172, 173, 174, 175, 176, 177, 178, 179, 180, 181, 182, 183, 184, 185, 189, 190, 191, 192, 193, 194, 197, 198, 199, 237, 238, 249}, {256, 264, 265, 275, 276, 288, 289, 170, 171, 172, 173, 174, 175, 176, 177, 178, 179, 180, 181, 182, 183, 184, 190, 191, 192, 193, 194, 198, 237, 238, 249, 254, 255}] ;
precedes = array2d(precedences,1..2, [122, 4, 122, 7, 122, 8, 122, 9, 122, 10, 122, 11, 122, 13, 122, 14, 122, 15, 122, 21, 122, 22, 122, 23, 122, 49, 122, 141, 122, 51, 122, 52, 122, 154, 122, 53, 122, 54, 122, 132, 122, 133, 122, 257, 123, 4, 123, 7, 123, 8, 123, 9, 123, 10, 123, 11, 123, 13, 123, 14, 123, 15, 123, 21, 123, 22, 123, 23, 123, 49, 123, 141, 123, 51, 123, 52, 123, 154, 123, 53, 123, 54, 123, 132, 123, 133, 123, 257, 125, 1, 125, 2, 125, 128, 125, 3, 125, 135, 125, 4, 125, 5, 125, 6, 125, 7, 125, 8, 125, 9, 125, 10, 125, 11, 125, 140, 125, 12, 125, 13, 125, 124, 125, 14, 125, 15, 125, 21, 125, 22, 125, 23, 125, 49, 125, 134, 125, 141, 125, 129, 125, 130, 125, 50, 125, 51, 125, 52, 125, 154, 125, 53, 125, 54, 125, 132, 125, 133, 125, 257, 126, 4, 126, 7, 126, 8, 126, 9, 126, 10, 126, 11, 126, 13, 126, 14, 126, 15, 126, 21, 126, 22, 126, 23, 126, 49, 126, 141, 126, 51, 126, 52, 126, 154, 126, 53, 126, 54, 126, 132, 126, 133, 126, 257, 137, 4, 137, 7, 137, 8, 137, 9, 137, 10, 137, 11, 137, 13, 137, 14, 137, 15, 137, 21, 137, 22, 137, 23, 137, 49, 137, 141, 137, 51, 137, 52, 137, 154, 137, 53, 137, 54, 137, 132, 137, 133, 137, 257, 146, 4, 146, 7, 146, 8, 146, 9, 146, 10, 146, 11, 146, 13, 146, 14, 146, 15, 146, 21, 146, 22, 146, 23, 146, 49, 146, 141, 146, 51, 146, 52, 146, 154, 146, 53, 146, 54, 146, 132, 146, 133, 146, 257, 24, 26, 24, 27, 24, 28, 24, 29, 24, 30, 24, 31, 24, 32, 24, 35, 24, 36, 24, 37, 24, 38, 24, 39, 24, 40, 24, 44, 24, 45, 24, 46, 24, 200, 24, 201, 24, 202, 24, 234, 24, 157, 24, 252, 24, 253, 24, 273, 24, 274, 25, 28, 25, 38, 25, 39, 25, 40, 25, 44, 25, 45, 25, 46, 25, 200, 25, 201, 25, 234, 25, 157, 25, 253, 25, 273, 25, 274, 32, 277, 33, 28, 33, 38, 33, 39, 33, 40, 33, 44, 33, 45, 33, 46, 33, 200, 33, 201, 33, 234, 33, 157, 33, 253, 33, 273, 33, 274, 34, 28, 34, 38, 34, 39, 34, 40, 34, 44, 34, 45, 34, 46, 34, 200, 34, 201, 34, 234, 34, 157, 34, 253, 34, 273, 34, 274, 36, 28, 36, 38, 36, 39, 36, 40, 36, 44, 36, 45, 36, 46, 36, 200, 36, 201, 36, 234, 36, 157, 36, 273, 41, 28, 41, 38, 41, 39, 41, 40, 41, 44, 41, 45, 41, 46, 41, 200, 41, 201, 41, 234, 41, 157, 41, 253, 41, 273, 41, 274, 55, 59, 55, 63, 55, 64, 55, 72, 55, 73, 55, 74, 55, 75, 55, 236, 55, 248, 56, 101, 56, 57, 56, 58, 56, 59, 56, 60, 56, 61, 56, 62, 56, 63, 56, 64, 56, 67, 56, 68, 56, 70, 56, 71, 56, 72, 56, 73, 56, 74, 56, 75, 56, 236, 56, 248, 65, 59, 65, 63, 65, 64, 65, 72, 65, 73, 65, 74, 65, 75, 65, 236, 65, 248, 66, 59, 66, 63, 66, 64, 66, 72, 66, 73, 66, 74, 66, 75, 66, 236, 66, 248, 69, 59, 69, 63, 69, 64, 69, 72, 69, 73, 69, 74, 69, 75, 69, 236, 69, 248, 82, 59, 82, 63, 82, 64, 82, 72, 82, 73, 82, 74, 82, 75, 82, 236, 82, 248, 98, 103, 98, 104, 98, 156, 98, 63, 98, 105, 98, 110, 98, 111, 98, 115, 98, 116, 98, 9, 98, 166, 98, 167, 98, 64, 98, 305, 99, 101, 99, 153, 99, 155, 99, 103, 99, 104, 99, 156, 99, 63, 99, 105, 99, 106, 99, 107, 99, 68, 99, 108, 99, 158, 99, 110, 99, 111, 99, 112, 99, 113, 99, 114, 99, 115, 99, 116, 99, 9, 99, 166, 99, 167, 99, 64, 99, 305, 100, 103, 100, 104, 100, 156, 100, 63, 100, 105, 100, 110, 100, 111, 100, 115, 100, 116, 100, 9, 100, 166, 100, 167, 100, 64, 100, 305, 102, 103, 102, 104, 102, 156, 102, 63, 102, 105, 102, 110, 102, 111, 102, 115, 102, 116, 102, 9, 102, 166, 102, 167, 102, 64, 102, 305, 109, 103, 109, 104, 109, 156, 109, 63, 109, 105, 109, 110, 109, 111, 109, 115, 109, 116, 109, 9, 109, 166, 109, 167, 109, 64, 109, 305, 119, 103, 119, 104, 119, 156, 119, 63, 119, 105, 119, 110, 119, 111, 119, 115, 119, 116, 119, 9, 119, 166, 119, 167, 119, 64, 119, 305, 122, 124, 122, 129, 122, 130, 122, 134, 122, 136, 122, 138, 122, 12, 122, 140, 122, 142, 122, 143, 122, 150, 122, 151, 122, 152, 122, 203, 122, 50, 122, 235, 123, 124, 123, 129, 123, 134, 123, 136, 123, 138, 123, 140, 123, 142, 123, 143, 123, 150, 123, 151, 123, 152, 123, 203, 123, 50, 123, 235, 125, 127, 125, 131, 125, 136, 125, 138, 125, 139, 125, 142, 125, 143, 125, 150, 125, 151, 125, 152, 125, 203, 125, 235, 126, 124, 126, 129, 126, 130, 126, 136, 126, 138, 126, 12, 126, 140, 126, 142, 126, 143, 126, 150, 126, 151, 126, 152, 126, 203, 126, 50, 126, 235, 128, 150, 129, 142, 130, 132, 130, 133, 130, 143, 130, 152, 134, 141, 135, 205, 137, 136, 137, 138, 137, 142, 137, 143, 137, 150, 137, 151, 137, 152, 137, 203, 137, 50, 137, 235, 139, 152, 146, 136, 146, 138, 146, 142, 146, 143, 146, 150, 146, 151, 146, 152, 146, 203, 146, 50, 146, 235, 250, 103, 250, 104, 250, 156, 250, 115, 250, 157, 250, 44, 250, 200, 250, 234, 250, 116, 250, 163, 250, 164, 250, 165, 250, 266, 250, 305, 24, 153, 24, 155, 24, 103, 24, 104, 24, 156, 24, 115, 24, 158, 24, 116, 24, 163, 24, 164, 24, 165, 24, 266, 24, 305, 25, 103, 25, 104, 25, 156, 25, 115, 25, 116, 25, 163, 25, 164, 25, 165, 25, 266, 25, 305, 102, 157, 102, 44, 102, 200, 102, 234, 102, 163, 102, 164, 102, 165, 102, 266, 33, 103, 33, 104, 33, 156, 33, 115, 33, 116, 33, 163, 33, 164, 33, 165, 33, 266, 33, 305, 41, 103, 41, 104, 41, 156, 41, 115, 41, 116, 41, 163, 41, 164, 41, 165, 41, 266, 41, 305, 170, 174, 170, 178, 170, 179, 170, 185, 170, 186, 170, 187, 170, 188, 170, 249, 170, 281, 171, 172, 171, 173, 171, 174, 171, 175, 171, 176, 171, 177, 171, 178, 171, 179, 171, 182, 171, 183, 171, 185, 171, 186, 171, 187, 171, 188, 171, 197, 171, 198, 171, 199, 171, 237, 171, 238, 171, 249, 171, 281, 180, 174, 180, 178, 180, 179, 180, 185, 180, 186, 180, 187, 180, 188, 180, 249, 180, 281, 181, 174, 181, 178, 181, 179, 181, 185, 181, 186, 181, 187, 181, 188, 181, 249, 181, 281, 184, 174, 184, 178, 184, 179, 184, 185, 184, 186, 184, 187, 184, 188, 184, 249, 184, 281, 193, 174, 193, 178, 193, 179, 193, 185, 193, 186, 193, 187, 193, 188, 193, 249, 193, 281, 202, 277, 250, 28, 250, 38, 250, 39, 250, 40, 250, 45, 250, 46, 250, 201, 250, 253, 250, 273, 250, 274, 253, 277, 258, 124, 258, 127, 258, 128, 258, 129, 258, 130, 258, 131, 258, 132, 258, 133, 258, 134, 258, 135, 258, 136, 258, 138, 258, 139, 258, 12, 258, 140, 258, 141, 258, 142, 258, 143, 258, 51, 258, 150, 258, 151, 258, 152, 258, 154, 258, 203, 258, 50, 258, 235, 258, 1, 258, 2, 258, 3, 258, 4, 258, 5, 258, 6, 258, 7, 258, 8, 258, 9, 258, 10, 258, 11, 258, 13, 258, 14, 258, 15, 258, 21, 258, 22, 258, 23, 258, 49, 258, 52, 258, 53, 258, 54, 258, 257, 259, 26, 259, 27, 259, 28, 259, 29, 259, 30, 259, 31, 259, 32, 259, 35, 259, 36, 259, 37, 259, 38, 259, 39, 259, 40, 259, 44, 259, 45, 259, 46, 259, 200, 259, 201, 259, 202, 259, 234, 259, 157, 259, 252, 259, 253, 259, 273, 259, 274, 259, 153, 259, 155, 259, 103, 259, 104, 259, 156, 259, 115, 259, 158, 259, 116, 259, 163, 259, 164, 259, 165, 259, 266, 259, 305, 290, 26, 290, 153, 290, 155, 290, 103, 290, 104, 290, 156, 290, 115, 290, 37, 290, 29, 290, 157, 290, 36, 290, 35, 290, 44, 290, 27, 290, 30, 290, 200, 290, 234, 290, 158, 290, 116, 290, 163, 290, 164, 290, 165, 290, 266, 290, 202, 290, 305, 260, 101, 260, 153, 260, 155, 260, 103, 260, 104, 260, 156, 260, 63, 260, 105, 260, 106, 260, 107, 260, 68, 260, 108, 260, 158, 260, 110, 260, 111, 260, 112, 260, 113, 260, 114, 260, 115, 260, 116, 260, 9, 260, 166, 260, 167, 260, 64, 260, 305, 261, 101, 261, 153, 261, 155, 261, 103, 261, 104, 261, 156, 261, 63, 261, 105, 261, 106, 261, 107, 261, 68, 261, 108, 261, 158, 261, 110, 261, 111, 261, 112, 261, 113, 261, 114, 261, 115, 261, 116, 261, 9, 261, 166, 261, 167, 261, 64, 261, 305, 262, 101, 262, 57, 262, 58, 262, 59, 262, 60, 262, 61, 262, 62, 262, 63, 262, 64, 262, 67, 262, 68, 262, 70, 262, 71, 262, 72, 262, 73, 262, 74, 262, 75, 262, 236, 262, 248, 263, 101, 263, 57, 263, 58, 263, 59, 263, 60, 263, 61, 263, 62, 263, 63, 263, 64, 263, 67, 263, 68, 263, 70, 263, 71, 263, 72, 263, 73, 263, 74, 263, 75, 263, 195, 263, 236, 263, 248, 264, 172, 264, 173, 264, 174, 264, 175, 264, 176, 264, 177, 264, 178, 264, 179, 264, 182, 264, 183, 264, 185, 264, 186, 264, 187, 264, 188, 264, 197, 264, 198, 264, 199, 264, 237, 264, 238, 264, 249, 264, 281, 265, 172, 265, 173, 265, 174, 265, 175, 265, 176, 265, 177, 265, 178, 265, 179, 265, 182, 265, 183, 265, 185, 265, 186, 265, 187, 265, 188, 265, 197, 265, 198, 265, 199, 265, 237, 265, 238, 265, 249, 265, 281, 275, 172, 275, 173, 275, 174, 275, 175, 275, 176, 275, 177, 275, 178, 275, 179, 275, 182, 275, 183, 275, 185, 275, 186, 275, 187, 275, 188, 275, 197, 275, 198, 275, 199, 275, 237, 275, 238, 275, 249, 275, 281, 286, 124, 287, 124, 290, 28, 290, 31, 290, 32, 290, 38, 290, 39, 290, 40, 290, 45, 290, 46, 290, 201, 290, 252, 290, 253, 290, 273, 290, 274, 125, 126, 1, 20, 1, 21, 1, 22, 1, 54, 1, 211, 1, 215, 1, 7, 128, 20, 128, 21, 128, 22, 128, 54, 128, 211, 128, 215, 128, 7, 124, 20, 124, 21, 124, 22, 124, 54, 124, 211, 124, 215, 124, 7, 17, 2, 17, 3, 17, 135, 17, 5, 17, 6, 17, 7, 17, 8, 17, 10, 17, 11, 17, 140, 17, 12, 17, 13, 17, 20, 17, 21, 17, 22, 17, 134, 17, 129, 17, 130, 17, 51, 17, 52, 17, 154, 17, 54, 17, 133, 17, 208, 17, 211, 17, 212, 17, 204, 17, 215, 24, 25, 27, 37, 29, 30, 29, 48, 29, 200, 29, 234, 36, 48, 40, 46, 129, 130, 50, 20, 50, 21, 50, 22, 50, 54, 50, 211, 50, 215, 50, 7, 51, 52, 56, 69, 101, 73, 101, 74, 101, 81, 57, 73, 57, 74, 57, 81, 60, 73, 60, 74, 60, 81, 63, 72, 67, 73, 67, 74, 67, 81, 78, 58, 78, 61, 78, 62, 78, 64, 78, 68, 78, 70, 78, 71, 78, 72, 78, 73, 78, 74, 78, 75, 78, 81, 78, 195, 78, 196, 78, 248, 78, 280, 79, 64, 79, 72, 79, 73, 79, 74, 79, 75, 79, 81, 79, 196, 79, 248, 79, 280, 84, 85, 95, 86, 95, 89, 95, 90, 95, 91, 95, 92, 95, 93, 95, 219, 95, 227, 95, 229, 95, 231, 95, 232, 95, 241, 95, 242, 95, 268, 95, 278, 95, 284, 95, 285, 95, 297, 95, 298, 95, 299, 95, 300, 96, 86, 96, 89, 96, 90, 96, 91, 96, 92, 96, 93, 96, 219, 96, 227, 96, 229, 96, 231, 96, 232, 96, 241, 96, 242, 96, 268, 96, 278, 96, 284, 96, 285, 96, 297, 96, 298, 96, 299, 96, 300, 97, 86, 97, 89, 97, 90, 97, 91, 97, 92, 97, 93, 97, 219, 97, 227, 97, 229, 97, 231, 97, 232, 97, 241, 97, 242, 97, 268, 97, 278, 97, 284, 97, 285, 97, 297, 97, 298, 97, 299, 97, 300, 99, 100, 101, 110, 101, 111, 106, 110, 106, 111, 110, 111, 113, 110, 113, 111, 114, 110, 114, 111, 118, 153, 118, 155, 118, 156, 118, 105, 118, 107, 118, 68, 118, 108, 118, 158, 118, 110, 118, 111, 118, 112, 118, 115, 118, 116, 118, 166, 118, 64, 124, 138, 124, 143, 124, 149, 124, 152, 124, 214, 124, 221, 124, 222, 124, 223, 124, 224, 127, 138, 127, 143, 127, 149, 127, 152, 127, 214, 127, 221, 127, 222, 127, 223, 127, 224, 128, 138, 128, 143, 128, 149, 128, 152, 128, 214, 128, 221, 128, 222, 128, 223, 128, 224, 132, 133, 139, 138, 139, 143, 139, 149, 139, 214, 139, 221, 139, 222, 139, 223, 139, 224, 145, 129, 145, 130, 145, 131, 145, 133, 145, 134, 145, 135, 145, 136, 145, 138, 145, 12, 145, 140, 145, 142, 145, 143, 145, 51, 145, 149, 145, 152, 145, 154, 145, 204, 145, 208, 145, 214, 145, 221, 145, 222, 145, 223, 145, 224, 145, 235, 26, 200, 26, 234, 26, 266, 29, 266, 36, 266, 200, 234, 160, 153, 160, 155, 160, 156, 160, 115, 160, 37, 160, 35, 160, 44, 160, 27, 160, 30, 160, 200, 160, 234, 160, 158, 160, 116, 160, 163, 160, 266, 160, 202, 171, 184, 172, 186, 172, 187, 172, 189, 172, 276, 173, 186, 173, 187, 173, 189, 173, 276, 175, 186, 175, 187, 175, 189, 175, 276, 178, 185, 182, 186, 182, 187, 182, 189, 182, 276, 190, 176, 190, 177, 190, 179, 190, 183, 190, 185, 190, 186, 190, 187, 190, 188, 190, 189, 190, 197, 190, 198, 190, 199, 190, 237, 190, 238, 190, 249, 190, 254, 190, 256, 190, 276, 190, 281, 190, 282, 191, 179, 191, 185, 191, 186, 191, 187, 191, 188, 191, 189, 191, 249, 191, 254, 191, 256, 191, 276, 191, 281, 191, 282, 207, 138, 207, 143, 207, 149, 207, 152, 207, 214, 207, 221, 207, 222, 207, 223, 207, 224, 209, 210, 216, 20, 216, 21, 216, 22, 216, 54, 216, 211, 216, 215, 216, 7, 251, 27, 251, 28, 251, 30, 251, 31, 251, 32, 251, 35, 251, 37, 251, 38, 251, 39, 251, 44, 251, 46, 251, 48, 251, 200, 251, 201, 251, 202, 251, 234, 251, 277, 252, 48, 252, 200, 252, 234, 253, 48, 253, 200, 253, 234, 258, 149, 258, 208, 258, 214, 258, 221, 258, 222, 258, 223, 258, 224, 258, 20, 258, 211, 258, 215, 259, 48, 259, 250, 260, 98, 262, 55, 262, 81, 263, 81, 264, 189, 264, 276, 265, 189, 265, 276, 270, 8, 270, 10, 270, 11, 270, 13, 270, 20, 270, 21, 270, 22, 270, 51, 270, 52, 270, 154, 270, 54, 270, 133, 270, 211, 270, 212, 270, 204, 270, 215, 270, 140, 270, 7, 271, 138, 271, 143, 271, 149, 271, 152, 271, 214, 271, 221, 271, 222, 271, 223, 271, 224, 272, 133, 272, 136, 272, 138, 272, 142, 272, 143, 272, 51, 272, 149, 272, 152, 272, 154, 272, 214, 272, 221, 272, 222, 272, 223, 272, 224, 272, 235, 275, 189, 275, 276, 286, 130, 286, 134, 286, 135, 286, 138, 286, 143, 286, 149, 286, 152, 286, 208, 286, 214, 286, 221, 286, 222, 286, 223, 286, 224, 287, 130, 287, 134, 287, 135, 287, 138, 287, 143, 287, 149, 287, 152, 287, 208, 287, 214, 287, 221, 287, 222, 287, 223, 287, 224, 286, 5, 286, 6, 286, 7, 286, 20, 286, 21, 286, 22, 286, 54, 286, 211, 286, 215, 287, 5, 287, 6, 287, 7, 287, 20, 287, 21, 287, 22, 287, 54, 287, 211, 287, 215, 288, 289, 290, 48] );
undesirable = array2d(undesirables,1..2, [258, 2, 258, 5, 258, 8, 241, 3, 241, 6, 241, 9, 280, 1, 280, 4, 280, 7, 103, 3, 103, 6, 103, 9, 86, 2, 86, 5, 86, 8, 147, 2, 147, 5, 147, 8, 112, 2, 112, 5, 112, 8, 293, 3, 293, 6, 293, 9, 196, 3, 196, 6, 196, 9, 44, 2, 44, 5, 44, 8, 6, 1, 6, 4, 6, 7, 43, 3, 43, 6, 43, 9, 49, 2, 49, 5, 49, 8, 40, 1, 40, 4, 40, 7, 307, 1, 307, 4, 307, 7, 158, 3, 158, 6, 158, 9, 189, 1, 189, 4, 189, 7, 196, 2, 196, 5, 196, 8, 152, 3, 152, 6, 152, 9, 90, 3, 90, 6, 90, 9, 162, 3, 162, 6, 162, 9, 123, 3, 123, 6, 123, 9, 87, 2, 87, 5, 87, 8, 248, 3, 248, 6, 248, 9, 22, 3, 22, 6, 22, 9, 162, 1, 162, 4, 162, 7, 60, 2, 60, 5, 60, 8, 274, 2, 274, 5, 274, 8, 20, 1, 20, 4, 20, 7, 141, 1, 141, 4, 141, 7, 74, 3, 74, 6, 74, 9, 277, 3, 277, 6, 277, 9, 82, 2, 82, 5, 82, 8, 116, 3, 116, 6, 116, 9, 164, 1, 164, 4, 164, 7, 135, 3, 135, 6, 135, 9, 286, 3, 286, 6, 286, 9, 88, 3, 88, 6, 88, 9, 197, 2, 197, 5, 197, 8, 212, 1, 212, 4, 212, 7, 136, 3, 136, 6, 136, 9, 255, 1, 255, 4, 255, 7, 71, 3, 71, 6, 71, 9, 108, 3, 108, 6, 108, 9, 294, 2, 294, 5, 294, 8, 202, 3, 202, 6, 202, 9, 211, 3, 211, 6, 211, 9, 149, 1, 149, 4, 149, 7, 292, 3, 292, 6, 292, 9, 46, 3, 46, 6, 46, 9, 191, 1, 191, 4, 191, 7, 242, 1, 242, 4, 242, 7, 138, 1, 138, 4, 138, 7, 58, 1, 58, 4, 58, 7, 171, 2, 171, 5, 171, 8, 53, 3, 53, 6, 53, 9, 32, 1, 32, 4, 32, 7, 153, 3, 153, 6, 153, 9, 303, 3, 303, 6, 303, 9, 211, 2, 211, 5, 211, 8, 231, 2, 231, 5, 231, 8, 91, 1, 91, 4, 91, 7, 180, 1, 180, 4, 180, 7, 47, 3, 47, 6, 47, 9, 39, 3, 39, 6, 39, 9, 51, 3, 51, 6, 51, 9, 23, 3, 23, 6, 23, 9, 17, 2, 17, 5, 17, 8, 55, 1, 55, 4, 55, 7, 245, 3, 245, 6, 245, 9, 197, 3, 197, 6, 197, 9, 29, 1, 29, 4, 29, 7, 160, 1, 160, 4, 160, 7, 22, 1, 22, 4, 22, 7, 142, 3, 142, 6, 142, 9, 177, 3, 177, 6, 177, 9, 16, 1, 16, 4, 16, 7, 274, 1, 274, 4, 274, 7, 268, 1, 268, 4, 268, 7, 2, 3, 2, 6, 2, 9, 183, 1, 183, 4, 183, 7, 51, 2, 51, 5, 51, 8, 281, 3, 281, 6, 281, 9, 111, 2, 111, 5, 111, 8, 178, 2, 178, 5, 178, 8, 163, 3, 163, 6, 163, 9, 94, 3, 94, 6, 94, 9, 178, 3, 178, 6, 178, 9, 230, 2, 230, 5, 230, 8, 11, 3, 11, 6, 11, 9] );
% {'c52': 30, 'c696': 183, 'c232': 142, 'c772': 207, 'c101': 60, 'c1035': 264, 'c1069': 277, 'c206': 119, 'c219': 131, 'c905': 232, 'c124': 79, 'c18': 9, 'c1045': 269, 'c1090': 287, 'c78': 48, 'c53': 31, 'c723': 196, 'c980': 246, 'c162': 93, 'c85': 50, 'c945': 237, 'c1060': 275, 'c113': 70, 'c143': 88, 'c710': 194, 'c191': 107, 'c1027': 259, 'c695': 182, 'c773': 208, 'c117': 74, 'c184': 103, 'c7': 2, 'c23': 12, 'c694': 181, 'c1007': 250, 'c1061': 276, 'c72': 44, 'c953': 239, 'c92': 54, 'c955': 240, 'c112': 69, 'c243': 150, 'c178': 99, 'c71': 43, 'c214': 126, 'c691': 178, 'c699': 186, 'c218': 130, 'c883': 219, 'c148': 89, 'c1084': 282, 'c896': 225, 'c27': 15, 'c69': 41, 'c1158': 296, 'c230': 140, 'c199': 113, 'c171': 95, 'c278': 162, 'c884': 220, 'c734': 199, 'c1031': 260, 'c133': 86, 'c685': 174, 'c732': 197, 'c204': 117, 'c132': 85, 'c1155': 293, 'c32': 18, 'c116': 73, 'c150': 91, 'c704': 190, 'c1170': 303, 'c91': 53, 'c722': 195, 'c110': 68, 'c468': 167, 'c128': 83, 'c1043': 268, 'c233': 143, 'c88': 51, 'c35': 21, 'c904': 231, 'c241': 149, 'c689': 176, 'c1089': 286, 'c226': 137, 'c131': 84, 'c682': 172, 'c771': 206, 'c701': 188, 'c207': 120, 'c1033': 262, 'c153': 92, 'c20': 11, 'c1152': 292, 'c1192': 307, 'c227': 138, 'c978': 245, 'c74': 46, 'c1013': 253, 'c931': 235, 'c1017': 254, 'c33': 19, 'c225': 136, 'c1087': 285, 'c240': 148, 'c271': 158, 'c60': 37, 'c98': 58, 'c1037': 266, 'c1036': 265, 'c208': 121, 'c181': 102, 'c189': 106, 'c195': 109, 'c1077': 280, 'c875': 216, 'c29': 16, 'c1052': 272, 'c9': 3, 'c37': 23, 'c683': 173, 'c690': 177, 'c1086': 284, 'c213': 125, 'c26': 14, 'c45': 25, 'c13': 6, 'c123': 78, 'c975': 244, 'c198': 112, 'c1164': 300, 'c94': 55, 'c221': 133, 'c281': 165, 'c901': 230, 'c999': 249, 'c12': 5, 'c73': 45, 'c1145': 289, 'c687': 175, 'c471': 168, 'c1191': 306, 'c777': 209, 'c137': 87, 'c1018': 255, 'c70': 42, 'c900': 229, 'c741': 200, 'c778': 210, 'c115': 72, 'c275': 160, 'c708': 193, 'c280': 164, 'c746': 202, 'c769': 204, 'c121': 76, 'c473': 169, 'c1162': 298, 'c706': 192, 'c1144': 288, 'c838': 215, 'c698': 185, 'c200': 114, 'c1168': 301, 'c963': 241, 'c47': 27, 'c57': 34, 'c201': 115, 'c767': 203, 'c1085': 283, 'c1032': 261, 'c681': 171, 'c173': 96, 'c254': 155, 'c1180': 305, 'c223': 134, 'c211': 123, 'c1151': 291, 'c55': 32, 'c742': 201, 'c239': 147, 'c703': 189, 'c107': 65, 'c36': 22, 'c700': 187, 'c837': 214, 'c892': 221, 'c215': 127, 'c125': 80, 'c177': 98, 'c907': 233, 'c103': 61, 'c467': 166, 'c58': 35, 'c95': 56, 'c217': 129, 'c174': 97, 'c44': 24, 'c104': 62, 'c733': 198, 'c210': 122, 'c197': 111, 'c1149': 290, 'c34': 20, 'c935': 236, 'c15': 8, 'c1078': 281, 'c881': 217, 'c898': 227, 'c61': 38, 'c779': 211, 'c51': 29, 'c236': 144, 'c89': 52, 'c1050': 270, 'c1169': 302, 'c14': 7, 'c109': 67, 'c205': 118, 'c1076': 279, 'c193': 108, 'c105': 63, 'c56': 33, 'c910': 234, 'c1161': 297, 'c1157': 295, 'c781': 213, 'c998': 248, 'c1034': 263, 'c106': 64, 'c705': 191, 'c697': 184, 'c1020': 257, 'c179': 100, 'c274': 159, 'c893': 222, 'c680': 170, 'c46': 26, 'c1156': 294, 'c1019': 256, 'c220': 132, 'c64': 40, 'c163': 94, 'c62': 39, 'c895': 224, 'c118': 75, 'c253': 154, 'c59': 36, 'c19': 10, 'c228': 139, 'c108': 66, 'c894': 223, 'c126': 81, 'c247': 151, 'c1008': 251, 'c231': 141, 'c780': 212, 'c6': 1, 'c196': 110, 'c114': 71, 'c693': 180, 'c237': 145, 'c969': 242, 'c212': 124, 'c180': 101, 'c692': 179, 'c261': 157, 'c122': 77, 'c770': 205, 'c1075': 278, 'c203': 116, 'c216': 128, 'c972': 243, 'c1009': 252, 'c77': 47, 'c899': 228, 'c1059': 274, 'c249': 152, 'c149': 90, 'c1051': 271, 'c279': 163, 'c99': 59, 'c946': 238, 'c238': 146, 'c1042': 267, 'c257': 156, 'c11': 4, 'c1163': 299, 'c277': 161, 'c1023': 258, 'c1058': 273, 'c127': 82, 'c49': 28, 'c188': 105, 'c224': 135, 'c24': 13, 'c252': 153, 'c897': 226, 'c1171': 304, 'c80': 49, 'c882': 218, 'c97': 57, 'c30': 17, 'c185': 104, 'c983': 247}
