%  Real case instance UD6 of http://satt.diegm.uniud.it/projects/gbac/ 
%  Downloaded from https://bitbucket.org/satt/gbacp-instances/raw/Imported/UD/
%  and translated into a MiniZinc data-file.

%  Ing@UD aa08-09, second level

n_periods =  4 ;
n_courses =  264 ;
n_curricula =  20 ;
min_courses =  2 ;
max_courses =  8 ;
n_precedences =  70 ;
n_undesirables =  110 ;
w1 = 1;
w2 = 1;
course_load =  [6, 6, 6, 6, 6, 5, 5, 6, 6, 6, 6, 16, 5, 6, 6, 6, 5, 5, 5, 6, 5, 5, 6, 5, 6, 6, 6, 6, 6, 6, 5, 5, 5, 5, 7, 7, 5, 5, 7, 7, 7, 5, 5, 5, 6, 6, 6, 5, 7, 7, 5, 5, 7, 7, 6, 6, 7, 5, 5, 15, 5, 5, 5, 5, 5, 5, 5, 5, 5, 5, 7, 5, 7, 7, 5, 5, 5, 7, 7, 5, 5, 5, 5, 5, 5, 5, 5, 5, 5, 5, 5, 5, 5, 5, 5, 5, 5, 5, 5, 5, 5, 5, 5, 6, 6, 5, 6, 5, 5, 5, 6, 6, 5, 15, 17, 5, 5, 7, 7, 5, 6, 5, 5, 6, 6, 16, 6, 6, 6, 6, 6, 6, 6, 6, 6, 5, 5, 5, 6, 6, 6, 6, 6, 6, 6, 6, 5, 6, 5, 5, 6, 6, 6, 6, 6, 6, 6, 5, 5, 5, 5, 5, 5, 5, 5, 5, 5, 5, 5, 5, 5, 5, 5, 5, 5, 5, 5, 5, 5, 10, 5, 5, 5, 6, 5, 5, 6, 6, 2, 1, 1, 1, 1, 5, 3, 3, 3, 3, 5, 5, 5, 5, 5, 5, 5, 5, 5, 6, 5, 5, 6, 16, 6, 7, 6, 6, 6, 6, 6, 6, 6, 6, 6, 6, 6, 3, 15, 6, 6, 6, 6, 6, 6, 6, 6, 5, 6, 5, 6, 5, 5, 5, 5, 6, 5, 5, 6, 5, 5, 5, 5, 5, 6, 5, 5, 5, 5, 5, 5, 5, 5, 6, 5, 6] ;
courses_of =  [{262, 263, 35, 39, 40, 45, 46, 47, 48, 49, 53, 186, 61, 62, 67, 103, 104, 105, 107, 108, 110, 115, 121}, {262, 263, 35, 38, 39, 40, 45, 46, 47, 48, 49, 53, 58, 62, 64, 67, 103, 104, 105, 107, 108, 109, 115}, {263, 16, 35, 36, 37, 38, 39, 40, 41, 42, 45, 46, 47, 48, 187, 188, 79, 98, 99, 103, 106, 115, 117}, {134, 263, 35, 36, 37, 38, 39, 40, 41, 43, 44, 45, 46, 47, 48, 187, 188, 100, 101, 102, 103, 115, 117}, {1, 2, 3, 4, 5, 6, 7, 8, 9, 10, 11, 12, 13, 14, 15, 144, 16, 17, 18, 22, 23, 24, 25, 157, 31, 183, 211, 213, 234, 236, 111, 112}, {2, 7, 8, 9, 10, 11, 13, 14, 144, 16, 19, 20, 21, 22, 24, 25, 26, 27, 28, 29, 30, 157, 32, 33, 34, 184, 212, 214, 235, 237, 111, 116}, {121, 122, 199, 41, 120, 208, 49, 50, 51, 52, 53, 54, 55, 56, 57, 58, 59, 60, 181, 113, 182}, {49, 50, 52, 53, 54, 55, 56, 57, 181, 182, 60, 61, 62, 63, 64, 194, 199, 200, 207, 208, 209, 108, 113, 121}, {41, 49, 50, 51, 53, 54, 55, 56, 57, 181, 182, 60, 65, 66, 67, 68, 69, 200, 208, 82, 215, 113, 121}, {185, 189, 190, 191, 192, 193, 70, 71, 72, 73, 74, 75, 76, 77, 78, 79, 80, 81, 82, 83, 84, 96, 97, 114, 118, 119}, {16, 17, 189, 190, 191, 192, 193, 70, 71, 72, 73, 74, 201, 78, 79, 80, 83, 85, 86, 87, 88, 89, 96, 97, 114, 118, 119}, {185, 189, 190, 191, 192, 193, 70, 71, 72, 73, 74, 77, 78, 79, 80, 90, 91, 92, 93, 94, 95, 96, 97, 114, 118, 119}, {128, 129, 130, 131, 132, 133, 262, 134, 135, 136, 137, 138, 139, 142, 152, 153, 155, 156, 195, 196, 197, 198, 85, 89, 239, 244, 245, 246, 247, 125, 126, 127}, {2, 262, 138, 139, 140, 141, 142, 143, 144, 14, 145, 146, 147, 148, 149, 150, 151, 152, 154, 27, 156, 157, 238, 239, 240, 241, 242, 243, 123, 125, 126}, {129, 2, 5, 262, 138, 139, 140, 141, 14, 142, 145, 146, 148, 149, 150, 151, 152, 154, 27, 156, 157, 33, 238, 239, 240, 241, 242, 243, 123, 124, 253, 126}, {256, 257, 258, 259, 260, 261, 158, 159, 160, 161, 162, 163, 164, 165, 166, 167, 168, 169, 170, 171, 174, 179, 180, 203, 205, 210, 248, 249, 250, 254, 255}, {256, 257, 258, 259, 260, 261, 158, 159, 160, 161, 162, 163, 164, 165, 166, 167, 168, 169, 170, 172, 173, 179, 180, 203, 205, 210, 248, 249, 250, 254, 255}, {256, 257, 258, 259, 260, 261, 158, 159, 160, 161, 162, 163, 164, 165, 166, 167, 168, 169, 175, 176, 180, 202, 203, 204, 205, 210, 248, 249, 250, 254, 255}, {256, 257, 258, 259, 260, 261, 158, 159, 160, 161, 162, 163, 164, 165, 166, 167, 168, 169, 172, 177, 178, 180, 202, 205, 206, 210, 248, 249, 250, 254, 255}, {224, 225, 226, 227, 228, 229, 230, 231, 232, 233, 264, 251, 252, 216, 217, 218, 219, 220, 221, 222, 223}] ;
precedes = array2d(precedences,1..2, [3, 213, 3, 214, 7, 213, 7, 214, 8, 213, 8, 214, 10, 11, 16, 17, 20, 213, 20, 214, 24, 213, 24, 214, 25, 213, 25, 214, 26, 213, 26, 214, 28, 213, 28, 214, 31, 144, 49, 194, 52, 108, 53, 58, 61, 63, 66, 69, 97, 70, 104, 105, 104, 188, 117, 108, 123, 5, 125, 147, 127, 139, 129, 124, 132, 131, 133, 139, 140, 141, 144, 139, 157, 139, 157, 2, 14, 139, 145, 139, 146, 149, 148, 150, 151, 253, 152, 139, 157, 213, 157, 214, 163, 210, 181, 182, 183, 213, 183, 214, 187, 105, 187, 188, 195, 139, 196, 139, 197, 139, 198, 139, 211, 15, 211, 213, 211, 214, 215, 59, 234, 213, 234, 214, 235, 24, 237, 213, 237, 214, 241, 139, 242, 139, 244, 139, 246, 139, 247, 139] );
undesirable = array2d(undesirables,1..2, [5, 1, 5, 3, 17, 1, 17, 3, 19, 2, 19, 4, 35, 1, 35, 3, 37, 2, 37, 4, 38, 2, 38, 4, 39, 2, 39, 4, 42, 1, 42, 3, 50, 1, 50, 3, 51, 2, 51, 4, 61, 2, 61, 4, 63, 2, 63, 4, 71, 2, 71, 4, 74, 2, 74, 4, 75, 1, 75, 3, 76, 2, 76, 4, 78, 2, 78, 4, 89, 2, 89, 4, 93, 2, 93, 4, 97, 2, 97, 4, 100, 2, 100, 4, 106, 2, 106, 4, 116, 2, 116, 4, 117, 2, 117, 4, 119, 1, 119, 3, 121, 1, 121, 3, 127, 2, 127, 4, 128, 1, 128, 3, 131, 2, 131, 4, 136, 2, 136, 4, 139, 1, 139, 3, 140, 2, 140, 4, 141, 1, 141, 3, 147, 1, 147, 3, 162, 1, 162, 3, 164, 1, 164, 3, 168, 2, 168, 4, 169, 1, 169, 3, 170, 1, 170, 3, 174, 2, 174, 4, 181, 2, 181, 4, 182, 1, 182, 3, 207, 2, 207, 4, 208, 1, 208, 3, 214, 2, 214, 4, 219, 1, 219, 3, 222, 1, 222, 3, 236, 1, 236, 3, 239, 2, 239, 4, 241, 1, 241, 3, 246, 2, 246, 4, 251, 2, 251, 4, 252, 2, 252, 4, 253, 2, 253, 4, 264, 1, 264, 3] );
% {'c1124': 235, 'c1141': 249, 'c432': 19, 'c795': 129, 'c996': 187, 'c797': 131, 'c1057': 201, 'c412': 3, 'c1131': 240, 'c535': 91, 'c936': 185, 'c1071': 209, 'c1176': 258, 'c503': 67, 'c798': 132, 'c599': 107, 'c1097': 218, 'c830': 152, 'c1147': 252, 'c512': 73, 'c440': 26, 'c521': 80, 'c872': 180, 'c1004': 192, 'c507': 70, 'c850': 167, 'c853': 169, 'c813': 141, 'c539': 95, 'c497': 63, 'c454': 38, 'c831': 153, 'c458': 42, 'c933': 184, 'c1177': 259, 'c1068': 208, 'c502': 66, 'c536': 92, 'c415': 4, 'c678': 114, 'c520': 79, 'c835': 156, 'c806': 136, 'c501': 65, 'c745': 121, 'c841': 160, 'c538': 94, 'c1110': 227, 'c444': 30, 'c460': 43, 'c1112': 229, 'c1126': 237, 'c1064': 204, 'c523': 81, 'c1132': 241, 'c1167': 255, 'c1074': 211, 'c1062': 202, 'c922': 182, 'c814': 142, 'c803': 134, 'c852': 168, 'c788': 123, 'c1166': 254, 'c816': 144, 'c561': 103, 'c730': 120, 'c670': 112, 'c1104': 222, 'c834': 155, 'c1148': 253, 'c800': 133, 'c1118': 230, 'c513': 74, 'c1103': 221, 'c496': 62, 'c869': 178, 'c871': 179, 'c1142': 250, 'c1096': 217, 'c526': 84, 'c531': 87, 'c425': 12, 'c815': 143, 'c464': 47, 'c437': 23, 'c540': 96, 'c510': 71, 'c1067': 207, 'c932': 183, 'c791': 126, 'c462': 45, 'c423': 11, 'c491': 59, 'c1095': 216, 'c1185': 263, 'c725': 119, 'c796': 130, 'c790': 125, 'c1001': 189, 'c1119': 231, 'c839': 158, 'c1128': 239, 'c453': 37, 'c486': 56, 'c840': 159, 'c441': 27, 'c849': 166, 'c416': 5, 'c826': 150, 'c566': 105, 'c1133': 242, 'c516': 77, 'c921': 181, 'c455': 39, 'c812': 140, 'c1106': 224, 'c822': 147, 'c474': 49, 'c647': 111, 'c450': 35, 'c527': 85, 'c724': 118, 'c435': 21, 'c1047': 198, 'c1105': 223, 'c514': 75, 'c477': 52, 'c524': 82, 'c417': 6, 'c846': 163, 'c1022': 196, 'c1109': 226, 'c721': 117, 'c1079': 212, 'c436': 22, 'c860': 172, 'c1125': 236, 'c564': 104, 'c532': 88, 'c445': 31, 'c463': 46, 'c836': 157, 'c498': 64, 'c461': 44, 'c439': 25, 'c1082': 214, 'c438': 24, 'c475': 50, 'c554': 102, 'c433': 20, 'c1136': 245, 'c1127': 238, 'c607': 110, 'c1146': 251, 'c411': 2, 'c1137': 246, 'c866': 176, 'c1011': 194, 'c789': 124, 'c1063': 203, 'c511': 72, 'c862': 174, 'c861': 173, 'c1134': 243, 'c807': 137, 'c504': 68, 'c519': 78, 'c452': 36, 'c600': 108, 'c430': 17, 'c856': 170, 'c1122': 233, 'c1081': 213, 'c1252': 264, 'c747': 122, 'c494': 60, 'c1002': 190, 'c419': 7, 'c476': 51, 'c479': 54, 'c823': 148, 'c495': 61, 'c489': 58, 'c525': 83, 'c1123': 234, 'c530': 86, 'c428': 15, 'c1072': 210, 'c443': 29, 'c676': 113, 'c447': 33, 'c1179': 261, 'c1111': 228, 'c716': 115, 'c1175': 257, 'c1107': 225, 'c487': 57, 'c1066': 206, 'c857': 171, 'c541': 97, 'c533': 89, 'c427': 14, 'c848': 165, 'c1021': 195, 'c457': 41, 'c828': 151, 'c478': 53, 'c409': 1, 'c804': 135, 'c1184': 262, 'c420': 8, 'c537': 93, 'c1140': 248, 'c1053': 199, 'c429': 16, 'c1005': 193, 'c820': 145, 'c1135': 244, 'c845': 162, 'c1099': 219, 'c1120': 232, 'c426': 13, 'c833': 154, 'c1174': 256, 'c821': 146, 'c794': 128, 'c847': 164, 'c844': 161, 'c1178': 260, 'c456': 40, 'c1138': 247, 'c1003': 191, 'c868': 177, 'c997': 188, 'c1046': 197, 'c793': 127, 'c546': 100, 'c824': 149, 'c1101': 220, 'c993': 186, 'c808': 138, 'c551': 101, 'c598': 106, 'c865': 175, 'c718': 116, 'c484': 55, 'c543': 98, 'c446': 32, 'c534': 90, 'c506': 69, 'c1065': 205, 'c544': 99, 'c449': 34, 'c811': 139, 'c442': 28, 'c515': 76, 'c465': 48, 'c422': 10, 'c1055': 200, 'c1088': 215, 'c606': 109, 'c421': 9, 'c431': 18}
